*SPEF "ieee 1481-1999"
*DESIGN "bridge"
*DATE "10:07:24 Thursday May 07, 2026"
*VENDOR "The OpenROAD Project"
*PROGRAM "OpenROAD"
*VERSION "edf00dff99f6c40d67a30c0e22a8191c5d2ed9d6"
*DESIGN_FLOW "NAME_SCOPE LOCAL" "PIN_CAP NONE"
*DIVIDER /
*DELIMITER :
*BUS_DELIMITER []
*T_UNIT 1 NS
*C_UNIT 1 PF
*R_UNIT 1 OHM
*L_UNIT 1 HENRY

*NAME_MAP
*1 PADDR[0]
*2 PADDR[1]
*3 PADDR[2]
*4 PENABLE
*5 PRDATA[0]
*6 PRDATA[10]
*7 PRDATA[11]
*8 PRDATA[12]
*9 PRDATA[13]
*10 PRDATA[14]
*11 PRDATA[15]
*12 PRDATA[1]
*13 PRDATA[2]
*14 PRDATA[3]
*15 PRDATA[4]
*16 PRDATA[5]
*17 PRDATA[6]
*18 PRDATA[7]
*19 PRDATA[8]
*20 PRDATA[9]
*21 PREADY
*22 net57
*23 net58
*24 net59
*25 net60
*26 net61
*27 net71
*28 net72
*29 net73
*30 net74
*31 net75
*32 net76
*33 net62
*34 net63
*35 net64
*36 net65
*37 net66
*38 net67
*39 net68
*40 net69
*41 net70
*42 PWRITE
*45 araddr[0]
*46 araddr[1]
*47 araddr[2]
*48 araddr[3]
*49 araddr[4]
*50 arburst[0]
*51 arburst[1]
*52 arlen[0]
*53 arlen[1]
*54 arlen[2]
*55 arlen[3]
*56 arready
*57 arvalid
*58 awaddr[0]
*59 awaddr[1]
*60 awaddr[2]
*61 awaddr[3]
*62 awaddr[4]
*63 awburst[0]
*64 awburst[1]
*65 awlen[0]
*66 awlen[1]
*67 awlen[2]
*68 awlen[3]
*69 awready
*70 awvalid
*71 bready
*72 bresp
*73 bvalid
*74 clk
*75 net77
*76 net87
*77 net88
*78 net89
*79 net90
*80 net91
*81 net92
*82 net78
*83 net79
*84 net80
*85 net81
*86 net82
*87 net83
*88 net84
*89 net85
*90 net86
*91 res_n
*92 rlast
*93 rready
*94 rresp
*95 rvalid
*96 wdata[0]
*97 wdata[10]
*98 wdata[11]
*99 wdata[12]
*100 wdata[13]
*101 wdata[14]
*102 wdata[15]
*103 wdata[1]
*104 wdata[2]
*105 wdata[3]
*106 wdata[4]
*107 wdata[5]
*108 wdata[6]
*109 wdata[7]
*110 wdata[8]
*111 wdata[9]
*112 wlast
*113 wready
*114 wvalid
*115 DADDR\[0\]
*116 DADDR\[1\]
*117 DADDR\[2\]
*118 DWREQ
*119 _000_
*120 _001_
*121 _002_
*122 _003_
*123 _004_
*124 _005_
*125 _006_
*126 _007_
*127 _008_
*128 _009_
*129 _010_
*130 _011_
*131 _012_
*132 _013_
*133 _014_
*134 _015_
*135 _016_
*136 _017_
*137 _018_
*138 _019_
*139 _020_
*140 _021_
*141 _022_
*142 _023_
*143 _024_
*144 _025_
*145 _026_
*146 _027_
*147 _028_
*148 _029_
*149 _030_
*150 _031_
*151 _032_
*152 _033_
*153 _034_
*154 _035_
*155 _036_
*156 _037_
*157 _038_
*158 _039_
*159 _040_
*160 _041_
*161 _042_
*162 _043_
*163 _044_
*164 _045_
*165 _046_
*166 _047_
*167 _048_
*168 _049_
*169 _050_
*170 _051_
*171 _052_
*172 _053_
*173 _054_
*174 _055_
*175 _056_
*176 _057_
*177 _058_
*178 _059_
*179 _060_
*180 _061_
*181 _062_
*182 _063_
*183 _064_
*184 _065_
*185 _066_
*186 _067_
*187 _068_
*188 _069_
*189 _070_
*190 _071_
*191 _072_
*192 _073_
*193 _074_
*194 _075_
*195 _076_
*196 _077_
*197 _078_
*198 _079_
*199 _080_
*200 _081_
*201 _082_
*202 _083_
*203 _084_
*204 _085_
*205 _086_
*206 _087_
*207 _088_
*208 _089_
*209 _090_
*210 _091_
*211 _092_
*212 _093_
*213 _094_
*214 _095_
*215 _096_
*216 _097_
*217 _098_
*218 _099_
*219 _100_
*220 _101_
*221 _102_
*222 _103_
*223 _104_
*224 _105_
*225 _106_
*226 _107_
*227 _108_
*228 _109_
*229 _110_
*230 _111_
*231 _112_
*232 _113_
*233 _114_
*234 _115_
*235 _116_
*236 _117_
*237 _118_
*238 _119_
*239 _120_
*240 _121_
*241 _122_
*242 _123_
*243 _124_
*244 _125_
*245 araddr_pipe\[0\]
*246 araddr_pipe\[1\]
*247 araddr_pipe\[2\]
*248 arburst_pipe\[0\]
*249 arburst_pipe\[1\]
*250 arlen_pipe\[0\]
*251 arlen_pipe\[1\]
*252 arlen_pipe\[2\]
*253 arlen_pipe\[3\]
*254 arvalid_pipe
*255 awaddr_pipe\[0\]
*256 awaddr_pipe\[1\]
*257 awaddr_pipe\[2\]
*258 awburst_pipe\[0\]
*259 awburst_pipe\[1\]
*260 awlen_pipe\[0\]
*261 awlen_pipe\[1\]
*262 awlen_pipe\[2\]
*263 awlen_pipe\[3\]
*264 awvalid_pipe
*265 burst\[0\]
*266 burst\[1\]
*267 clknet_0_clk
*268 clknet_2_0__leaf_clk
*269 clknet_2_1__leaf_clk
*270 clknet_2_2__leaf_clk
*271 clknet_2_3__leaf_clk
*272 current_state\[0\]
*273 current_state\[1\]
*274 current_state\[2\]
*275 current_state\[3\]
*276 last
*277 lenM\[0\]
*278 lenM\[1\]
*279 lenM\[2\]
*280 lenM\[3\]
*281 lenS\[0\]
*282 lenS\[1\]
*283 lenS\[2\]
*284 lenS\[3\]
*285 net1
*286 net10
*287 net11
*288 net12
*289 net13
*290 net14
*291 net15
*292 net16
*293 net17
*294 net18
*295 net19
*296 net2
*297 net20
*298 net21
*299 net22
*300 net23
*301 net24
*302 net25
*303 net26
*304 net27
*305 net28
*306 net29
*307 net3
*308 net30
*309 net31
*310 net32
*311 net33
*312 net34
*313 net35
*314 net36
*315 net37
*316 net38
*317 net39
*318 net4
*319 net40
*320 net41
*321 net42
*322 net43
*323 net44
*324 net45
*325 net46
*326 net47
*327 net48
*328 net49
*329 net5
*330 net50
*331 net51
*332 net52
*333 net53
*334 net54
*335 net55
*336 net56
*337 net6
*338 net7
*339 net8
*340 net9
*341 net93
*342 net94
*343 net95
*344 net96
*345 net97
*346 net98
*347 wvalid_pipe
*348 FILLER_0_104
*349 FILLER_0_113
*350 FILLER_0_121
*351 FILLER_0_125
*352 FILLER_0_132
*353 FILLER_0_141
*354 FILLER_0_15
*355 FILLER_0_153
*356 FILLER_0_165
*357 FILLER_0_27
*358 FILLER_0_29
*359 FILLER_0_3
*360 FILLER_0_34
*361 FILLER_0_46
*362 FILLER_0_57
*363 FILLER_0_62
*364 FILLER_0_70
*365 FILLER_0_76
*366 FILLER_0_85
*367 FILLER_0_91
*368 FILLER_0_98
*369 FILLER_10_109
*370 FILLER_10_113
*371 FILLER_10_118
*372 FILLER_10_12
*373 FILLER_10_144
*374 FILLER_10_150
*375 FILLER_10_157
*376 FILLER_10_169
*377 FILLER_10_17
*378 FILLER_10_25
*379 FILLER_10_29
*380 FILLER_10_6
*381 FILLER_10_72
*382 FILLER_10_78
*383 FILLER_10_85
*384 FILLER_10_97
*385 FILLER_11_106
*386 FILLER_11_116
*387 FILLER_11_128
*388 FILLER_11_134
*389 FILLER_11_162
*390 FILLER_11_169
*391 FILLER_11_173
*392 FILLER_11_23
*393 FILLER_11_35
*394 FILLER_11_51
*395 FILLER_11_55
*396 FILLER_11_57
*397 FILLER_11_62
*398 FILLER_11_70
*399 FILLER_11_85
*400 FILLER_12_112
*401 FILLER_12_133
*402 FILLER_12_14
*403 FILLER_12_161
*404 FILLER_12_168
*405 FILLER_12_26
*406 FILLER_12_52
*407 FILLER_12_60
*408 FILLER_12_64
*409 FILLER_12_70
*410 FILLER_12_79
*411 FILLER_12_83
*412 FILLER_12_85
*413 FILLER_12_89
*414 FILLER_12_94
*415 FILLER_13_102
*416 FILLER_13_113
*417 FILLER_13_122
*418 FILLER_13_126
*419 FILLER_13_139
*420 FILLER_13_151
*421 FILLER_13_169
*422 FILLER_13_177
*423 FILLER_13_24
*424 FILLER_13_28
*425 FILLER_13_3
*426 FILLER_13_52
*427 FILLER_13_57
*428 FILLER_13_66
*429 FILLER_13_72
*430 FILLER_14_105
*431 FILLER_14_111
*432 FILLER_14_116
*433 FILLER_14_125
*434 FILLER_14_137
*435 FILLER_14_157
*436 FILLER_14_166
*437 FILLER_14_170
*438 FILLER_14_23
*439 FILLER_14_27
*440 FILLER_14_35
*441 FILLER_14_45
*442 FILLER_14_51
*443 FILLER_14_57
*444 FILLER_14_69
*445 FILLER_14_81
*446 FILLER_15_106
*447 FILLER_15_110
*448 FILLER_15_119
*449 FILLER_15_131
*450 FILLER_15_14
*451 FILLER_15_143
*452 FILLER_15_151
*453 FILLER_15_166
*454 FILLER_15_174
*455 FILLER_15_37
*456 FILLER_15_49
*457 FILLER_15_55
*458 FILLER_15_57
*459 FILLER_15_6
*460 FILLER_15_65
*461 FILLER_15_70
*462 FILLER_15_82
*463 FILLER_15_90
*464 FILLER_16_139
*465 FILLER_16_151
*466 FILLER_16_163
*467 FILLER_16_171
*468 FILLER_16_18
*469 FILLER_16_26
*470 FILLER_16_29
*471 FILLER_16_37
*472 FILLER_16_57
*473 FILLER_16_6
*474 FILLER_16_79
*475 FILLER_16_83
*476 FILLER_16_85
*477 FILLER_16_97
*478 FILLER_17_104
*479 FILLER_17_113
*480 FILLER_17_125
*481 FILLER_17_138
*482 FILLER_17_150
*483 FILLER_17_169
*484 FILLER_17_18
*485 FILLER_17_30
*486 FILLER_17_6
*487 FILLER_17_62
*488 FILLER_17_68
*489 FILLER_17_92
*490 FILLER_18_118
*491 FILLER_18_145
*492 FILLER_18_151
*493 FILLER_18_167
*494 FILLER_18_175
*495 FILLER_18_23
*496 FILLER_18_27
*497 FILLER_18_36
*498 FILLER_18_49
*499 FILLER_18_55
*500 FILLER_18_67
*501 FILLER_18_79
*502 FILLER_18_83
*503 FILLER_18_94
*504 FILLER_19_111
*505 FILLER_19_113
*506 FILLER_19_146
*507 FILLER_19_156
*508 FILLER_19_169
*509 FILLER_19_18
*510 FILLER_19_30
*511 FILLER_19_42
*512 FILLER_19_54
*513 FILLER_19_6
*514 FILLER_19_65
*515 FILLER_19_77
*516 FILLER_19_96
*517 FILLER_1_102
*518 FILLER_1_110
*519 FILLER_1_113
*520 FILLER_1_121
*521 FILLER_1_142
*522 FILLER_1_15
*523 FILLER_1_154
*524 FILLER_1_166
*525 FILLER_1_169
*526 FILLER_1_27
*527 FILLER_1_3
*528 FILLER_1_48
*529 FILLER_1_57
*530 FILLER_1_69
*531 FILLER_1_90
*532 FILLER_20_106
*533 FILLER_20_138
*534 FILLER_20_141
*535 FILLER_20_158
*536 FILLER_20_170
*537 FILLER_20_174
*538 FILLER_20_42
*539 FILLER_20_65
*540 FILLER_20_7
*541 FILLER_20_77
*542 FILLER_20_83
*543 FILLER_20_85
*544 FILLER_21_102
*545 FILLER_21_110
*546 FILLER_21_113
*547 FILLER_21_122
*548 FILLER_21_134
*549 FILLER_21_146
*550 FILLER_21_151
*551 FILLER_21_163
*552 FILLER_21_167
*553 FILLER_21_169
*554 FILLER_21_173
*555 FILLER_21_23
*556 FILLER_21_35
*557 FILLER_21_47
*558 FILLER_21_55
*559 FILLER_21_57
*560 FILLER_21_65
*561 FILLER_21_82
*562 FILLER_21_94
*563 FILLER_22_111
*564 FILLER_22_119
*565 FILLER_22_141
*566 FILLER_22_153
*567 FILLER_22_165
*568 FILLER_22_177
*569 FILLER_22_21
*570 FILLER_22_27
*571 FILLER_22_29
*572 FILLER_22_41
*573 FILLER_22_53
*574 FILLER_22_59
*575 FILLER_22_68
*576 FILLER_22_80
*577 FILLER_22_85
*578 FILLER_22_9
*579 FILLER_22_99
*580 FILLER_23_106
*581 FILLER_23_113
*582 FILLER_23_125
*583 FILLER_23_146
*584 FILLER_23_158
*585 FILLER_23_166
*586 FILLER_23_169
*587 FILLER_23_177
*588 FILLER_23_23
*589 FILLER_23_31
*590 FILLER_23_52
*591 FILLER_23_66
*592 FILLER_23_78
*593 FILLER_23_90
*594 FILLER_24_101
*595 FILLER_24_133
*596 FILLER_24_139
*597 FILLER_24_141
*598 FILLER_24_153
*599 FILLER_24_165
*600 FILLER_24_177
*601 FILLER_24_23
*602 FILLER_24_27
*603 FILLER_24_29
*604 FILLER_24_41
*605 FILLER_24_49
*606 FILLER_24_71
*607 FILLER_24_83
*608 FILLER_24_85
*609 FILLER_24_97
*610 FILLER_25_111
*611 FILLER_25_113
*612 FILLER_25_125
*613 FILLER_25_137
*614 FILLER_25_149
*615 FILLER_25_161
*616 FILLER_25_167
*617 FILLER_25_169
*618 FILLER_25_17
*619 FILLER_25_39
*620 FILLER_25_51
*621 FILLER_25_55
*622 FILLER_25_57
*623 FILLER_25_69
*624 FILLER_25_75
*625 FILLER_25_9
*626 FILLER_25_97
*627 FILLER_26_109
*628 FILLER_26_121
*629 FILLER_26_133
*630 FILLER_26_139
*631 FILLER_26_141
*632 FILLER_26_153
*633 FILLER_26_165
*634 FILLER_26_173
*635 FILLER_26_18
*636 FILLER_26_26
*637 FILLER_26_29
*638 FILLER_26_41
*639 FILLER_26_53
*640 FILLER_26_6
*641 FILLER_26_65
*642 FILLER_26_77
*643 FILLER_26_83
*644 FILLER_26_85
*645 FILLER_26_97
*646 FILLER_27_105
*647 FILLER_27_111
*648 FILLER_27_113
*649 FILLER_27_125
*650 FILLER_27_137
*651 FILLER_27_149
*652 FILLER_27_161
*653 FILLER_27_167
*654 FILLER_27_169
*655 FILLER_27_18
*656 FILLER_27_30
*657 FILLER_27_42
*658 FILLER_27_54
*659 FILLER_27_57
*660 FILLER_27_6
*661 FILLER_27_69
*662 FILLER_27_81
*663 FILLER_27_93
*664 FILLER_28_109
*665 FILLER_28_115
*666 FILLER_28_123
*667 FILLER_28_135
*668 FILLER_28_139
*669 FILLER_28_141
*670 FILLER_28_15
*671 FILLER_28_153
*672 FILLER_28_165
*673 FILLER_28_27
*674 FILLER_28_29
*675 FILLER_28_3
*676 FILLER_28_41
*677 FILLER_28_53
*678 FILLER_28_65
*679 FILLER_28_77
*680 FILLER_28_83
*681 FILLER_28_85
*682 FILLER_28_97
*683 FILLER_29_104
*684 FILLER_29_111
*685 FILLER_29_113
*686 FILLER_29_119
*687 FILLER_29_12
*688 FILLER_29_126
*689 FILLER_29_132
*690 FILLER_29_139
*691 FILLER_29_141
*692 FILLER_29_146
*693 FILLER_29_153
*694 FILLER_29_160
*695 FILLER_29_167
*696 FILLER_29_169
*697 FILLER_29_174
*698 FILLER_29_24
*699 FILLER_29_29
*700 FILLER_29_41
*701 FILLER_29_53
*702 FILLER_29_57
*703 FILLER_29_69
*704 FILLER_29_77
*705 FILLER_29_83
*706 FILLER_29_85
*707 FILLER_29_90
*708 FILLER_29_97
*709 FILLER_2_138
*710 FILLER_2_15
*711 FILLER_2_161
*712 FILLER_2_173
*713 FILLER_2_27
*714 FILLER_2_29
*715 FILLER_2_3
*716 FILLER_2_41
*717 FILLER_2_51
*718 FILLER_2_73
*719 FILLER_2_82
*720 FILLER_2_85
*721 FILLER_2_91
*722 FILLER_2_97
*723 FILLER_3_110
*724 FILLER_3_113
*725 FILLER_3_121
*726 FILLER_3_140
*727 FILLER_3_152
*728 FILLER_3_164
*729 FILLER_3_169
*730 FILLER_3_177
*731 FILLER_3_23
*732 FILLER_3_35
*733 FILLER_3_57
*734 FILLER_3_63
*735 FILLER_3_71
*736 FILLER_3_87
*737 FILLER_4_108
*738 FILLER_4_120
*739 FILLER_4_138
*740 FILLER_4_141
*741 FILLER_4_153
*742 FILLER_4_165
*743 FILLER_4_173
*744 FILLER_4_18
*745 FILLER_4_26
*746 FILLER_4_29
*747 FILLER_4_41
*748 FILLER_4_56
*749 FILLER_4_6
*750 FILLER_4_66
*751 FILLER_4_85
*752 FILLER_5_105
*753 FILLER_5_111
*754 FILLER_5_113
*755 FILLER_5_121
*756 FILLER_5_142
*757 FILLER_5_15
*758 FILLER_5_154
*759 FILLER_5_166
*760 FILLER_5_169
*761 FILLER_5_27
*762 FILLER_5_3
*763 FILLER_5_39
*764 FILLER_5_51
*765 FILLER_5_55
*766 FILLER_5_57
*767 FILLER_5_69
*768 FILLER_5_81
*769 FILLER_5_93
*770 FILLER_6_101
*771 FILLER_6_149
*772 FILLER_6_161
*773 FILLER_6_173
*774 FILLER_6_18
*775 FILLER_6_26
*776 FILLER_6_29
*777 FILLER_6_41
*778 FILLER_6_6
*779 FILLER_6_70
*780 FILLER_6_77
*781 FILLER_6_83
*782 FILLER_6_85
*783 FILLER_6_97
*784 FILLER_7_110
*785 FILLER_7_119
*786 FILLER_7_123
*787 FILLER_7_132
*788 FILLER_7_144
*789 FILLER_7_156
*790 FILLER_7_169
*791 FILLER_7_38
*792 FILLER_7_52
*793 FILLER_7_6
*794 FILLER_7_66
*795 FILLER_8_101
*796 FILLER_8_111
*797 FILLER_8_131
*798 FILLER_8_139
*799 FILLER_8_141
*800 FILLER_8_153
*801 FILLER_8_165
*802 FILLER_8_177
*803 FILLER_8_23
*804 FILLER_8_27
*805 FILLER_8_29
*806 FILLER_8_41
*807 FILLER_8_53
*808 FILLER_8_65
*809 FILLER_8_77
*810 FILLER_8_83
*811 FILLER_8_85
*812 FILLER_8_97
*813 FILLER_9_109
*814 FILLER_9_113
*815 FILLER_9_134
*816 FILLER_9_160
*817 FILLER_9_169
*818 FILLER_9_18
*819 FILLER_9_26
*820 FILLER_9_49
*821 FILLER_9_55
*822 FILLER_9_6
*823 FILLER_9_73
*824 FILLER_9_85
*825 FILLER_9_91
*826 PHY_EDGE_ROW_0_Left_30
*827 PHY_EDGE_ROW_0_Right_0
*828 PHY_EDGE_ROW_10_Left_40
*829 PHY_EDGE_ROW_10_Right_10
*830 PHY_EDGE_ROW_11_Left_41
*831 PHY_EDGE_ROW_11_Right_11
*832 PHY_EDGE_ROW_12_Left_42
*833 PHY_EDGE_ROW_12_Right_12
*834 PHY_EDGE_ROW_13_Left_43
*835 PHY_EDGE_ROW_13_Right_13
*836 PHY_EDGE_ROW_14_Left_44
*837 PHY_EDGE_ROW_14_Right_14
*838 PHY_EDGE_ROW_15_Left_45
*839 PHY_EDGE_ROW_15_Right_15
*840 PHY_EDGE_ROW_16_Left_46
*841 PHY_EDGE_ROW_16_Right_16
*842 PHY_EDGE_ROW_17_Left_47
*843 PHY_EDGE_ROW_17_Right_17
*844 PHY_EDGE_ROW_18_Left_48
*845 PHY_EDGE_ROW_18_Right_18
*846 PHY_EDGE_ROW_19_Left_49
*847 PHY_EDGE_ROW_19_Right_19
*848 PHY_EDGE_ROW_1_Left_31
*849 PHY_EDGE_ROW_1_Right_1
*850 PHY_EDGE_ROW_20_Left_50
*851 PHY_EDGE_ROW_20_Right_20
*852 PHY_EDGE_ROW_21_Left_51
*853 PHY_EDGE_ROW_21_Right_21
*854 PHY_EDGE_ROW_22_Left_52
*855 PHY_EDGE_ROW_22_Right_22
*856 PHY_EDGE_ROW_23_Left_53
*857 PHY_EDGE_ROW_23_Right_23
*858 PHY_EDGE_ROW_24_Left_54
*859 PHY_EDGE_ROW_24_Right_24
*860 PHY_EDGE_ROW_25_Left_55
*861 PHY_EDGE_ROW_25_Right_25
*862 PHY_EDGE_ROW_26_Left_56
*863 PHY_EDGE_ROW_26_Right_26
*864 PHY_EDGE_ROW_27_Left_57
*865 PHY_EDGE_ROW_27_Right_27
*866 PHY_EDGE_ROW_28_Left_58
*867 PHY_EDGE_ROW_28_Right_28
*868 PHY_EDGE_ROW_29_Left_59
*869 PHY_EDGE_ROW_29_Right_29
*870 PHY_EDGE_ROW_2_Left_32
*871 PHY_EDGE_ROW_2_Right_2
*872 PHY_EDGE_ROW_3_Left_33
*873 PHY_EDGE_ROW_3_Right_3
*874 PHY_EDGE_ROW_4_Left_34
*875 PHY_EDGE_ROW_4_Right_4
*876 PHY_EDGE_ROW_5_Left_35
*877 PHY_EDGE_ROW_5_Right_5
*878 PHY_EDGE_ROW_6_Left_36
*879 PHY_EDGE_ROW_6_Right_6
*880 PHY_EDGE_ROW_7_Left_37
*881 PHY_EDGE_ROW_7_Right_7
*882 PHY_EDGE_ROW_8_Left_38
*883 PHY_EDGE_ROW_8_Right_8
*884 PHY_EDGE_ROW_9_Left_39
*885 PHY_EDGE_ROW_9_Right_9
*886 TAP_TAPCELL_ROW_0_60
*887 TAP_TAPCELL_ROW_0_61
*888 TAP_TAPCELL_ROW_0_62
*889 TAP_TAPCELL_ROW_0_63
*890 TAP_TAPCELL_ROW_0_64
*891 TAP_TAPCELL_ROW_0_65
*892 TAP_TAPCELL_ROW_10_93
*893 TAP_TAPCELL_ROW_10_94
*894 TAP_TAPCELL_ROW_10_95
*895 TAP_TAPCELL_ROW_11_96
*896 TAP_TAPCELL_ROW_11_97
*897 TAP_TAPCELL_ROW_11_98
*898 TAP_TAPCELL_ROW_12_100
*899 TAP_TAPCELL_ROW_12_101
*900 TAP_TAPCELL_ROW_12_99
*901 TAP_TAPCELL_ROW_13_102
*902 TAP_TAPCELL_ROW_13_103
*903 TAP_TAPCELL_ROW_13_104
*904 TAP_TAPCELL_ROW_14_105
*905 TAP_TAPCELL_ROW_14_106
*906 TAP_TAPCELL_ROW_14_107
*907 TAP_TAPCELL_ROW_15_108
*908 TAP_TAPCELL_ROW_15_109
*909 TAP_TAPCELL_ROW_15_110
*910 TAP_TAPCELL_ROW_16_111
*911 TAP_TAPCELL_ROW_16_112
*912 TAP_TAPCELL_ROW_16_113
*913 TAP_TAPCELL_ROW_17_114
*914 TAP_TAPCELL_ROW_17_115
*915 TAP_TAPCELL_ROW_17_116
*916 TAP_TAPCELL_ROW_18_117
*917 TAP_TAPCELL_ROW_18_118
*918 TAP_TAPCELL_ROW_18_119
*919 TAP_TAPCELL_ROW_19_120
*920 TAP_TAPCELL_ROW_19_121
*921 TAP_TAPCELL_ROW_19_122
*922 TAP_TAPCELL_ROW_1_66
*923 TAP_TAPCELL_ROW_1_67
*924 TAP_TAPCELL_ROW_1_68
*925 TAP_TAPCELL_ROW_20_123
*926 TAP_TAPCELL_ROW_20_124
*927 TAP_TAPCELL_ROW_20_125
*928 TAP_TAPCELL_ROW_21_126
*929 TAP_TAPCELL_ROW_21_127
*930 TAP_TAPCELL_ROW_21_128
*931 TAP_TAPCELL_ROW_22_129
*932 TAP_TAPCELL_ROW_22_130
*933 TAP_TAPCELL_ROW_22_131
*934 TAP_TAPCELL_ROW_23_132
*935 TAP_TAPCELL_ROW_23_133
*936 TAP_TAPCELL_ROW_23_134
*937 TAP_TAPCELL_ROW_24_135
*938 TAP_TAPCELL_ROW_24_136
*939 TAP_TAPCELL_ROW_24_137
*940 TAP_TAPCELL_ROW_25_138
*941 TAP_TAPCELL_ROW_25_139
*942 TAP_TAPCELL_ROW_25_140
*943 TAP_TAPCELL_ROW_26_141
*944 TAP_TAPCELL_ROW_26_142
*945 TAP_TAPCELL_ROW_26_143
*946 TAP_TAPCELL_ROW_27_144
*947 TAP_TAPCELL_ROW_27_145
*948 TAP_TAPCELL_ROW_27_146
*949 TAP_TAPCELL_ROW_28_147
*950 TAP_TAPCELL_ROW_28_148
*951 TAP_TAPCELL_ROW_28_149
*952 TAP_TAPCELL_ROW_29_150
*953 TAP_TAPCELL_ROW_29_151
*954 TAP_TAPCELL_ROW_29_152
*955 TAP_TAPCELL_ROW_29_153
*956 TAP_TAPCELL_ROW_29_154
*957 TAP_TAPCELL_ROW_29_155
*958 TAP_TAPCELL_ROW_2_69
*959 TAP_TAPCELL_ROW_2_70
*960 TAP_TAPCELL_ROW_2_71
*961 TAP_TAPCELL_ROW_3_72
*962 TAP_TAPCELL_ROW_3_73
*963 TAP_TAPCELL_ROW_3_74
*964 TAP_TAPCELL_ROW_4_75
*965 TAP_TAPCELL_ROW_4_76
*966 TAP_TAPCELL_ROW_4_77
*967 TAP_TAPCELL_ROW_5_78
*968 TAP_TAPCELL_ROW_5_79
*969 TAP_TAPCELL_ROW_5_80
*970 TAP_TAPCELL_ROW_6_81
*971 TAP_TAPCELL_ROW_6_82
*972 TAP_TAPCELL_ROW_6_83
*973 TAP_TAPCELL_ROW_7_84
*974 TAP_TAPCELL_ROW_7_85
*975 TAP_TAPCELL_ROW_7_86
*976 TAP_TAPCELL_ROW_8_87
*977 TAP_TAPCELL_ROW_8_88
*978 TAP_TAPCELL_ROW_8_89
*979 TAP_TAPCELL_ROW_9_90
*980 TAP_TAPCELL_ROW_9_91
*981 TAP_TAPCELL_ROW_9_92
*982 _126_
*983 _127_
*984 _128_
*985 _129_
*986 _130_
*987 _131_
*988 _132_
*989 _133_
*990 _134_
*991 _135_
*992 _136_
*993 _137_
*994 _138_
*995 _139_
*996 _140_
*997 _141_
*998 _142_
*999 _143_
*1000 _144_
*1001 _145_
*1002 _146_
*1003 _147_
*1004 _148_
*1005 _149_
*1006 _150_
*1007 _151_
*1008 _152_
*1009 _153_
*1010 _154_
*1011 _155_
*1012 _156_
*1013 _157_
*1014 _158_
*1015 _159_
*1016 _160_
*1017 _161_
*1018 _162_
*1019 _163_
*1020 _164_
*1021 _165_
*1022 _166_
*1023 _167_
*1024 _168_
*1025 _169_
*1026 _170_
*1027 _171_
*1028 _172_
*1029 _173_
*1030 _174_
*1031 _175_
*1032 _176_
*1033 _177_
*1034 _178_
*1035 _179_
*1036 _180_
*1037 _181_
*1038 _182_
*1039 _183_
*1040 _184_
*1041 _185_
*1042 _186_
*1043 _187_
*1044 _188_
*1045 _189_
*1046 _190_
*1047 _191_
*1048 _192_
*1049 _193_
*1050 _194_
*1051 _195_
*1052 _196_
*1053 _197_
*1054 _198_
*1055 _199_
*1056 _200_
*1057 _201_
*1058 _202_
*1059 _203_
*1060 _204_
*1061 _205_
*1062 _206_
*1063 _207_
*1064 _208_
*1065 _209_
*1066 _210_
*1067 _211_
*1068 _212_
*1069 _213_
*1070 _214_
*1071 _215_
*1072 _216_
*1073 _217_
*1074 _218_
*1075 _219_
*1076 _220_
*1077 _221_
*1078 _222_
*1079 _223_
*1080 _224_
*1081 _225_
*1082 _226_
*1083 _227_
*1084 _228_
*1085 _229_
*1086 _230_
*1087 _231_
*1088 _232_
*1089 _233_
*1090 _234_
*1091 _235_
*1092 _236_
*1093 _237_
*1094 _238_
*1095 _239_
*1096 _240_
*1097 _241_
*1098 _242_
*1099 _243_
*1100 _244_
*1101 _245_
*1102 _246_
*1103 _247_
*1104 _248_
*1105 _249_
*1106 _250_
*1107 _251_
*1108 _252_
*1109 _253_
*1110 _254_
*1111 _255_
*1112 _256_
*1113 _257_
*1114 _258_
*1115 _259_
*1116 _260_
*1117 _261_
*1118 _262_
*1119 _263_
*1120 _264_
*1121 _265_
*1122 _266_
*1123 _267_
*1124 _268_
*1125 _269_
*1126 _270_
*1127 _271_
*1128 _272_
*1129 _273_
*1130 _274_
*1131 _275_
*1132 _276_
*1133 _277_
*1134 _278_
*1135 _279_
*1136 _280_
*1137 _281_
*1138 _282_
*1139 _283_
*1140 _284_
*1141 _285_
*1142 _286_
*1143 _287_
*1144 _288_
*1145 _289_
*1146 _290_
*1147 _291_
*1148 _292_
*1149 _293_
*1150 _294_
*1151 _295_
*1152 _296_
*1153 _297_
*1154 _298_
*1155 _299_
*1156 _300_
*1157 _301_
*1158 _302_
*1159 _339_
*1160 _340_
*1161 bridge_57
*1162 bridge_58
*1163 bridge_59
*1164 bridge_60
*1165 bridge_61
*1166 bridge_62
*1167 bridge_63
*1168 bridge_64
*1169 bridge_65
*1170 bridge_66
*1171 bridge_67
*1172 bridge_68
*1173 bridge_69
*1174 bridge_70
*1175 bridge_71
*1176 bridge_72
*1177 bridge_73
*1178 bridge_74
*1179 bridge_75
*1180 bridge_76
*1181 bridge_77
*1182 bridge_78
*1183 bridge_79
*1184 bridge_80
*1185 bridge_81
*1186 bridge_82
*1187 bridge_83
*1188 bridge_84
*1189 bridge_85
*1190 bridge_86
*1191 bridge_87
*1192 bridge_88
*1193 bridge_89
*1194 bridge_90
*1195 bridge_91
*1196 bridge_92
*1197 clkbuf_0_clk
*1198 clkbuf_2_0__f_clk
*1199 clkbuf_2_1__f_clk
*1200 clkbuf_2_2__f_clk
*1201 clkbuf_2_3__f_clk
*1202 clkload0
*1203 clkload1
*1204 clkload2
*1205 fanout41
*1206 fanout46
*1207 fanout47
*1208 fanout48
*1209 fanout49
*1210 fanout50
*1211 fanout51
*1212 fanout52
*1213 fanout53
*1214 fanout54
*1215 fanout55
*1216 fanout56
*1217 hold2
*1218 hold3
*1219 hold4
*1220 hold5
*1221 hold6
*1222 hold7
*1223 input1
*1224 input10
*1225 input11
*1226 input12
*1227 input13
*1228 input14
*1229 input15
*1230 input16
*1231 input17
*1232 input18
*1233 input19
*1234 input2
*1235 input20
*1236 input21
*1237 input22
*1238 input23
*1239 input24
*1240 input25
*1241 input26
*1242 input3
*1243 input4
*1244 input5
*1245 input6
*1246 input7
*1247 input8
*1248 input9
*1249 max_cap40
*1250 max_cap43
*1251 output27
*1252 output28
*1253 output29
*1254 output30
*1255 output31
*1256 output32
*1257 output33
*1258 output34
*1259 output35
*1260 output36
*1261 output37
*1262 output38
*1263 output39
*1264 rebuffer1
*1265 wire44
*1266 wire45

*PORTS
PADDR[0] O
PADDR[1] O
PADDR[2] O
PENABLE O
PRDATA[0] I
PRDATA[10] I
PRDATA[11] I
PRDATA[12] I
PRDATA[13] I
PRDATA[14] I
PRDATA[15] I
PRDATA[1] I
PRDATA[2] I
PRDATA[3] I
PRDATA[4] I
PRDATA[5] I
PRDATA[6] I
PRDATA[7] I
PRDATA[8] I
PRDATA[9] I
PREADY I
PSEL1 O
PSEL2 O
PSEL3 O
PSEL4 O
PWDATA[0] O
PWDATA[10] O
PWDATA[11] O
PWDATA[12] O
PWDATA[13] O
PWDATA[14] O
PWDATA[15] O
PWDATA[1] O
PWDATA[2] O
PWDATA[3] O
PWDATA[4] O
PWDATA[5] O
PWDATA[6] O
PWDATA[7] O
PWDATA[8] O
PWDATA[9] O
PWRITE O
araddr[0] I
araddr[1] I
araddr[2] I
araddr[3] I
araddr[4] I
arburst[0] I
arburst[1] I
arlen[0] I
arlen[1] I
arlen[2] I
arlen[3] I
arready O
arvalid I
awaddr[0] I
awaddr[1] I
awaddr[2] I
awaddr[3] I
awaddr[4] I
awburst[0] I
awburst[1] I
awlen[0] I
awlen[1] I
awlen[2] I
awlen[3] I
awready O
awvalid I
bready I
bresp O
bvalid O
clk I
rdata[0] O
rdata[10] O
rdata[11] O
rdata[12] O
rdata[13] O
rdata[14] O
rdata[15] O
rdata[1] O
rdata[2] O
rdata[3] O
rdata[4] O
rdata[5] O
rdata[6] O
rdata[7] O
rdata[8] O
rdata[9] O
res_n I
rlast O
rready I
rresp O
rvalid O
wdata[0] I
wdata[10] I
wdata[11] I
wdata[12] I
wdata[13] I
wdata[14] I
wdata[15] I
wdata[1] I
wdata[2] I
wdata[3] I
wdata[4] I
wdata[5] I
wdata[6] I
wdata[7] I
wdata[8] I
wdata[9] I
wlast I
wready O
wvalid I

*D_NET *1 0.000946169
*CONN
*P PADDR[0] O
*I *1251:X O *D sky130_fd_sc_hd__buf_2
*CAP
1 PADDR[0] 0.000473085
2 *1251:X 0.000473085
3 PADDR[0] PADDR[1] 0
4 PADDR[0] *1243:A 0
*RES
1 *1251:X PADDR[0] 22.05 
*END

*D_NET *2 0.000950737
*CONN
*P PADDR[1] O
*I *1252:X O *D sky130_fd_sc_hd__buf_2
*CAP
1 PADDR[1] 0.000475368
2 *1252:X 0.000475368
3 PADDR[1] PADDR[2] 0
4 PADDR[0] PADDR[1] 0
*RES
1 *1252:X PADDR[1] 22.05 
*END

*D_NET *3 0.000880645
*CONN
*P PADDR[2] O
*I *1253:X O *D sky130_fd_sc_hd__buf_2
*CAP
1 PADDR[2] 0.000440323
2 *1253:X 0.000440323
3 PADDR[2] *1245:A 0
4 PADDR[1] PADDR[2] 0
*RES
1 *1253:X PADDR[2] 21.6393 
*END

*D_NET *4 0.000572078
*CONN
*P PENABLE O
*I *1254:X O *D sky130_fd_sc_hd__buf_2
*CAP
1 PENABLE 0.000187962
2 *1254:X 0.000187962
3 PENABLE PWRITE 9.35647e-05
4 PENABLE bvalid 0.000102589
*RES
1 *1254:X PENABLE 18.5706 
*END

*D_NET *21 0.000615342
*CONN
*P PREADY I
*I *1223:A I *D sky130_fd_sc_hd__buf_1
*CAP
1 PREADY 0.000212222
2 *1223:A 0.000212222
3 *1223:A awready 9.54485e-05
4 *1223:A *1237:A 9.54485e-05
5 *1223:A *285:18 0
*RES
1 PREADY *1223:A 19.4092 
*END

*D_NET *22 0.00127875
*CONN
*P PSEL1 O
*I *1161:LO O *D sky130_fd_sc_hd__conb_1
*CAP
1 PSEL1 0.000569691
2 *1161:LO 0.000569691
3 PSEL1 PWDATA[14] 6.05504e-05
4 PSEL1 PWDATA[8] 5.09045e-05
5 PSEL1 rdata[10] 2.79092e-05
6 PSEL1 rdata[1] 0
*RES
1 *1161:LO PSEL1 23.8754 
*END

*D_NET *23 0.00218692
*CONN
*P PSEL2 O
*I *1162:LO O *D sky130_fd_sc_hd__conb_1
*CAP
1 PSEL2 0.00105742
2 *1162:LO 0.00105742
3 PSEL2 PWDATA[14] 5.52302e-05
4 PSEL2 PWDATA[6] 1.68605e-05
5 PSEL2 PWDATA[8] 0
*RES
1 *1162:LO PSEL2 33.5857 
*END

*D_NET *24 0.000583188
*CONN
*P PSEL3 O
*I *1163:LO O *D sky130_fd_sc_hd__conb_1
*CAP
1 PSEL3 0.000201148
2 *1163:LO 0.000201148
3 PSEL3 PWDATA[3] 9.54485e-05
4 PSEL3 rdata[11] 8.5443e-05
*RES
1 *1163:LO PSEL3 19.1056 
*END

*D_NET *25 0.0012089
*CONN
*P PSEL4 O
*I *1164:LO O *D sky130_fd_sc_hd__conb_1
*CAP
1 PSEL4 0.000443347
2 *1164:LO 0.000443347
3 PSEL4 PWDATA[7] 0.00032221
*RES
1 *1164:LO PSEL4 24.1037 
*END

*D_NET *26 0.000684287
*CONN
*P PWDATA[0] O
*I *1165:LO O *D sky130_fd_sc_hd__conb_1
*CAP
1 PWDATA[0] 0.000247981
2 *1165:LO 0.000247981
3 PWDATA[0] rdata[13] 9.54485e-05
4 PWDATA[0] rdata[14] 9.28756e-05
*RES
1 *1165:LO PWDATA[0] 20.0163 
*END

*D_NET *27 0.0010214
*CONN
*P PWDATA[10] O
*I *1175:LO O *D sky130_fd_sc_hd__conb_1
*CAP
1 PWDATA[10] 0.000508468
2 *1175:LO 0.000508468
3 PWDATA[10] PWDATA[2] 0
4 PWDATA[10] rresp 0
5 PWDATA[10] *1261:A 4.46186e-06
*RES
1 *1175:LO PWDATA[10] 23.6571 
*END

*D_NET *28 0.00102669
*CONN
*P PWDATA[11] O
*I *1176:LO O *D sky130_fd_sc_hd__conb_1
*CAP
1 PWDATA[11] 0.000497412
2 *1176:LO 0.000497412
3 PWDATA[11] PWDATA[6] 3.18676e-05
4 PWDATA[11] rdata[1] 0
5 PWDATA[11] rdata[8] 0
*RES
1 *1176:LO PWDATA[11] 23.6571 
*END

*D_NET *29 0.000585555
*CONN
*P PWDATA[12] O
*I *1177:LO O *D sky130_fd_sc_hd__conb_1
*CAP
1 PWDATA[12] 0.000240383
2 *1177:LO 0.000240383
3 PWDATA[12] PWDATA[7] 7.60209e-05
4 PWDATA[12] rdata[15] 2.87684e-05
*RES
1 *1177:LO PWDATA[12] 19.3371 
*END

*D_NET *30 0.00101576
*CONN
*P PWDATA[13] O
*I *1178:LO O *D sky130_fd_sc_hd__conb_1
*CAP
1 PWDATA[13] 0.000507882
2 *1178:LO 0.000507882
3 PWDATA[13] rdata[9] 0
4 PWDATA[13] *1236:A 0
*RES
1 *1178:LO PWDATA[13] 23.6571 
*END

*D_NET *31 0.00142225
*CONN
*P PWDATA[14] O
*I *1179:LO O *D sky130_fd_sc_hd__conb_1
*CAP
1 PWDATA[14] 0.000575524
2 *1179:LO 0.000575524
3 PWDATA[14] PWDATA[6] 0
4 PWDATA[14] PWDATA[8] 7.7059e-05
5 PWDATA[14] rdata[10] 7.83659e-05
6 PWDATA[14] rdata[1] 0
7 PSEL1 PWDATA[14] 6.05504e-05
8 PSEL2 PWDATA[14] 5.52302e-05
*RES
1 *1179:LO PWDATA[14] 26.1393 
*END

*D_NET *32 0.00101576
*CONN
*P PWDATA[15] O
*I *1180:LO O *D sky130_fd_sc_hd__conb_1
*CAP
1 PWDATA[15] 0.000507882
2 *1180:LO 0.000507882
3 PWDATA[15] rdata[3] 0
4 PWDATA[15] rdata[4] 0
*RES
1 *1180:LO PWDATA[15] 23.6571 
*END

*D_NET *33 0.00101576
*CONN
*P PWDATA[1] O
*I *1166:LO O *D sky130_fd_sc_hd__conb_1
*CAP
1 PWDATA[1] 0.000507882
2 *1166:LO 0.000507882
3 PWDATA[1] rdata[8] 0
4 PWDATA[1] rdata[9] 0
*RES
1 *1166:LO PWDATA[1] 23.6571 
*END

*D_NET *34 0.00101576
*CONN
*P PWDATA[2] O
*I *1167:LO O *D sky130_fd_sc_hd__conb_1
*CAP
1 PWDATA[2] 0.000507882
2 *1167:LO 0.000507882
3 PWDATA[2] rdata[4] 0
4 PWDATA[10] PWDATA[2] 0
*RES
1 *1167:LO PWDATA[2] 23.6571 
*END

*D_NET *35 0.000549361
*CONN
*P PWDATA[3] O
*I *1168:LO O *D sky130_fd_sc_hd__conb_1
*CAP
1 PWDATA[3] 0.000226956
2 *1168:LO 0.000226956
3 PSEL3 PWDATA[3] 9.54485e-05
*RES
1 *1168:LO PWDATA[3] 18.8021 
*END

*D_NET *36 0.000633625
*CONN
*P PWDATA[4] O
*I *1169:LO O *D sky130_fd_sc_hd__conb_1
*CAP
1 PWDATA[4] 0.000223937
2 *1169:LO 0.000223937
3 PWDATA[4] rdata[12] 9.28756e-05
4 PWDATA[4] *1225:A 9.28756e-05
*RES
1 *1169:LO PWDATA[4] 19.4092 
*END

*D_NET *37 0.0016278
*CONN
*P PWDATA[5] O
*I *1170:LO O *D sky130_fd_sc_hd__conb_1
*CAP
1 PWDATA[5] 0.000658225
2 *1170:LO 0.000658225
3 PWDATA[5] *1230:A 0.000311349
*RES
1 *1170:LO PWDATA[5] 28.98 
*END

*D_NET *38 0.00221378
*CONN
*P PWDATA[6] O
*I *1171:LO O *D sky130_fd_sc_hd__conb_1
*CAP
1 PWDATA[6] 0.00104496
2 *1171:LO 0.00104496
3 PWDATA[6] PWDATA[8] 4.32637e-05
4 PWDATA[6] rdata[1] 3.18676e-05
5 PSEL2 PWDATA[6] 1.68605e-05
6 PWDATA[11] PWDATA[6] 3.18676e-05
7 PWDATA[14] PWDATA[6] 0
*RES
1 *1171:LO PWDATA[6] 32.4786 
*END

*D_NET *39 0.000982026
*CONN
*P PWDATA[7] O
*I *1172:LO O *D sky130_fd_sc_hd__conb_1
*CAP
1 PWDATA[7] 0.000291897
2 *1172:LO 0.000291897
3 PSEL4 PWDATA[7] 0.00032221
4 PWDATA[12] PWDATA[7] 7.60209e-05
*RES
1 *1172:LO PWDATA[7] 21.6579 
*END

*D_NET *40 0.00130208
*CONN
*P PWDATA[8] O
*I *1173:LO O *D sky130_fd_sc_hd__conb_1
*CAP
1 PWDATA[8] 0.000538414
2 *1173:LO 0.000538414
3 PWDATA[8] rdata[10] 5.40205e-05
4 PSEL1 PWDATA[8] 5.09045e-05
5 PSEL2 PWDATA[8] 0
6 PWDATA[14] PWDATA[8] 7.7059e-05
7 PWDATA[6] PWDATA[8] 4.32637e-05
*RES
1 *1173:LO PWDATA[8] 26.3709 
*END

*D_NET *41 0.000508359
*CONN
*P PWDATA[9] O
*I *1174:LO O *D sky130_fd_sc_hd__conb_1
*CAP
1 PWDATA[9] 0.000242882
2 *1174:LO 0.000242882
3 PWDATA[9] *1226:A 0
4 PWDATA[9] *1227:A 0
5 PWDATA[9] *1234:A 2.25951e-05
*RES
1 *1174:LO PWDATA[9] 18.73 
*END

*D_NET *42 0.000571737
*CONN
*P PWRITE O
*I *1255:X O *D sky130_fd_sc_hd__buf_2
*CAP
1 PWRITE 0.000178213
2 *1255:X 0.000178213
3 PWRITE *1225:A 9.54485e-05
4 PWRITE *1255:A 2.62984e-05
5 PENABLE PWRITE 9.35647e-05
*RES
1 *1255:X PWRITE 18.5706 
*END

*D_NET *45 0.000576861
*CONN
*P araddr[0] I
*I *1234:A I *D sky130_fd_sc_hd__clkbuf_1
*CAP
1 araddr[0] 0.000262749
2 *1234:A 0.000262749
3 *1234:A *1226:A 2.87684e-05
4 PWDATA[9] *1234:A 2.25951e-05
*RES
1 araddr[0] *1234:A 20.4803 
*END

*D_NET *46 0.000941277
*CONN
*P araddr[1] I
*I *1242:A I *D sky130_fd_sc_hd__clkbuf_1
*CAP
1 araddr[1] 0.000470638
2 *1242:A 0.000470638
*RES
1 araddr[1] *1242:A 22.6571 
*END

*D_NET *47 0.000941071
*CONN
*P araddr[2] I
*I *1243:A I *D sky130_fd_sc_hd__clkbuf_1
*CAP
1 araddr[2] 0.000470535
2 *1243:A 0.000470535
3 PADDR[0] *1243:A 0
*RES
1 araddr[2] *1243:A 22.6571 
*END

*D_NET *50 0.00094414
*CONN
*P arburst[0] I
*I *1244:A I *D sky130_fd_sc_hd__clkbuf_1
*CAP
1 arburst[0] 0.000462425
2 *1244:A 0.000462425
3 *1244:A *1145:D 1.92905e-05
4 *1244:A *1229:A 0
*RES
1 arburst[0] *1244:A 22.6571 
*END

*D_NET *51 0.000943475
*CONN
*P arburst[1] I
*I *1245:A I *D sky130_fd_sc_hd__clkbuf_1
*CAP
1 arburst[1] 0.000469671
2 *1245:A 0.000469671
3 *1245:A *1253:A 4.1331e-06
4 PADDR[2] *1245:A 0
*RES
1 arburst[1] *1245:A 22.6571 
*END

*D_NET *52 0.000589079
*CONN
*P arlen[0] I
*I *1246:A I *D sky130_fd_sc_hd__clkbuf_1
*CAP
1 arlen[0] 0.000265832
2 *1246:A 0.000265832
3 *1246:A *1235:A 2.87684e-05
4 *1246:A *1247:A 2.25951e-05
5 *1246:A *269:16 6.05161e-06
*RES
1 arlen[0] *1246:A 20.4803 
*END

*D_NET *53 0.000701412
*CONN
*P arlen[1] I
*I *1247:A I *D sky130_fd_sc_hd__clkbuf_1
*CAP
1 arlen[1] 0.00028454
2 *1247:A 0.00028454
3 *1247:A *1152:D 9.60337e-06
4 *1247:A *1197:A 0
5 *1247:A *1224:A 3.19385e-05
6 *1247:A *1235:A 0
7 *1247:A *269:18 6.8194e-05
8 *1246:A *1247:A 2.25951e-05
*RES
1 arlen[1] *1247:A 19.3378 
*END

*D_NET *54 0.000665873
*CONN
*P arlen[2] I
*I *1248:A I *D sky130_fd_sc_hd__clkbuf_1
*CAP
1 arlen[2] 0.000321639
2 *1248:A 0.000321639
3 *1248:A *1219:A 2.25951e-05
4 *1248:A *1226:A 0
*RES
1 arlen[2] *1248:A 21.391 
*END

*D_NET *55 0.000671524
*CONN
*P arlen[3] I
*I *1224:A I *D sky130_fd_sc_hd__clkbuf_1
*CAP
1 arlen[3] 0.000308495
2 *1224:A 0.000308495
3 *1224:A *1197:A 2.25951e-05
4 *1224:A *269:18 0
5 *1247:A *1224:A 3.19385e-05
*RES
1 arlen[3] *1224:A 21.391 
*END

*D_NET *56 0.000901613
*CONN
*P arready O
*I *1256:X O *D sky130_fd_sc_hd__buf_2
*CAP
1 arready 0.000424135
2 *1256:X 0.000424135
3 arready *1228:A 0
4 arready *1256:A 5.33433e-05
*RES
1 *1256:X arready 21.6393 
*END

*D_NET *57 0.000629736
*CONN
*P arvalid I
*I *1225:A I *D sky130_fd_sc_hd__clkbuf_1
*CAP
1 arvalid 0.000214736
2 *1225:A 0.000214736
3 *1225:A *1255:A 1.19402e-05
4 PWDATA[4] *1225:A 9.28756e-05
5 PWRITE *1225:A 9.54485e-05
*RES
1 arvalid *1225:A 19.4092 
*END

*D_NET *58 0.000689907
*CONN
*P awaddr[0] I
*I *1226:A I *D sky130_fd_sc_hd__clkbuf_1
*CAP
1 awaddr[0] 0.000316615
2 *1226:A 0.000316615
3 *1226:A *1134:D 2.79092e-05
4 PWDATA[9] *1226:A 0
5 *1234:A *1226:A 2.87684e-05
6 *1248:A *1226:A 0
*RES
1 awaddr[0] *1226:A 20.2479 
*END

*D_NET *59 0.00068561
*CONN
*P awaddr[1] I
*I *1227:A I *D sky130_fd_sc_hd__clkbuf_1
*CAP
1 awaddr[1] 0.000342805
2 *1227:A 0.000342805
3 *1227:A *1135:D 0
4 PWDATA[9] *1227:A 0
*RES
1 awaddr[1] *1227:A 21.6946 
*END

*D_NET *60 0.000948708
*CONN
*P awaddr[2] I
*I *1228:A I *D sky130_fd_sc_hd__clkbuf_1
*CAP
1 awaddr[2] 0.000464709
2 *1228:A 0.000464709
3 *1228:A *1136:D 1.92905e-05
4 arready *1228:A 0
*RES
1 awaddr[2] *1228:A 22.6571 
*END

*D_NET *63 0.00094414
*CONN
*P awburst[0] I
*I *1229:A I *D sky130_fd_sc_hd__clkbuf_1
*CAP
1 awburst[0] 0.000462425
2 *1229:A 0.000462425
3 *1229:A *1143:D 1.92905e-05
4 *1244:A *1229:A 0
*RES
1 awburst[0] *1229:A 22.6571 
*END

*D_NET *64 0.00181235
*CONN
*P awburst[1] I
*I *1230:A I *D sky130_fd_sc_hd__clkbuf_1
*CAP
1 awburst[1] 0.000630776
2 *1230:A 0.000630776
3 *1230:A rdata[0] 0.00011549
4 *1230:A rdata[6] 0.00011176
5 *1230:A rdata[7] 1.21955e-05
6 PWDATA[5] *1230:A 0.000311349
*RES
1 awburst[1] *1230:A 28.8926 
*END

*D_NET *65 0.000885561
*CONN
*P awlen[0] I
*I *1231:A I *D sky130_fd_sc_hd__clkbuf_1
*CAP
1 awlen[0] 0.000380254
2 *1231:A 0.000380254
3 *1231:A *1232:A 3.45861e-05
4 *1231:A *1240:A 9.04662e-05
*RES
1 awlen[0] *1231:A 22.4232 
*END

*D_NET *66 0.00142853
*CONN
*P awlen[1] I
*I *1232:A I *D sky130_fd_sc_hd__clkbuf_1
*CAP
1 awlen[1] 0.000409289
2 *1232:A 0.000409289
3 *1232:A *1148:D 0.000295653
4 *1232:A *1149:D 3.67356e-05
5 *1232:A *1240:A 0
6 *1232:A *1241:A 7.78189e-05
7 *1232:A *269:67 0.000165157
8 *1231:A *1232:A 3.45861e-05
*RES
1 awlen[1] *1232:A 23.2842 
*END

*D_NET *67 0.000577682
*CONN
*P awlen[2] I
*I *1233:A I *D sky130_fd_sc_hd__clkbuf_1
*CAP
1 awlen[2] 0.000260256
2 *1233:A 0.000260256
3 *1233:A rdata[15] 2.71788e-05
4 *1233:A *1241:A 2.99915e-05
*RES
1 awlen[2] *1233:A 20.4803 
*END

*D_NET *68 0.000951389
*CONN
*P awlen[3] I
*I *1235:A I *D sky130_fd_sc_hd__clkbuf_1
*CAP
1 awlen[3] 0.000326231
2 *1235:A 0.000326231
3 *1235:A wready 2.25951e-05
4 *1235:A *1150:D 5.92267e-05
5 *1235:A *1240:A 0
6 *1235:A *269:47 0.000188336
7 *1246:A *1235:A 2.87684e-05
8 *1247:A *1235:A 0
*RES
1 awlen[3] *1235:A 20.8556 
*END

*D_NET *69 0.00069343
*CONN
*P awready O
*I *1257:X O *D sky130_fd_sc_hd__buf_2
*CAP
1 awready 0.000298991
2 *1257:X 0.000298991
3 *1223:A awready 9.54485e-05
*RES
1 *1257:X awready 19.7848 
*END

*D_NET *70 0.00112425
*CONN
*P awvalid I
*I *1236:A I *D sky130_fd_sc_hd__clkbuf_1
*CAP
1 awvalid 0.000562123
2 *1236:A 0.000562123
3 *1236:A rlast 0
4 *1236:A *1260:A 0
5 PWDATA[13] *1236:A 0
*RES
1 awvalid *1236:A 24.4786 
*END

*D_NET *71 0.000726742
*CONN
*P bready I
*I *1237:A I *D sky130_fd_sc_hd__clkbuf_1
*CAP
1 bready 0.000237836
2 *1237:A 0.000237836
3 *1237:A *1239:A 9.28756e-05
4 *1237:A *285:18 0
5 *1237:A *299:8 6.27457e-05
6 *1223:A *1237:A 9.54485e-05
*RES
1 bready *1237:A 20.3199 
*END

*D_NET *72 0.000724615
*CONN
*P bresp O
*I *1258:X O *D sky130_fd_sc_hd__buf_2
*CAP
1 bresp 0.000210628
2 *1258:X 0.000210628
3 bresp bvalid 0
4 bresp rdata[2] 9.54485e-05
5 bresp *1049:A 0.00012178
6 bresp *1239:A 8.61318e-05
*RES
1 *1258:X bresp 19.4813 
*END

*D_NET *73 0.000672598
*CONN
*P bvalid O
*I *1259:X O *D sky130_fd_sc_hd__buf_2
*CAP
1 bvalid 0.00023728
2 *1259:X 0.00023728
3 bvalid rdata[2] 9.54485e-05
4 bvalid *285:18 0
5 PENABLE bvalid 0.000102589
6 bresp bvalid 0
*RES
1 *1259:X bvalid 19.4813 
*END

*D_NET *74 0.00574204
*CONN
*P clk I
*I *1197:A I *D sky130_fd_sc_hd__clkbuf_16
*CAP
1 clk 0.00253483
2 *1197:A 0.00253483
3 *1197:A *1212:A 0.000121948
4 *1197:A *1216:A 0.000499082
5 *1197:A *1219:A 2.87684e-05
6 *1224:A *1197:A 2.25951e-05
7 *1247:A *1197:A 0
*RES
1 clk *1197:A 23.8161 
*END

*D_NET *75 0.000868002
*CONN
*P rdata[0] O
*I *1181:LO O *D sky130_fd_sc_hd__conb_1
*CAP
1 rdata[0] 0.000249428
2 *1181:LO 0.000249428
3 rdata[0] rdata[6] 0.000161323
4 rdata[0] rdata[7] 9.23325e-05
5 *1230:A rdata[0] 0.00011549
*RES
1 *1181:LO rdata[0] 19.6254 
*END

*D_NET *76 0.000859348
*CONN
*P rdata[10] O
*I *1191:LO O *D sky130_fd_sc_hd__conb_1
*CAP
1 rdata[10] 0.000303088
2 *1191:LO 0.000303088
3 rdata[10] rdata[11] 9.28756e-05
4 PSEL1 rdata[10] 2.79092e-05
5 PWDATA[14] rdata[10] 7.83659e-05
6 PWDATA[8] rdata[10] 5.40205e-05
*RES
1 *1191:LO rdata[10] 19.4092 
*END

*D_NET *77 0.000560808
*CONN
*P rdata[11] O
*I *1192:LO O *D sky130_fd_sc_hd__conb_1
*CAP
1 rdata[11] 0.000191245
2 *1192:LO 0.000191245
3 PSEL3 rdata[11] 8.5443e-05
4 rdata[10] rdata[11] 9.28756e-05
*RES
1 *1192:LO rdata[11] 18.1949 
*END

*D_NET *78 0.000492239
*CONN
*P rdata[12] O
*I *1193:LO O *D sky130_fd_sc_hd__conb_1
*CAP
1 rdata[12] 0.000156616
2 *1193:LO 0.000156616
3 rdata[12] rdata[5] 8.61318e-05
4 PWDATA[4] rdata[12] 9.28756e-05
*RES
1 *1193:LO rdata[12] 18.1949 
*END

*D_NET *79 0.000483487
*CONN
*P rdata[13] O
*I *1194:LO O *D sky130_fd_sc_hd__conb_1
*CAP
1 rdata[13] 0.000150954
2 *1194:LO 0.000150954
3 rdata[13] rdata[7] 8.61318e-05
4 PWDATA[0] rdata[13] 9.54485e-05
*RES
1 *1194:LO rdata[13] 18.1949 
*END

*D_NET *80 0.000573308
*CONN
*P rdata[14] O
*I *1195:LO O *D sky130_fd_sc_hd__conb_1
*CAP
1 rdata[14] 0.000193779
2 *1195:LO 0.000193779
3 rdata[14] rdata[5] 9.28756e-05
4 PWDATA[0] rdata[14] 9.28756e-05
*RES
1 *1195:LO rdata[14] 18.8021 
*END

*D_NET *81 0.000586591
*CONN
*P rdata[15] O
*I *1196:LO O *D sky130_fd_sc_hd__conb_1
*CAP
1 rdata[15] 0.000265322
2 *1196:LO 0.000265322
3 PWDATA[12] rdata[15] 2.87684e-05
4 *1233:A rdata[15] 2.71788e-05
*RES
1 *1196:LO rdata[15] 20.4803 
*END

*D_NET *82 0.00102669
*CONN
*P rdata[1] O
*I *1182:LO O *D sky130_fd_sc_hd__conb_1
*CAP
1 rdata[1] 0.000497412
2 *1182:LO 0.000497412
3 PSEL1 rdata[1] 0
4 PWDATA[11] rdata[1] 0
5 PWDATA[14] rdata[1] 0
6 PWDATA[6] rdata[1] 3.18676e-05
*RES
1 *1182:LO rdata[1] 23.6571 
*END

*D_NET *83 0.00055136
*CONN
*P rdata[2] O
*I *1183:LO O *D sky130_fd_sc_hd__conb_1
*CAP
1 rdata[2] 0.000180232
2 *1183:LO 0.000180232
3 rdata[2] *285:18 0
4 bresp rdata[2] 9.54485e-05
5 bvalid rdata[2] 9.54485e-05
*RES
1 *1183:LO rdata[2] 18.8021 
*END

*D_NET *84 0.00101576
*CONN
*P rdata[3] O
*I *1184:LO O *D sky130_fd_sc_hd__conb_1
*CAP
1 rdata[3] 0.000507882
2 *1184:LO 0.000507882
3 rdata[3] rvalid 0
4 PWDATA[15] rdata[3] 0
*RES
1 *1184:LO rdata[3] 23.6571 
*END

*D_NET *85 0.00101576
*CONN
*P rdata[4] O
*I *1185:LO O *D sky130_fd_sc_hd__conb_1
*CAP
1 rdata[4] 0.000507882
2 *1185:LO 0.000507882
3 PWDATA[15] rdata[4] 0
4 PWDATA[2] rdata[4] 0
*RES
1 *1185:LO rdata[4] 23.6571 
*END

*D_NET *86 0.000556374
*CONN
*P rdata[5] O
*I *1186:LO O *D sky130_fd_sc_hd__conb_1
*CAP
1 rdata[5] 0.000188683
2 *1186:LO 0.000188683
3 rdata[12] rdata[5] 8.61318e-05
4 rdata[14] rdata[5] 9.28756e-05
*RES
1 *1186:LO rdata[5] 18.8021 
*END

*D_NET *87 0.00121231
*CONN
*P rdata[6] O
*I *1187:LO O *D sky130_fd_sc_hd__conb_1
*CAP
1 rdata[6] 0.000469614
2 *1187:LO 0.000469614
3 rdata[0] rdata[6] 0.000161323
4 *1230:A rdata[6] 0.00011176
*RES
1 *1187:LO rdata[6] 22.8773 
*END

*D_NET *88 0.000496405
*CONN
*P rdata[7] O
*I *1188:LO O *D sky130_fd_sc_hd__conb_1
*CAP
1 rdata[7] 0.000152873
2 *1188:LO 0.000152873
3 rdata[0] rdata[7] 9.23325e-05
4 rdata[13] rdata[7] 8.61318e-05
5 *1230:A rdata[7] 1.21955e-05
*RES
1 *1188:LO rdata[7] 18.1949 
*END

*D_NET *89 0.00101576
*CONN
*P rdata[8] O
*I *1189:LO O *D sky130_fd_sc_hd__conb_1
*CAP
1 rdata[8] 0.000507882
2 *1189:LO 0.000507882
3 PWDATA[11] rdata[8] 0
4 PWDATA[1] rdata[8] 0
*RES
1 *1189:LO rdata[8] 23.6571 
*END

*D_NET *90 0.00101576
*CONN
*P rdata[9] O
*I *1190:LO O *D sky130_fd_sc_hd__conb_1
*CAP
1 rdata[9] 0.000507882
2 *1190:LO 0.000507882
3 PWDATA[13] rdata[9] 0
4 PWDATA[1] rdata[9] 0
*RES
1 *1190:LO rdata[9] 23.6571 
*END

*D_NET *91 0.000582347
*CONN
*P res_n I
*I *1219:A I *D sky130_fd_sc_hd__dlygate4sd3_1
*CAP
1 res_n 0.000265492
2 *1219:A 0.000265492
3 *1197:A *1219:A 2.87684e-05
4 *1248:A *1219:A 2.25951e-05
*RES
1 res_n *1219:A 20.4803 
*END

*D_NET *92 0.00113233
*CONN
*P rlast O
*I *1260:X O *D sky130_fd_sc_hd__buf_2
*CAP
1 rlast 0.000566167
2 *1260:X 0.000566167
3 rlast rvalid 0
4 *1236:A rlast 0
*RES
1 *1260:X rlast 23.8714 
*END

*D_NET *93 0.00054221
*CONN
*P rready I
*I *1239:A I *D sky130_fd_sc_hd__clkbuf_1
*CAP
1 rready 0.000167519
2 *1239:A 0.000167519
3 *1239:A *1049:A 1.05524e-05
4 *1239:A *299:8 1.76135e-05
5 bresp *1239:A 8.61318e-05
6 *1237:A *1239:A 9.28756e-05
*RES
1 rready *1239:A 18.4985 
*END

*D_NET *94 0.00105251
*CONN
*P rresp O
*I *1261:X O *D sky130_fd_sc_hd__buf_2
*CAP
1 rresp 0.000526253
2 *1261:X 0.000526253
3 PWDATA[10] rresp 0
*RES
1 *1261:X rresp 23.4607 
*END

*D_NET *95 0.00112778
*CONN
*P rvalid O
*I *1262:X O *D sky130_fd_sc_hd__buf_2
*CAP
1 rvalid 0.000563892
2 *1262:X 0.000563892
3 rdata[3] rvalid 0
4 rlast rvalid 0
*RES
1 *1262:X rvalid 23.8714 
*END

*D_NET *112 0.00115966
*CONN
*P wlast I
*I *1240:A I *D sky130_fd_sc_hd__buf_1
*CAP
1 wlast 0.000336378
2 *1240:A 0.000336378
3 *1240:A wready 3.19385e-05
4 *1240:A *1147:D 1.41029e-05
5 *1240:A *269:47 6.99087e-05
6 *1240:A *269:56 0.000200406
7 *1240:A *302:18 8.00806e-05
8 *1231:A *1240:A 9.04662e-05
9 *1232:A *1240:A 0
10 *1235:A *1240:A 0
*RES
1 wlast *1240:A 21.7663 
*END

*D_NET *113 0.000731073
*CONN
*P wready O
*I *1263:X O *D sky130_fd_sc_hd__buf_2
*CAP
1 wready 0.00033827
2 *1263:X 0.00033827
3 *1235:A wready 2.25951e-05
4 *1240:A wready 3.19385e-05
*RES
1 *1263:X wready 20.891 
*END

*D_NET *114 0.000888023
*CONN
*P wvalid I
*I *1241:A I *D sky130_fd_sc_hd__clkbuf_1
*CAP
1 wvalid 0.000390106
2 *1241:A 0.000390106
3 *1232:A *1241:A 7.78189e-05
4 *1233:A *1241:A 2.99915e-05
*RES
1 wvalid *1241:A 22.7481 
*END

*D_NET *115 0.00623932
*CONN
*I *1088:A1 I *D sky130_fd_sc_hd__mux2_1
*I *1086:A I *D sky130_fd_sc_hd__nor2_1
*I *1089:A I *D sky130_fd_sc_hd__nand2_1
*I *1095:A I *D sky130_fd_sc_hd__nand3_1
*I *1094:A1 I *D sky130_fd_sc_hd__a21o_1
*I *1010:B I *D sky130_fd_sc_hd__and2_1
*I *1090:A I *D sky130_fd_sc_hd__or2_1
*I *1131:Q O *D sky130_fd_sc_hd__dfrtp_2
*CAP
1 *1088:A1 1.44544e-05
2 *1086:A 0.000124177
3 *1089:A 4.53608e-05
4 *1095:A 0.0001208
5 *1094:A1 0
6 *1010:B 0.000184792
7 *1090:A 0.000103688
8 *1131:Q 0.000257127
9 *115:75 0.000206202
10 *115:31 0.000825636
11 *115:16 0.000689567
12 *115:10 0.000430839
13 *115:8 0.000644341
14 *1010:B *1010:A 5.52302e-05
15 *1010:B *1011:A 1.69115e-05
16 *1010:B *1092:B1 9.32406e-05
17 *1010:B *1097:B2 6.59861e-05
18 *1010:B *1097:C1 0.000125717
19 *1010:B *1122:RESET_B 0
20 *1010:B *116:45 9.91086e-05
21 *1010:B *310:34 6.8646e-06
22 *1086:A *1087:A2 7.27536e-05
23 *1086:A *1093:S 0.000269422
24 *1086:A *1122:CLK 5.33005e-05
25 *1086:A *268:16 0.000269422
26 *1088:A1 *1093:S 9.90431e-05
27 *1088:A1 *1122:CLK 8.66063e-05
28 *1089:A *1091:A 5.71472e-05
29 *1089:A *1091:B 4.88515e-05
30 *1089:A *1091:C 6.05161e-06
31 *1090:A *1089:B 0
32 *1090:A *1091:C 7.6644e-05
33 *1090:A *1092:C1 1.59689e-05
34 *1090:A *116:8 5.52238e-05
35 *1095:A *1096:C 9.41642e-05
36 *1095:A *1097:C1 5.41794e-05
37 *1095:A *117:23 0
38 *115:8 *1087:A2 0.000126639
39 *115:8 *150:12 1.4211e-05
40 *115:10 *1087:A2 2.19684e-05
41 *115:10 *1093:S 0
42 *115:10 *1131:D 2.8266e-06
43 *115:10 *268:18 0
44 *115:10 *326:34 0
45 *115:10 *326:38 0
46 *115:16 *1089:B 0
47 *115:16 *268:18 0
48 *115:31 *1091:A 0.000317082
49 *115:31 *1096:B 1.80815e-06
50 *115:31 *1096:C 0.000291071
51 *115:75 *1087:A2 4.03318e-05
52 *115:75 *1093:S 0
53 *115:75 *1131:D 2.28428e-05
54 *115:75 *268:10 3.17148e-05
*RES
1 *1131:Q *115:8 17.2107 
2 *115:8 *115:10 5.89286 
3 *115:10 *115:16 1.39286 
4 *115:16 *1090:A 15.9786 
5 *115:16 *115:31 11.6071 
6 *115:31 *1010:B 23.2107 
7 *115:31 *1094:A1 9.3 
8 *115:31 *1095:A 19.9786 
9 *115:10 *1089:A 15.1571 
10 *115:8 *115:75 6.14286 
11 *115:75 *1086:A 13.55 
12 *115:75 *1088:A1 10.2464 
*END

*D_NET *116 0.00303373
*CONN
*I *1093:A1 I *D sky130_fd_sc_hd__mux2_1
*I *1095:B I *D sky130_fd_sc_hd__nand3_1
*I *1094:A2 I *D sky130_fd_sc_hd__a21o_1
*I *1011:B I *D sky130_fd_sc_hd__and2_1
*I *1089:B I *D sky130_fd_sc_hd__nand2_1
*I *1090:B I *D sky130_fd_sc_hd__or2_1
*I *1132:Q O *D sky130_fd_sc_hd__dfrtp_1
*CAP
1 *1093:A1 0.000172756
2 *1095:B 3.99867e-05
3 *1094:A2 0
4 *1011:B 2.23854e-05
5 *1089:B 0.000133346
6 *1090:B 0
7 *1132:Q 0
8 *116:45 0.000141778
9 *116:28 0.000426137
10 *116:15 0.000522151
11 *116:8 0.000276599
12 *116:4 0.000362509
13 *1011:B *1097:B1 0
14 *1089:B *1122:RESET_B 0
15 *1089:B *326:38 0
16 *1093:A1 *1092:C1 2.56601e-05
17 *1093:A1 *268:18 3.92757e-05
18 *1095:B *1094:B1 8.07622e-05
19 *1095:B *1096:C 4.27437e-05
20 *1095:B *1097:C1 1.24368e-05
21 *116:8 *1091:C 9.90431e-05
22 *116:8 *1135:RESET_B 0
23 *116:28 *1011:A 4.87854e-05
24 *116:28 *1097:B1 1.24368e-05
25 *116:45 *1011:A 2.28598e-05
26 *116:45 *1092:B1 3.17148e-05
27 *116:45 *1094:B1 5.52302e-05
28 *116:45 *1096:C 9.71197e-05
29 *116:45 *1097:B1 5.33005e-05
30 *116:45 *1097:C1 3.7086e-05
31 *116:45 *150:85 0.000123295
32 *1010:B *116:45 9.91086e-05
33 *1090:A *1089:B 0
34 *1090:A *116:8 5.52238e-05
35 *115:16 *1089:B 0
*RES
1 *1132:Q *116:4 9.3 
2 *116:4 *116:8 3.42857 
3 *116:8 *1090:B 9.3 
4 *116:8 *116:15 1.35714 
5 *116:15 *1089:B 20.2464 
6 *116:15 *116:28 4.64286 
7 *116:28 *1011:B 9.72857 
8 *116:28 *116:45 12.4286 
9 *116:45 *1094:A2 9.3 
10 *116:45 *1095:B 11.1036 
11 *116:4 *1093:A1 20.6929 
*END

*D_NET *117 0.00327729
*CONN
*I *1221:A I *D sky130_fd_sc_hd__dlygate4sd3_1
*I *1094:B1 I *D sky130_fd_sc_hd__a21o_1
*I *1095:C I *D sky130_fd_sc_hd__nand3_1
*I *1012:B I *D sky130_fd_sc_hd__and2_1
*I *1133:Q O *D sky130_fd_sc_hd__dfrtp_1
*CAP
1 *1221:A 0.000340633
2 *1094:B1 0.000285995
3 *1095:C 0
4 *1012:B 0.00026162
5 *1133:Q 0
6 *117:25 0.000467712
7 *117:23 0.000598933
8 *117:6 0.000338202
9 *1012:B *1097:A1 0
10 *1012:B *1252:A 4.35048e-05
11 *1012:B *118:12 0.000131491
12 *1012:B *118:18 9.90367e-05
13 *1094:B1 *1096:C 1.98839e-05
14 *1094:B1 *1097:C1 0.000182135
15 *1094:B1 *150:85 2.84494e-05
16 *1221:A *1098:A1 0.000276211
17 *117:23 *118:12 6.74911e-05
18 *1095:A *117:23 0
19 *1095:B *1094:B1 8.07622e-05
20 *116:45 *1094:B1 5.52302e-05
*RES
1 *1133:Q *117:6 13.8 
2 *117:6 *1012:B 19.1571 
3 *117:6 *117:23 6.14286 
4 *117:23 *117:25 3 
5 *117:25 *1095:C 9.3 
6 *117:25 *1094:B1 23.6214 
7 *117:23 *1221:A 15.9964 
*END

*D_NET *118 0.00780528
*CONN
*I *1050:A1 I *D sky130_fd_sc_hd__o31a_1
*I *1012:A I *D sky130_fd_sc_hd__and2_1
*I *1011:A I *D sky130_fd_sc_hd__and2_1
*I *1010:A I *D sky130_fd_sc_hd__and2_1
*I *1125:Q O *D sky130_fd_sc_hd__dfrtp_1
*CAP
1 *1050:A1 0.00105788
2 *1012:A 0
3 *1011:A 0.000178843
4 *1010:A 6.92144e-05
5 *1125:Q 5.41093e-05
6 *118:18 0.000546285
7 *118:12 0.000788722
8 *118:6 0.00160248
9 *1010:A *1097:B2 7.61932e-05
10 *1010:A *1251:A 1.92905e-05
11 *1011:A *1097:A1 8.68569e-05
12 *1011:A *1097:B1 6.0595e-05
13 *1011:A *1097:B2 0.000134454
14 *1011:A *310:24 0.00026353
15 *1050:A1 *1021:D 0
16 *1050:A1 *1022:B 7.69776e-06
17 *1050:A1 *1098:S 0.000108118
18 *1050:A1 *1124:CLK 0.000202842
19 *1050:A1 *1124:RESET_B 2.26973e-05
20 *1050:A1 *1125:D 0
21 *1050:A1 *1201:A 0.000251649
22 *1050:A1 *1216:A 0
23 *1050:A1 *1222:A 9.90367e-05
24 *1050:A1 *148:12 0.000499048
25 *1050:A1 *199:10 0.000100823
26 *1050:A1 *199:20 2.51343e-06
27 *1050:A1 *267:8 9.74684e-05
28 *1050:A1 *284:30 0.000148189
29 *1050:A1 *284:40 4.46689e-05
30 *1050:A1 *334:34 7.83587e-05
31 *1050:A1 *336:8 0.000152919
32 *1050:A1 *336:10 1.43864e-05
33 *118:6 *199:20 2.72859e-05
34 *118:12 *1098:A0 2.56694e-05
35 *118:12 *1098:S 0.000541646
36 *118:12 *1133:D 0
37 *1010:B *1010:A 5.52302e-05
38 *1010:B *1011:A 1.69115e-05
39 *1012:B *118:12 0.000131491
40 *1012:B *118:18 9.90367e-05
41 *116:28 *1011:A 4.87854e-05
42 *116:45 *1011:A 2.28598e-05
43 *117:23 *118:12 6.74911e-05
*RES
1 *1125:Q *118:6 10.2464 
2 *118:6 *118:12 20.9643 
3 *118:12 *118:18 5.19643 
4 *118:18 *1010:A 11.0679 
5 *118:18 *1011:A 23.55 
6 *118:12 *1012:A 9.3 
7 *118:6 *1050:A1 42.4071 
*END

*D_NET *119 0.000767272
*CONN
*I *1119:D I *D sky130_fd_sc_hd__dfrtp_1
*I *1016:X O *D sky130_fd_sc_hd__mux2_1
*CAP
1 *1119:D 0.000261436
2 *1016:X 0.000261436
3 *1119:D *1016:A0 0
4 *1119:D *1018:A0 0.000101545
5 *1119:D *333:34 0.000142856
*RES
1 *1016:X *1119:D 31.6536 
*END

*D_NET *120 0.00143942
*CONN
*I *1120:D I *D sky130_fd_sc_hd__dfrtp_1
*I *1018:X O *D sky130_fd_sc_hd__mux2_1
*CAP
1 *1120:D 0.000509592
2 *1018:X 0.000509592
3 *1120:D *1120:CLK 0.000105649
4 *1120:D *270:36 0.000314589
*RES
1 *1018:X *1120:D 25.7652 
*END

*D_NET *121 0.000568772
*CONN
*I *1121:D I *D sky130_fd_sc_hd__dfrtp_4
*I *1029:X O *D sky130_fd_sc_hd__mux2_1
*CAP
1 *1121:D 0.000180636
2 *1029:X 0.000180636
3 *1121:D *1121:RESET_B 6.65302e-05
4 *1121:D *253:8 0.000140969
*RES
1 *1029:X *1121:D 30.6 
*END

*D_NET *122 0.000462587
*CONN
*I *1122:D I *D sky130_fd_sc_hd__dfrtp_2
*I *1034:X O *D sky130_fd_sc_hd__a22o_1
*CAP
1 *1122:D 0.000173386
2 *1034:X 0.000173386
3 *1122:D *1122:RESET_B 1.02504e-05
4 *1122:D *282:10 0
5 *1122:D *326:34 0.000105565
*RES
1 *1034:X *1122:D 31.3679 
*END

*D_NET *123 0.00155933
*CONN
*I *1123:D I *D sky130_fd_sc_hd__dfrtp_1
*I *1041:X O *D sky130_fd_sc_hd__mux2_1
*CAP
1 *1123:D 0.000554488
2 *1041:X 0.000554488
3 *1123:D *1123:RESET_B 0.000178765
4 *1123:D *283:8 0.000145019
5 *1123:D *332:36 0.000126572
*RES
1 *1041:X *1123:D 29.4214 
*END

*D_NET *124 0.000679662
*CONN
*I *1124:D I *D sky130_fd_sc_hd__dfrtp_1
*I *1046:X O *D sky130_fd_sc_hd__mux2_1
*CAP
1 *1124:D 0.000320846
2 *1046:X 0.000320846
3 *1124:D *1046:A0 0
4 *1124:D *239:44 3.79711e-05
5 *1124:D *336:8 0
*RES
1 *1046:X *1124:D 31.9393 
*END

*D_NET *125 0.00327088
*CONN
*I *1125:D I *D sky130_fd_sc_hd__dfrtp_1
*I *1050:X O *D sky130_fd_sc_hd__o31a_1
*CAP
1 *1125:D 0.00097518
2 *1050:X 0.00097518
3 *1125:D *1030:A1 0.000148189
4 *1125:D *1084:B1 0
5 *1125:D *1085:C 0
6 *1125:D *1125:CLK 0
7 *1125:D *1125:RESET_B 0.000125877
8 *1125:D *1200:A 2.6949e-05
9 *1125:D *1201:A 0.000148897
10 *1125:D *1222:A 6.98302e-05
11 *1125:D *139:48 0
12 *1125:D *147:10 0
13 *1125:D *147:12 0
14 *1125:D *267:8 0.00011888
15 *1125:D *284:18 0.000589182
16 *1125:D *284:30 5.86416e-05
17 *1125:D *326:95 0
18 *1125:D *334:36 3.40725e-05
19 *1050:A1 *1125:D 0
*RES
1 *1050:X *1125:D 49.5464 
*END

*D_NET *126 0.000742513
*CONN
*I *1126:D I *D sky130_fd_sc_hd__dfrtp_1
*I *1053:Y O *D sky130_fd_sc_hd__o21bai_1
*CAP
1 *1126:D 0.000149284
2 *1053:Y 0.000149284
3 *1126:D *1053:A2 9.01334e-05
4 *1126:D *1053:B1_N 0.000175526
5 *1126:D *1126:CLK 2.59355e-05
6 *1126:D *336:42 5.52302e-05
7 *1126:D *347:16 9.71197e-05
*RES
1 *1053:Y *1126:D 31.3321 
*END

*D_NET *127 0.000489859
*CONN
*I *1127:D I *D sky130_fd_sc_hd__dfrtp_2
*I *1061:X O *D sky130_fd_sc_hd__mux2_1
*CAP
1 *1127:D 0.000171299
2 *1061:X 0.000171299
3 *1127:D *1061:S 8.07313e-05
4 *1127:D *1261:A 6.65302e-05
*RES
1 *1061:X *1127:D 30.6 
*END

*D_NET *128 0.000535345
*CONN
*I *1128:D I *D sky130_fd_sc_hd__dfrtp_2
*I *1069:X O *D sky130_fd_sc_hd__mux2_1
*CAP
1 *1128:D 0.000215091
2 *1069:X 0.000215091
3 *1128:D *1069:A0 0.000105163
4 *1128:D *1129:RESET_B 0
*RES
1 *1069:X *1128:D 30.7071 
*END

*D_NET *129 0.000736453
*CONN
*I *1129:D I *D sky130_fd_sc_hd__dfrtp_1
*I *1077:X O *D sky130_fd_sc_hd__mux2_1
*CAP
1 *1129:D 0.000368227
2 *1077:X 0.000368227
*RES
1 *1077:X *1129:D 33.1893 
*END

*D_NET *130 0.000604484
*CONN
*I *1130:D I *D sky130_fd_sc_hd__dfrtp_1
*I *1083:X O *D sky130_fd_sc_hd__o2bb2a_1
*CAP
1 *1130:D 0.00014377
2 *1083:X 0.00014377
3 *1130:D *986:A 0.000139907
4 *1130:D *1045:B2 9.91086e-05
5 *1130:D *1083:A1_N 7.0493e-05
6 *1130:D *1130:CLK 7.43578e-06
*RES
1 *1083:X *1130:D 30.8321 
*END

*D_NET *131 0.000573112
*CONN
*I *1131:D I *D sky130_fd_sc_hd__dfrtp_2
*I *1088:X O *D sky130_fd_sc_hd__mux2_1
*CAP
1 *1131:D 0.000222174
2 *1088:X 0.000222174
3 *1131:D *1093:S 2.56694e-05
4 *1131:D *1131:CLK 3.23539e-05
5 *1131:D *1131:RESET_B 4.42798e-05
6 *1131:D *150:12 7.91064e-07
7 *115:10 *1131:D 2.8266e-06
8 *115:75 *1131:D 2.28428e-05
*RES
1 *1088:X *1131:D 30.8723 
*END

*D_NET *132 0.000810411
*CONN
*I *1132:D I *D sky130_fd_sc_hd__dfrtp_1
*I *1093:X O *D sky130_fd_sc_hd__mux2_1
*CAP
1 *1132:D 0.000405205
2 *1093:X 0.000405205
*RES
1 *1093:X *1132:D 32.35 
*END

*D_NET *133 0.00067315
*CONN
*I *1133:D I *D sky130_fd_sc_hd__dfrtp_1
*I *1098:X O *D sky130_fd_sc_hd__mux2_1
*CAP
1 *1133:D 0.000184407
2 *1098:X 0.000184407
3 *1133:D *1098:A0 0
4 *1133:D *1133:RESET_B 0.000125877
5 *1133:D *270:47 0
6 *1133:D *270:51 0
7 *1133:D *310:20 0.000178459
8 *118:12 *1133:D 0
*RES
1 *1098:X *1133:D 32.5464 
*END

*D_NET *134 0.000936216
*CONN
*I *1155:D I *D sky130_fd_sc_hd__dfrtp_1
*I *1104:X O *D sky130_fd_sc_hd__a21o_1
*CAP
1 *1155:D 0.000257428
2 *1104:X 0.000257428
3 *1155:D *1155:RESET_B 0
4 *1155:D *239:14 0.000103253
5 *1155:D *285:28 0.000318107
*RES
1 *1104:X *1155:D 31.9393 
*END

*D_NET *135 0.000374955
*CONN
*I *1156:D I *D sky130_fd_sc_hd__dfrtp_1
*I *1112:X O *D sky130_fd_sc_hd__or4b_1
*CAP
1 *1156:D 0.000127349
2 *1112:X 0.000127349
3 *1156:D *1111:A1 8.00806e-05
4 *1156:D *1112:B 0
5 *1156:D *285:28 4.01768e-05
*RES
1 *1112:X *1156:D 30.3143 
*END

*D_NET *136 0.0004259
*CONN
*I *1157:D I *D sky130_fd_sc_hd__dfrtp_1
*I *1115:X O *D sky130_fd_sc_hd__or2_1
*CAP
1 *1157:D 0.000138368
2 *1115:X 0.000138368
3 *1157:D *1107:C1 9.90431e-05
4 *1157:D *1160:A 0
5 *1157:D *325:18 5.01213e-05
*RES
1 *1115:X *1157:D 29.8857 
*END

*D_NET *137 0.000523869
*CONN
*I *1158:D I *D sky130_fd_sc_hd__dfrtp_1
*I *1118:X O *D sky130_fd_sc_hd__a211o_1
*CAP
1 *1158:D 0.000190507
2 *1118:X 0.000190507
3 *1158:D *1082:A2 0
4 *1158:D *139:16 0.000142856
5 *1158:D *167:25 0
*RES
1 *1118:X *1158:D 30.6 
*END

*D_NET *138 0.00129266
*CONN
*I *1008:B I *D sky130_fd_sc_hd__or2_1
*I *1099:B1 I *D sky130_fd_sc_hd__a21o_1
*I *1007:Y O *D sky130_fd_sc_hd__nor2_1
*CAP
1 *1008:B 0.000156455
2 *1099:B1 0.000263947
3 *1007:Y 0
4 *138:4 0.000420402
5 *1008:B *1008:A 5.17614e-05
6 *1008:B *1104:A1 0
7 *1008:B *285:18 4.01656e-05
8 *1099:B1 *1099:A2 0
9 *1099:B1 *1104:A2 0.000101873
10 *1099:B1 *1255:A 0.000232399
11 *1099:B1 *272:10 2.56601e-05
*RES
1 *1007:Y *138:4 9.3 
2 *138:4 *1099:B1 24.8536 
3 *138:4 *1008:B 11.4964 
*END

*D_NET *139 0.0112751
*CONN
*I *1014:B1 I *D sky130_fd_sc_hd__a21o_1
*I *1085:A I *D sky130_fd_sc_hd__or4_4
*I *1025:A I *D sky130_fd_sc_hd__nor3_2
*I *1030:B1 I *D sky130_fd_sc_hd__a2111o_1
*I *1059:A I *D sky130_fd_sc_hd__or3_4
*I *1082:D1 I *D sky130_fd_sc_hd__a2111o_1
*I *1013:X O *D sky130_fd_sc_hd__a2bb2o_4
*CAP
1 *1014:B1 1.63023e-05
2 *1085:A 0
3 *1025:A 4.51308e-05
4 *1030:B1 0.000275832
5 *1059:A 0
6 *1082:D1 9.09597e-05
7 *1013:X 0
8 *139:48 0.000386646
9 *139:44 0.000401381
10 *139:42 0.00140811
11 *139:16 0.000918664
12 *139:4 0.00188381
13 *1014:B1 *1014:A2 1.3701e-05
14 *1025:A *1030:A2 5.52302e-05
15 *1025:A *1084:B1 2.94103e-05
16 *1025:A *1085:B 2.24646e-05
17 *1025:A *1200:A 5.52302e-05
18 *1025:A *147:10 1.02504e-05
19 *1025:A *147:12 5.59013e-05
20 *1025:A *326:95 1.08359e-05
21 *1030:B1 *1030:A2 1.98839e-05
22 *1030:B1 *1030:C1 0.000356028
23 *1082:D1 *1083:A2_N 0
24 *1082:D1 *173:14 5.66157e-05
25 *1082:D1 *176:14 0.000147474
26 *139:16 *1054:B 7.46327e-05
27 *139:16 *1059:C 5.52238e-05
28 *139:16 *173:14 9.41642e-05
29 *139:16 *320:18 0.00132178
30 *139:16 *320:31 6.5615e-05
31 *139:42 *1050:A3 0
32 *139:42 *1084:A2 5.52238e-05
33 *139:42 *1112:A 0
34 *139:42 *1112:B 0
35 *139:42 *1115:B 0
36 *139:42 *1156:RESET_B 0.00037767
37 *139:42 *140:16 1.39726e-05
38 *139:42 *271:73 0
39 *139:42 *310:95 0.00112346
40 *139:42 *310:110 0.000902297
41 *139:42 *320:18 9.90367e-05
42 *139:44 *1084:A2 0.000182694
43 *139:44 *1084:B1 9.05445e-05
44 *139:44 *1084:D1 5.52302e-05
45 *139:44 *1085:C 0.000105559
46 *139:44 *1085:D 8.07313e-05
47 *139:44 *140:16 3.14163e-05
48 *139:48 *1084:B1 5.86416e-05
49 *139:48 *1085:B 7.6644e-05
50 *139:48 *1085:C 7.80714e-06
51 *1125:D *139:48 0
52 *1158:D *139:16 0.000142856
*RES
1 *1013:X *139:4 9.3 
2 *139:4 *139:16 16.0357 
3 *139:16 *1082:D1 20.2464 
4 *139:16 *1059:A 9.3 
5 *139:4 *139:42 36.4107 
6 *139:42 *139:44 7.51786 
7 *139:44 *139:48 6.14286 
8 *139:48 *1030:B1 17.6214 
9 *139:48 *1025:A 15.3714 
10 *139:44 *1085:A 9.3 
11 *139:42 *1014:B1 9.72857 
*END

*D_NET *140 0.00169422
*CONN
*I *1016:S I *D sky130_fd_sc_hd__mux2_1
*I *1018:S I *D sky130_fd_sc_hd__mux2_1
*I *1014:X O *D sky130_fd_sc_hd__a21o_1
*CAP
1 *1016:S 0.000159066
2 *1018:S 0
3 *1014:X 0.00032568
4 *140:16 0.000484746
5 *1016:S *333:34 0.000222784
6 *140:16 *1156:RESET_B 3.69697e-05
7 *140:16 *270:23 7.67315e-05
8 *140:16 *310:95 0.000295844
9 *140:16 *333:34 4.70078e-05
10 *139:42 *140:16 1.39726e-05
11 *139:44 *140:16 3.14163e-05
*RES
1 *1014:X *140:16 25.2107 
2 *140:16 *1018:S 9.3 
3 *140:16 *1016:S 13.1214 
*END

*D_NET *141 0.00133505
*CONN
*I *1016:A0 I *D sky130_fd_sc_hd__mux2_1
*I *1015:X O *D sky130_fd_sc_hd__mux2_1
*CAP
1 *1016:A0 0.00046939
2 *1015:X 0.00046939
3 *1016:A0 *1015:A0 1.88048e-05
4 *1016:A0 *1015:S 0
5 *1016:A0 *1017:A1 5.52238e-05
6 *1016:A0 *1018:A0 0
7 *1016:A0 *243:16 0.000182329
8 *1016:A0 *333:34 0.000139913
9 *1119:D *1016:A0 0
*RES
1 *1015:X *1016:A0 36.6 
*END

*D_NET *142 0.00158174
*CONN
*I *1018:A0 I *D sky130_fd_sc_hd__mux2_1
*I *1017:X O *D sky130_fd_sc_hd__mux2_1
*CAP
1 *1018:A0 0.000370247
2 *1017:X 0.000370247
3 *1018:A0 *1017:A0 5.7616e-05
4 *1018:A0 *1017:A1 0.000142856
5 *1018:A0 *310:20 0.000217409
6 *1018:A0 *310:95 0.000268521
7 *1018:A0 *333:34 5.33005e-05
8 *1016:A0 *1018:A0 0
9 *1119:D *1018:A0 0.000101545
*RES
1 *1017:X *1018:A0 36.6 
*END

*D_NET *143 0.000777328
*CONN
*I *1033:A2 I *D sky130_fd_sc_hd__a221o_1
*I *1019:Y O *D sky130_fd_sc_hd__nor2_1
*CAP
1 *1033:A2 0.000184553
2 *1019:Y 0.000184553
3 *1033:A2 *1029:S 3.34609e-05
4 *1033:A2 *1033:A1 0.00015344
5 *1033:A2 *1034:B1 0.00016609
6 *1033:A2 *1045:A2 5.52302e-05
*RES
1 *1019:Y *1033:A2 31.4973 
*END

*D_NET *144 0.000571644
*CONN
*I *1039:A1 I *D sky130_fd_sc_hd__a21oi_1
*I *1020:X O *D sky130_fd_sc_hd__or3_1
*CAP
1 *1039:A1 0.000129567
2 *1020:X 0.000129567
3 *1039:A1 *1033:A1 5.52238e-05
4 *1039:A1 *1034:B1 9.24299e-05
5 *1039:A1 *1039:A2 9.90367e-05
6 *1039:A1 *281:44 6.58195e-05
*RES
1 *1020:X *1039:A1 31.2071 
*END

*D_NET *145 0.00252104
*CONN
*I *1265:A I *D sky130_fd_sc_hd__clkbuf_1
*I *1044:A1 I *D sky130_fd_sc_hd__o21a_1
*I *1021:Y O *D sky130_fd_sc_hd__nor4_1
*CAP
1 *1265:A 0.000290759
2 *1044:A1 0.000124014
3 *1021:Y 6.4639e-05
4 *145:10 0.000479412
5 *1044:A1 *1043:A2 5.52302e-05
6 *1044:A1 *1043:B1 1.33343e-05
7 *1044:A1 *1044:A2 5.71472e-05
8 *1044:A1 *281:65 5.33005e-05
9 *1044:A1 *281:74 4.51641e-05
10 *1044:A1 *283:58 3.03071e-05
11 *1265:A *1022:A 5.18086e-05
12 *1265:A *1022:B 0.000221641
13 *1265:A *1022:C 0.00035252
14 *1265:A *1043:B1 0.000117621
15 *1265:A *1110:D 2.65105e-05
16 *1265:A *146:10 9.28838e-05
17 *1265:A *281:74 1.15281e-05
18 *1265:A *283:58 0.000313241
19 *1265:A *284:18 1.74352e-05
20 *145:10 *1021:D 0
21 *145:10 *283:54 0.000102545
*RES
1 *1021:Y *145:10 19.6393 
2 *145:10 *1044:A1 12.3179 
3 *145:10 *1265:A 18.3714 
*END

*D_NET *146 0.00514364
*CONN
*I *1084:C1 I *D sky130_fd_sc_hd__o2111a_1
*I *1114:A3 I *D sky130_fd_sc_hd__o31ai_1
*I *1111:A3 I *D sky130_fd_sc_hd__a31o_1
*I *1022:X O *D sky130_fd_sc_hd__or4_1
*CAP
1 *1084:C1 0.000360779
2 *1114:A3 0.000201085
3 *1111:A3 5.36489e-05
4 *1022:X 0.000184346
5 *146:16 0.000424946
6 *146:10 0.000715337
7 *1084:C1 *982:A 0.000140933
8 *1084:C1 *1084:A1 0
9 *1084:C1 *1084:D1 0.000229667
10 *1084:C1 *1156:RESET_B 0
11 *1084:C1 *1203:A 0.000150632
12 *1084:C1 *226:40 2.95726e-05
13 *1084:C1 *270:23 0
14 *1084:C1 *323:10 0.000214198
15 *1111:A3 *1111:A1 1.38323e-05
16 *1111:A3 *1111:A2 5.33005e-05
17 *1111:A3 *1112:C 5.33005e-05
18 *1111:A3 *239:44 6.57032e-05
19 *1114:A3 *1048:A 5.33005e-05
20 *1114:A3 *1112:A 0.000385717
21 *1114:A3 *1112:C 0.000130419
22 *1114:A3 *1114:A2 0.000270943
23 *1114:A3 *167:8 5.33005e-05
24 *1114:A3 *239:32 2.14658e-05
25 *1114:A3 *239:44 5.33433e-05
26 *1114:A3 *327:33 5.80706e-06
27 *1114:A3 *327:37 0
28 *146:10 *982:A 5.52238e-05
29 *146:10 *1110:D 0.000102927
30 *146:10 *323:10 0.000314132
31 *146:16 *982:A 0.000196269
32 *146:16 *1084:D1 2.47093e-05
33 *146:16 *1111:A1 0.000290271
34 *146:16 *1125:CLK 7.80714e-06
35 *146:16 *327:37 0.00019384
36 *1265:A *146:10 9.28838e-05
*RES
1 *1022:X *146:10 14.3893 
2 *146:10 *146:16 14.2857 
3 *146:16 *1111:A3 10.6571 
4 *146:16 *1114:A3 25.175 
5 *146:10 *1084:C1 27.8893 
*END

*D_NET *147 0.00304645
*CONN
*I *1025:B I *D sky130_fd_sc_hd__nor3_2
*I *1030:C1 I *D sky130_fd_sc_hd__a2111o_1
*I *1085:B I *D sky130_fd_sc_hd__or4_4
*I *1023:X O *D sky130_fd_sc_hd__o211a_4
*CAP
1 *1025:B 0
2 *1030:C1 8.11046e-05
3 *1085:B 0.000117563
4 *1023:X 0.000727626
5 *147:12 0.000238325
6 *147:10 0.000767283
7 *1030:C1 *1030:A2 7.06479e-05
8 *1030:C1 *148:16 0.000315158
9 *1085:B *1085:C 0.000148129
10 *147:10 *326:95 4.84853e-05
11 *147:12 *1085:C 1.08359e-05
12 *1025:A *1085:B 2.24646e-05
13 *1025:A *147:10 1.02504e-05
14 *1025:A *147:12 5.59013e-05
15 *1030:B1 *1030:C1 0.000356028
16 *1125:D *147:10 0
17 *1125:D *147:12 0
18 *139:48 *1085:B 7.6644e-05
*RES
1 *1023:X *147:10 24.4964 
2 *147:10 *147:12 0.732143 
3 *147:12 *1085:B 16.0857 
4 *147:12 *1030:C1 17.6214 
5 *147:10 *1025:B 13.8 
*END

*D_NET *148 0.00314934
*CONN
*I *1030:D1 I *D sky130_fd_sc_hd__a2111o_1
*I *1025:C I *D sky130_fd_sc_hd__nor3_2
*I *1085:C I *D sky130_fd_sc_hd__or4_4
*I *1024:X O *D sky130_fd_sc_hd__and3b_1
*CAP
1 *1030:D1 0
2 *1025:C 0
3 *1085:C 0.000211627
4 *1024:X 0.000295187
5 *148:16 0.000297528
6 *148:12 0.000381088
7 *148:12 *1030:A1 1.00375e-05
8 *148:12 *1200:A 0.000197984
9 *148:12 *267:8 0.000274448
10 *148:12 *284:30 9.41642e-05
11 *148:12 *326:28 1.15281e-05
12 *148:16 *1030:A2 0.00014285
13 *148:16 *1200:A 9.31893e-05
14 *148:16 *149:10 5.31719e-05
15 *1030:C1 *148:16 0.000315158
16 *1050:A1 *148:12 0.000499048
17 *1085:B *1085:C 0.000148129
18 *1125:D *1085:C 0
19 *139:44 *1085:C 0.000105559
20 *139:48 *1085:C 7.80714e-06
21 *147:12 *1085:C 1.08359e-05
*RES
1 *1024:X *148:12 26.1571 
2 *148:12 *148:16 3.83929 
3 *148:16 *1085:C 22.5098 
4 *148:16 *1025:C 9.3 
5 *148:12 *1030:D1 9.3 
*END

*D_NET *149 0.00746004
*CONN
*I *1046:S I *D sky130_fd_sc_hd__mux2_1
*I *1029:S I *D sky130_fd_sc_hd__mux2_1
*I *1034:B2 I *D sky130_fd_sc_hd__a22o_1
*I *1041:S I *D sky130_fd_sc_hd__mux2_1
*I *1025:Y O *D sky130_fd_sc_hd__nor3_2
*CAP
1 *1046:S 0
2 *1029:S 0.00064527
3 *1034:B2 2.23854e-05
4 *1041:S 3.83498e-05
5 *1025:Y 0.000639866
6 *149:32 0.00114661
7 *149:12 0.00020978
8 *149:10 0.00129025
9 *1029:S *1027:A1_N 8.13309e-05
10 *1029:S *1027:A2_N 0.000130586
11 *1029:S *1027:B2 5.71472e-05
12 *1029:S *1028:A2 2.30116e-06
13 *1029:S *1028:B1 5.94283e-05
14 *1029:S *1029:A0 9.66977e-05
15 *1029:S *1033:B2 0.000155864
16 *1029:S *1215:A 3.59076e-05
17 *1029:S *239:44 0.000113073
18 *1029:S *253:8 0.000792968
19 *1029:S *281:20 1.5181e-05
20 *1041:S *1034:B1 3.18676e-05
21 *1041:S *283:25 1.95646e-05
22 *149:10 *1034:A2 0.000797106
23 *149:10 *1200:A 0.000268403
24 *149:12 *1034:A1 2.14757e-05
25 *149:12 *1034:A2 0.000186662
26 *149:12 *1034:B1 5.62995e-05
27 *149:32 *1019:B 0
28 *149:32 *1045:A2 1.0945e-05
29 *149:32 *1045:B2 0.000192862
30 *149:32 *1045:C1 3.52655e-05
31 *149:32 *1046:A1 0
32 *149:32 *281:65 0
33 *149:32 *282:21 0
34 *149:32 *326:28 0.000219967
35 *149:32 *326:34 0
36 *1033:A2 *1029:S 3.34609e-05
37 *148:16 *149:10 5.31719e-05
*RES
1 *1025:Y *149:10 22.0857 
2 *149:10 *149:12 3.41071 
3 *149:12 *1041:S 10.2464 
4 *149:12 *1034:B2 9.72857 
5 *149:10 *149:32 18.8393 
6 *149:32 *1029:S 34.1393 
7 *149:32 *1046:S 9.3 
*END

*D_NET *150 0.0141008
*CONN
*I *1097:B1 I *D sky130_fd_sc_hd__a221o_1
*I *1092:B1 I *D sky130_fd_sc_hd__a221o_1
*I *1045:B1 I *D sky130_fd_sc_hd__a221o_1
*I *1033:B1 I *D sky130_fd_sc_hd__a221o_1
*I *1028:A2 I *D sky130_fd_sc_hd__a21o_1
*I *1040:B1 I *D sky130_fd_sc_hd__a221o_1
*I *1087:B1 I *D sky130_fd_sc_hd__a221o_1
*I *1026:Y O *D sky130_fd_sc_hd__nor2_2
*CAP
1 *1097:B1 0.000239081
2 *1092:B1 0.000886657
3 *1045:B1 0.000303155
4 *1033:B1 0.000166325
5 *1028:A2 0.00030825
6 *1040:B1 0
7 *1087:B1 0
8 *1026:Y 0
9 *150:85 0.00137549
10 *150:59 0.000955131
11 *150:38 0.000879866
12 *150:29 0.000682794
13 *150:12 0.00186569
14 *150:4 0.00151862
15 *1028:A2 *1028:A1 5.65955e-05
16 *1028:A2 *1028:B1 0.000154665
17 *1028:A2 *1031:A 2.12005e-05
18 *1028:A2 *1040:B2 0.0002831
19 *1028:A2 *252:14 0
20 *1028:A2 *281:20 0.000168779
21 *1033:B1 *1033:A1 0.000133339
22 *1033:B1 *1033:C1 2.83284e-06
23 *1033:B1 *1199:A 0
24 *1033:B1 *281:44 5.66157e-05
25 *1045:B1 *1019:A 6.05161e-06
26 *1045:B1 *1019:B 0.000141445
27 *1045:B1 *1045:A1 0.000225616
28 *1045:B1 *1045:A2 8.76188e-05
29 *1045:B1 *1045:B2 3.04785e-05
30 *1092:B1 *1092:B2 1.8461e-05
31 *1092:B1 *1092:C1 2.77143e-05
32 *1092:B1 *1097:B2 0.00018077
33 *1092:B1 *1256:A 3.33238e-05
34 *1092:B1 *310:34 0.0009816
35 *1092:B1 *310:58 0.000103267
36 *1097:B1 *1097:A2 0
37 *1097:B1 *1097:B2 6.26774e-06
38 *1097:B1 *1098:A0 0
39 *1097:B1 *310:24 2.28598e-05
40 *150:12 *1026:A 7.77751e-05
41 *150:12 *1087:A1 7.92444e-05
42 *150:12 *1087:A2 0.00014631
43 *150:12 *1131:CLK 3.30237e-05
44 *150:12 *1131:RESET_B 0.000261735
45 *150:12 *332:40 0
46 *150:29 *1040:A1 4.96854e-05
47 *150:29 *1086:B 0
48 *150:29 *1087:A1 1.00332e-05
49 *150:29 *252:14 0
50 *150:29 *332:24 0.000102308
51 *150:29 *334:34 7.70035e-05
52 *150:38 *1040:A1 1.02504e-05
53 *150:38 *1040:B2 7.6644e-05
54 *150:38 *252:14 0
55 *150:38 *332:24 2.14378e-05
56 *150:59 *1019:A 1.98839e-05
57 *150:59 *281:20 5.62793e-05
58 *150:59 *281:36 0.00021081
59 *150:59 *332:24 4.58194e-05
60 *150:85 *1097:C1 4.97121e-06
61 *150:85 *310:58 0.000473613
62 *1010:B *1092:B1 9.32406e-05
63 *1011:A *1097:B1 6.0595e-05
64 *1011:B *1097:B1 0
65 *1029:S *1028:A2 2.30116e-06
66 *1094:B1 *150:85 2.84494e-05
67 *1131:D *150:12 7.91064e-07
68 *115:8 *150:12 1.4211e-05
69 *116:28 *1097:B1 1.24368e-05
70 *116:45 *1092:B1 3.17148e-05
71 *116:45 *1097:B1 5.33005e-05
72 *116:45 *150:85 0.000123295
*RES
1 *1026:Y *150:4 9.3 
2 *150:4 *150:12 21.6607 
3 *150:12 *1087:B1 13.8 
4 *150:12 *150:29 11.1607 
5 *150:29 *1040:B1 13.8 
6 *150:29 *150:38 1.64286 
7 *150:38 *1028:A2 21.5321 
8 *150:38 *150:59 10.7857 
9 *150:59 *1033:B1 21.7643 
10 *150:59 *1045:B1 15.3179 
11 *150:4 *150:85 10.6964 
12 *150:85 *1092:B1 30.9429 
13 *150:85 *1097:B1 17.2464 
*END

*D_NET *151 0.000722163
*CONN
*I *1028:B1 I *D sky130_fd_sc_hd__a21o_1
*I *1027:X O *D sky130_fd_sc_hd__a2bb2o_1
*CAP
1 *1028:B1 0.000223573
2 *1027:X 0.000223573
3 *1028:B1 *1028:A1 2.90487e-05
4 *1028:B1 *1031:A 3.18747e-05
5 *1028:A2 *1028:B1 0.000154665
6 *1029:S *1028:B1 5.94283e-05
*RES
1 *1027:X *1028:B1 31.6714 
*END

*D_NET *152 0.000327752
*CONN
*I *1029:A1 I *D sky130_fd_sc_hd__mux2_1
*I *1028:X O *D sky130_fd_sc_hd__a21o_1
*CAP
1 *1029:A1 7.02019e-05
2 *1028:X 7.02019e-05
3 *1029:A1 *1029:A0 2.89016e-05
4 *1029:A1 *1215:A 7.83659e-05
5 *1029:A1 *252:14 8.00806e-05
*RES
1 *1028:X *1029:A1 29.1714 
*END

*D_NET *153 0.00193484
*CONN
*I *1034:A2 I *D sky130_fd_sc_hd__a22o_1
*I *1030:X O *D sky130_fd_sc_hd__a2111o_1
*CAP
1 *1034:A2 0.000252238
2 *1030:X 0.000252238
3 *1034:A2 *1034:A1 0.000446597
4 *149:10 *1034:A2 0.000797106
5 *149:12 *1034:A2 0.000186662
*RES
1 *1030:X *1034:A2 27.7607 
*END

*D_NET *154 0.000418131
*CONN
*I *1033:C1 I *D sky130_fd_sc_hd__a221o_1
*I *1031:X O *D sky130_fd_sc_hd__and2_1
*CAP
1 *1033:C1 0.000187491
2 *1031:X 0.000187491
3 *1033:C1 *1034:B1 0
4 *1033:C1 *1199:A 4.03157e-05
5 *1033:B1 *1033:C1 2.83284e-06
*RES
1 *1031:X *1033:C1 30.1893 
*END

*D_NET *155 0.0051395
*CONN
*I *1068:A1 I *D sky130_fd_sc_hd__a211o_1
*I *1033:B2 I *D sky130_fd_sc_hd__a221o_1
*I *1032:X O *D sky130_fd_sc_hd__xor2_1
*CAP
1 *1068:A1 0
2 *1033:B2 0.000748974
3 *1032:X 0.000665659
4 *155:18 0.00141463
5 *1033:B2 *1064:B 0
6 *1033:B2 *1064:C 1.00375e-05
7 *1033:B2 *1068:B1 0.000266079
8 *1033:B2 *1076:B1 0
9 *1033:B2 *1199:A 0.000390071
10 *1033:B2 *250:58 6.53781e-05
11 *1033:B2 *320:64 0.000196269
12 *1033:B2 *320:68 0.000188703
13 *1033:B2 *320:70 7.95376e-05
14 *155:18 *989:A 5.65955e-05
15 *155:18 *1037:A 0.000141729
16 *155:18 *1042:B 0
17 *155:18 *1068:B1 5.80706e-06
18 *155:18 *1068:C1 4.8476e-05
19 *155:18 *1069:A0 2.56601e-05
20 *155:18 *1263:A 0.000658264
21 *155:18 *233:10 2.1768e-05
22 *1029:S *1033:B2 0.000155864
*RES
1 *1032:X *155:18 34.0321 
2 *155:18 *1033:B2 33.4652 
3 *155:18 *1068:A1 13.8 
*END

*D_NET *156 0.00191132
*CONN
*I *1034:B1 I *D sky130_fd_sc_hd__a22o_1
*I *1033:X O *D sky130_fd_sc_hd__a221o_1
*CAP
1 *1034:B1 0.000567567
2 *1033:X 0.000567567
3 *1034:B1 *991:A 0
4 *1034:B1 *1019:B 0.000160722
5 *1034:B1 *1033:A1 8.59201e-05
6 *1034:B1 *1039:A2 2.1892e-05
7 *1034:B1 *1045:A1 0
8 *1034:B1 *268:10 0
9 *1034:B1 *281:44 0
10 *1034:B1 *283:25 0.000160961
11 *1033:A2 *1034:B1 0.00016609
12 *1033:C1 *1034:B1 0
13 *1039:A1 *1034:B1 9.24299e-05
14 *1041:S *1034:B1 3.18676e-05
15 *149:12 *1034:B1 5.62995e-05
*RES
1 *1033:X *1034:B1 39.1 
*END

*D_NET *157 0.00152665
*CONN
*I *1037:A I *D sky130_fd_sc_hd__nor2_1
*I *1035:Y O *D sky130_fd_sc_hd__a21oi_1
*CAP
1 *1037:A 0.000240283
2 *1035:Y 0.000240283
3 *1037:A *989:A 9.51577e-05
4 *1037:A *1032:B 0.000123673
5 *1037:A *1035:A2 7.02611e-05
6 *1037:A *1037:B 0.000448867
7 *1037:A *158:6 0.00014285
8 *1037:A *233:10 1.32552e-05
9 *1037:A *260:36 1.02936e-05
10 *155:18 *1037:A 0.000141729
*RES
1 *1035:Y *1037:A 26.4393 
*END

*D_NET *158 0.00223639
*CONN
*I *1037:B I *D sky130_fd_sc_hd__nor2_1
*I *1042:B I *D sky130_fd_sc_hd__xor2_1
*I *1036:X O *D sky130_fd_sc_hd__and3_1
*CAP
1 *1037:B 0.000349616
2 *1042:B 0.00035008
3 *1036:X 9.27009e-05
4 *158:6 0.000792397
5 *1037:B *159:12 5.65955e-05
6 *1037:B *233:10 3.28169e-06
7 *1042:B *261:10 0
8 *1042:B *261:14 0
9 *1042:B *335:50 0
10 *1037:A *1037:B 0.000448867
11 *1037:A *158:6 0.00014285
12 *155:18 *1042:B 0
*RES
1 *1036:X *158:6 10.6571 
2 *158:6 *1042:B 23.8893 
3 *158:6 *1037:B 15.1036 
*END

*D_NET *159 0.00448234
*CONN
*I *1076:A1 I *D sky130_fd_sc_hd__a211o_1
*I *1040:B2 I *D sky130_fd_sc_hd__a221o_1
*I *1037:Y O *D sky130_fd_sc_hd__nor2_1
*CAP
1 *1076:A1 1.92233e-05
2 *1040:B2 0.000843255
3 *1037:Y 0.000166003
4 *159:12 0.00102848
5 *1040:B2 *1027:A2_N 1.46624e-05
6 *1040:B2 *1027:B2 0.000222965
7 *1040:B2 *1028:A1 0.000478359
8 *1040:B2 *1040:C1 5.81737e-05
9 *1040:B2 *1062:B 3.67548e-05
10 *1040:B2 *1076:B1 0.000685272
11 *1040:B2 *233:10 4.72217e-05
12 *1040:B2 *239:46 3.2231e-05
13 *1040:B2 *250:21 3.25078e-05
14 *1040:B2 *250:58 1.09026e-05
15 *1040:B2 *252:14 0
16 *1040:B2 *281:20 2.03008e-05
17 *1040:B2 *320:70 0
18 *1040:B2 *332:24 0.00012401
19 *1076:A1 *1076:A2 2.0876e-05
20 *1076:A1 *1076:B1 2.04825e-05
21 *1076:A1 *1077:A0 6.19471e-06
22 *159:12 *1077:A0 1.28171e-05
23 *159:12 *233:10 0.000185301
24 *1028:A2 *1040:B2 0.0002831
25 *1037:B *159:12 5.65955e-05
26 *150:38 *1040:B2 7.6644e-05
*RES
1 *1037:Y *159:12 17.2018 
2 *159:12 *1040:B2 36.6839 
3 *159:12 *1076:A1 14.2866 
*END

*D_NET *160 0.00119875
*CONN
*I *1039:A2 I *D sky130_fd_sc_hd__a21oi_1
*I *1038:Y O *D sky130_fd_sc_hd__o21ai_1
*CAP
1 *1039:A2 0.000248346
2 *1038:Y 0.000248346
3 *1039:A2 *1019:B 0.000151333
4 *1039:A2 *1033:A1 0.000108535
5 *1039:A2 *283:25 5.58941e-05
6 *1039:A2 *326:34 0.00026537
7 *1034:B1 *1039:A2 2.1892e-05
8 *1039:A1 *1039:A2 9.90367e-05
*RES
1 *1038:Y *1039:A2 34.0643 
*END

*D_NET *161 0.00117923
*CONN
*I *1040:C1 I *D sky130_fd_sc_hd__a221o_1
*I *1039:Y O *D sky130_fd_sc_hd__a21oi_1
*CAP
1 *1040:C1 0.000327513
2 *1039:Y 0.000327513
3 *1040:C1 *1039:B1 0.000166485
4 *1040:C1 *1040:A1 0.000183022
5 *1040:C1 *1040:A2 0.000116526
6 *1040:B2 *1040:C1 5.81737e-05
*RES
1 *1039:Y *1040:C1 25.7429 
*END

*D_NET *162 0.00177591
*CONN
*I *1041:A1 I *D sky130_fd_sc_hd__mux2_1
*I *1040:X O *D sky130_fd_sc_hd__a221o_1
*CAP
1 *1041:A1 0.000477236
2 *1040:X 0.000477236
3 *1041:A1 *1086:B 0.000271958
4 *1041:A1 *1198:A 0
5 *1041:A1 *1199:A 0
6 *1041:A1 *268:10 0
7 *1041:A1 *283:8 0.000492333
8 *1041:A1 *283:25 5.71472e-05
*RES
1 *1040:X *1041:A1 36.1179 
*END

*D_NET *163 0.00580796
*CONN
*I *1082:A1 I *D sky130_fd_sc_hd__a2111o_1
*I *1045:B2 I *D sky130_fd_sc_hd__a221o_1
*I *1042:X O *D sky130_fd_sc_hd__xor2_1
*CAP
1 *1082:A1 0.000463706
2 *1045:B2 0.000851706
3 *1042:X 0.000871357
4 *163:6 0.00218677
5 *1045:B2 *991:A 0
6 *1045:B2 *1045:A1 0
7 *1045:B2 *1045:A2 8.66619e-06
8 *1045:B2 *1045:C1 5.80706e-06
9 *1045:B2 *1046:A0 0
10 *1045:B2 *1083:A1_N 1.78353e-05
11 *1045:B2 *1083:B1 0
12 *1045:B2 *235:10 0
13 *1045:B2 *280:19 0
14 *1082:A1 *1083:A2_N 4.72595e-05
15 *1082:A1 *1083:B2 0.000355009
16 *163:6 *990:A 5.62995e-05
17 *163:6 *1060:A1 0.000356035
18 *163:6 *1062:A 8.43535e-06
19 *163:6 *1062:B 0.000112496
20 *163:6 *1064:B 7.95559e-05
21 *163:6 *1083:A1_N 6.20574e-05
22 *163:6 *1083:A2_N 2.51343e-06
23 *1045:B1 *1045:B2 3.04785e-05
24 *1130:D *1045:B2 9.91086e-05
25 *149:32 *1045:B2 0.000192862
*RES
1 *1042:X *163:6 25.0321 
2 *163:6 *1045:B2 33.8893 
3 *163:6 *1082:A1 17.675 
*END

*D_NET *164 0.00015758
*CONN
*I *1044:A2 I *D sky130_fd_sc_hd__o21a_1
*I *1043:X O *D sky130_fd_sc_hd__o31a_1
*CAP
1 *1044:A2 5.02162e-05
2 *1043:X 5.02162e-05
3 *1044:A1 *1044:A2 5.71472e-05
*RES
1 *1043:X *1044:A2 19.5464 
*END

*D_NET *165 0.000345808
*CONN
*I *1045:C1 I *D sky130_fd_sc_hd__a221o_1
*I *1044:X O *D sky130_fd_sc_hd__o21a_1
*CAP
1 *1045:C1 0.000122209
2 *1044:X 0.000122209
3 *1045:C1 *1019:B 0
4 *1045:C1 *1045:A1 2.84494e-05
5 *1045:C1 *326:30 3.18676e-05
6 *1045:B2 *1045:C1 5.80706e-06
7 *149:32 *1045:C1 3.52655e-05
*RES
1 *1044:X *1045:C1 29.7786 
*END

*D_NET *166 0.000359264
*CONN
*I *1046:A1 I *D sky130_fd_sc_hd__mux2_1
*I *1045:X O *D sky130_fd_sc_hd__a221o_1
*CAP
1 *1046:A1 0.000136284
2 *1045:X 0.000136284
3 *1046:A1 *1045:A2 4.46186e-06
4 *1046:A1 *1046:A0 2.89016e-05
5 *1046:A1 *239:44 5.33334e-05
6 *149:32 *1046:A1 0
*RES
1 *1045:X *1046:A1 30.1893 
*END

*D_NET *167 0.00866021
*CONN
*I *1103:A2 I *D sky130_fd_sc_hd__a211o_1
*I *1048:B I *D sky130_fd_sc_hd__nand2_1
*I *1053:A2 I *D sky130_fd_sc_hd__o21bai_1
*I *1052:A2 I *D sky130_fd_sc_hd__o211a_1
*I *1107:A3 I *D sky130_fd_sc_hd__a311o_1
*I *1050:A2 I *D sky130_fd_sc_hd__o31a_1
*I *1047:X O *D sky130_fd_sc_hd__and3_2
*CAP
1 *1103:A2 0.000424691
2 *1048:B 0
3 *1053:A2 0.000283373
4 *1052:A2 0.000146746
5 *1107:A3 0.000226805
6 *1050:A2 5.77816e-05
7 *1047:X 0
8 *167:36 0.000869402
9 *167:25 0.00124277
10 *167:17 0.000595255
11 *167:8 0.000578463
12 *167:4 0.000926802
13 *1050:A2 *1050:A3 0.000188586
14 *1050:A2 *1050:B1 8.07313e-05
15 *1052:A2 *1052:C1 3.99614e-06
16 *1052:A2 *325:22 0.000175493
17 *1053:A2 *1052:A1 0
18 *1053:A2 *1052:B1 0
19 *1053:A2 *1053:B1_N 2.96981e-05
20 *1103:A2 *1005:B_N 0.000230482
21 *1103:A2 *1047:A 5.33005e-05
22 *1103:A2 *1047:C 2.05612e-05
23 *1103:A2 *1103:B1 4.1331e-06
24 *1103:A2 *328:14 0
25 *1103:A2 *331:89 0
26 *1107:A3 *173:14 0.000197008
27 *1107:A3 *217:8 4.87953e-05
28 *167:8 *1047:C 3.37729e-05
29 *167:8 *1048:A 0.000388181
30 *167:8 *1050:A3 0.00059673
31 *167:8 *1050:B1 2.89016e-05
32 *167:8 *1114:B1 0.000401758
33 *167:17 *1048:A 5.7661e-06
34 *167:17 *1050:B1 3.99614e-06
35 *167:25 *1054:A 0
36 *167:25 *1105:A_N 0
37 *167:25 *1112:A 0
38 *167:25 *1115:A 0
39 *167:25 *1118:A2 6.74815e-05
40 *167:25 *1118:B1 0.00060531
41 *167:25 *1158:CLK 0
42 *167:36 *1052:B1 0
43 *167:36 *1105:A_N 0
44 *167:36 *1115:A 0
45 *1114:A3 *167:8 5.33005e-05
46 *1126:D *1053:A2 9.01334e-05
47 *1158:D *167:25 0
*RES
1 *1047:X *167:4 9.3 
2 *167:4 *167:8 13.8929 
3 *167:8 *1050:A2 11.4786 
4 *167:8 *167:17 0.428571 
5 *167:17 *167:25 17.125 
6 *167:25 *1107:A3 18.8536 
7 *167:25 *167:36 7.41071 
8 *167:36 *1052:A2 17.2286 
9 *167:36 *1053:A2 19.0857 
10 *167:17 *1048:B 9.3 
11 *167:4 *1103:A2 24.175 
*END

*D_NET *168 0.00034062
*CONN
*I *1050:B1 I *D sky130_fd_sc_hd__o31a_1
*I *1048:Y O *D sky130_fd_sc_hd__nand2_1
*CAP
1 *1050:B1 0.000113495
2 *1048:Y 0.000113495
3 *1050:B1 *1048:A 0
4 *1050:A2 *1050:B1 8.07313e-05
5 *167:8 *1050:B1 2.89016e-05
6 *167:17 *1050:B1 3.99614e-06
*RES
1 *1048:Y *1050:B1 20.7964 
*END

*D_NET *169 0.00532608
*CONN
*I *1108:B1 I *D sky130_fd_sc_hd__a21o_1
*I *1050:A3 I *D sky130_fd_sc_hd__o31a_1
*I *1049:X O *D sky130_fd_sc_hd__and2_1
*CAP
1 *1108:B1 0
2 *1050:A3 0.000507629
3 *1049:X 0.000915814
4 *169:16 0.00142344
5 *1050:A3 *1112:A 0
6 *1050:A3 *1114:A2 3.28686e-05
7 *169:16 *995:A_N 5.33005e-05
8 *169:16 *995:C 5.33005e-05
9 *169:16 *1108:A2 9.60875e-05
10 *169:16 *1159:A 6.75007e-05
11 *169:16 *1207:A 0.000739381
12 *169:16 *1211:A 2.89016e-05
13 *169:16 *330:51 9.21719e-05
14 *169:16 *330:64 6.75007e-05
15 *169:16 *330:116 0.000181796
16 *169:16 *331:6 0.000227728
17 *169:16 *331:12 5.33433e-05
18 *1050:A2 *1050:A3 0.000188586
19 *139:42 *1050:A3 0
20 *167:8 *1050:A3 0.00059673
*RES
1 *1049:X *169:16 40.3357 
2 *169:16 *1050:A3 28.0679 
3 *169:16 *1108:B1 9.3 
*END

*D_NET *170 0.00574886
*CONN
*I *1113:A2 I *D sky130_fd_sc_hd__a2111o_1
*I *1052:B1 I *D sky130_fd_sc_hd__o211a_1
*I *1051:Y O *D sky130_fd_sc_hd__nor3_1
*CAP
1 *1113:A2 0.00180569
2 *1052:B1 0.000120498
3 *1051:Y 0.000182734
4 *170:6 0.00210893
5 *1052:B1 *1052:A1 5.80706e-06
6 *1052:B1 *325:35 0.000277524
7 *1113:A2 *999:A 0.000144038
8 *1113:A2 *1002:B 0.000335215
9 *1113:A2 *1048:A 4.46186e-06
10 *1113:A2 *1107:A1 5.41797e-05
11 *1113:A2 *1113:A1 5.58941e-05
12 *1113:A2 *1113:D1 5.52302e-05
13 *1113:A2 *1160:A 0.000175776
14 *1113:A2 *228:23 0.000125514
15 *1113:A2 *273:21 1.17968e-05
16 *1113:A2 *274:10 0
17 *1113:A2 *315:10 0.00018313
18 *1113:A2 *327:19 6.8646e-06
19 *1113:A2 *327:23 5.44074e-05
20 *170:6 *1051:A 1.03968e-05
21 *170:6 *1051:B 1.74352e-05
22 *170:6 *1051:C 1.33343e-05
23 *1053:A2 *1052:B1 0
24 *167:36 *1052:B1 0
*RES
1 *1051:Y *170:6 11.4786 
2 *170:6 *1052:B1 21.7643 
3 *170:6 *1113:A2 47.0143 
*END

*D_NET *171 0.000560785
*CONN
*I *1053:B1_N I *D sky130_fd_sc_hd__o21bai_1
*I *1052:X O *D sky130_fd_sc_hd__o211a_1
*CAP
1 *1053:B1_N 0.000131132
2 *1052:X 0.000131132
3 *1053:B1_N *1052:A1 9.32966e-05
4 *1053:A2 *1053:B1_N 2.96981e-05
5 *1126:D *1053:B1_N 0.000175526
*RES
1 *1052:X *1053:B1_N 31.0643 
*END

*D_NET *172 0.0013072
*CONN
*I *1249:A I *D sky130_fd_sc_hd__buf_1
*I *1082:A2 I *D sky130_fd_sc_hd__a2111o_1
*I *1054:Y O *D sky130_fd_sc_hd__nor3_1
*CAP
1 *1249:A 0.000166296
2 *1082:A2 0.000176726
3 *1054:Y 4.13476e-05
4 *172:8 0.00038437
5 *1082:A2 *1054:A 0
6 *1082:A2 *1158:CLK 0
7 *1082:A2 *336:34 0.000229415
8 *1249:A *1266:A 9.71197e-05
9 *1249:A *173:14 6.09804e-05
10 *1249:A *174:14 9.25014e-06
11 *1249:A *176:10 1.98839e-05
12 *1249:A *324:8 3.18676e-05
13 *1249:A *336:34 5.51406e-05
14 *172:8 *320:18 2.14658e-05
15 *172:8 *320:31 1.33343e-05
16 *1158:D *1082:A2 0
*RES
1 *1054:Y *172:8 14.3357 
2 *172:8 *1082:A2 17.2643 
3 *172:8 *1249:A 17.6214 
*END

*D_NET *173 0.00429773
*CONN
*I *1059:B I *D sky130_fd_sc_hd__or3_4
*I *1082:B1 I *D sky130_fd_sc_hd__a2111o_1
*I *1055:Y O *D sky130_fd_sc_hd__nor4_1
*CAP
1 *1059:B 0
2 *1082:B1 4.54164e-05
3 *1055:Y 0.00152939
4 *173:14 0.0015748
5 *1082:B1 *176:14 0.000100823
6 *1082:B1 *336:34 5.01117e-05
7 *173:14 *1054:B 0.000136951
8 *173:14 *1083:A2_N 0
9 *173:14 *1105:B 0.000165024
10 *173:14 *1107:A1 8.27184e-06
11 *173:14 *1107:B1 9.80173e-05
12 *173:14 *1118:A2 5.39166e-06
13 *173:14 *1266:A 7.49387e-06
14 *173:14 *174:14 1.39841e-05
15 *173:14 *176:10 3.97543e-05
16 *173:14 *177:19 0
17 *173:14 *320:31 1.4487e-05
18 *173:14 *324:8 9.90431e-05
19 *173:14 *336:34 0
20 *1082:D1 *173:14 5.66157e-05
21 *1107:A3 *173:14 0.000197008
22 *1249:A *173:14 6.09804e-05
23 *139:16 *173:14 9.41642e-05
*RES
1 *1055:Y *173:14 39.5679 
2 *173:14 *1082:B1 19.6393 
3 *173:14 *1059:B 9.3 
*END

*D_NET *174 0.00233333
*CONN
*I *1106:C I *D sky130_fd_sc_hd__and3b_1
*I *1105:B I *D sky130_fd_sc_hd__nand2b_1
*I *1058:B1_N I *D sky130_fd_sc_hd__o21ba_1
*I *1056:X O *D sky130_fd_sc_hd__or4_1
*CAP
1 *1106:C 0.000200968
2 *1105:B 0.000127588
3 *1058:B1_N 0
4 *1056:X 7.01715e-05
5 *174:14 0.000298905
6 *174:8 0.000442457
7 *1105:B *1058:A1 5.52302e-05
8 *1105:B *1266:A 7.72917e-05
9 *1106:C *1106:A_N 9.90431e-05
10 *1106:C *302:28 0.000313241
11 *1106:C *317:39 4.0342e-06
12 *1106:C *317:47 5.30209e-05
13 *1106:C *325:63 0.000228558
14 *174:8 *325:35 0
15 *174:8 *336:34 3.06406e-05
16 *174:14 *1266:A 5.71472e-05
17 *174:14 *317:47 0
18 *174:14 *325:37 0
19 *174:14 *336:34 8.67783e-05
20 *1249:A *174:14 9.25014e-06
21 *173:14 *1105:B 0.000165024
22 *173:14 *174:14 1.39841e-05
*RES
1 *1056:X *174:8 15.1393 
2 *174:8 *174:14 8.19643 
3 *174:14 *1058:B1_N 9.3 
4 *174:14 *1105:B 13.2866 
5 *174:8 *1106:C 19.2643 
*END

*D_NET *175 0.000221055
*CONN
*I *1060:C1 I *D sky130_fd_sc_hd__a221o_1
*I *1057:X O *D sky130_fd_sc_hd__o21ba_1
*CAP
1 *1060:C1 5.93996e-05
2 *1057:X 5.93996e-05
3 *1060:C1 *1060:A1 0
4 *1060:C1 *1060:B1 3.57163e-05
5 *1060:C1 *1068:B1 6.65398e-05
*RES
1 *1057:X *1060:C1 29.2429 
*END

*D_NET *176 0.00256688
*CONN
*I *1059:C I *D sky130_fd_sc_hd__or3_4
*I *1082:C1 I *D sky130_fd_sc_hd__a2111o_1
*I *1081:C1 I *D sky130_fd_sc_hd__a311o_1
*I *1058:X O *D sky130_fd_sc_hd__o21ba_1
*CAP
1 *1059:C 1.42885e-05
2 *1082:C1 0
3 *1081:C1 0.000478669
4 *1058:X 0.000159577
5 *176:14 0.000624262
6 *176:10 0.000319459
7 *1059:C *320:31 5.33005e-05
8 *1081:C1 *1081:B1 0.000144773
9 *1081:C1 *1083:A2_N 0
10 *1081:C1 *336:10 9.37018e-05
11 *1081:C1 *336:20 3.9745e-05
12 *1081:C1 *336:34 1.00375e-05
13 *176:10 *1266:A 9.71197e-05
14 *176:10 *336:34 0.00012401
15 *176:14 *1083:A2_N 0
16 *176:14 *336:34 4.47791e-05
17 *1082:B1 *176:14 0.000100823
18 *1082:D1 *176:14 0.000147474
19 *1249:A *176:10 1.98839e-05
20 *139:16 *1059:C 5.52238e-05
21 *173:14 *176:10 3.97543e-05
*RES
1 *1058:X *176:10 16.8 
2 *176:10 *176:14 3.39286 
3 *176:14 *1081:C1 23.425 
4 *176:14 *1082:C1 13.8 
5 *176:10 *1059:C 14.3357 
*END

*D_NET *177 0.00558506
*CONN
*I *1061:S I *D sky130_fd_sc_hd__mux2_1
*I *1069:S I *D sky130_fd_sc_hd__mux2_1
*I *1077:S I *D sky130_fd_sc_hd__mux2_1
*I *1083:A2_N I *D sky130_fd_sc_hd__o2bb2a_1
*I *1059:X O *D sky130_fd_sc_hd__or3_4
*CAP
1 *1061:S 0.000275737
2 *1069:S 0
3 *1077:S 0.000326565
4 *1083:A2_N 0.000479316
5 *1059:X 0
6 *177:23 0.00081639
7 *177:19 0.00130005
8 *177:6 0.0010138
9 *1061:S *1061:A0 5.17614e-05
10 *1061:S *1061:A1 8.37135e-05
11 *1061:S *1127:RESET_B 0
12 *1061:S *1261:A 0
13 *1061:S *336:34 0
14 *1077:S *1069:A0 0.00062435
15 *1077:S *1069:A1 5.52238e-05
16 *1077:S *279:12 6.05161e-06
17 *1083:A2_N *1081:B1 0.000128224
18 *1083:A2_N *1083:B2 9.05499e-05
19 *177:19 *1081:B1 0.000202816
20 *177:19 *1261:A 0
21 *177:19 *325:67 0
22 *177:19 *336:34 0
23 *1081:C1 *1083:A2_N 0
24 *1082:A1 *1083:A2_N 4.72595e-05
25 *1082:D1 *1083:A2_N 0
26 *1127:D *1061:S 8.07313e-05
27 *163:6 *1083:A2_N 2.51343e-06
28 *173:14 *1083:A2_N 0
29 *173:14 *177:19 0
30 *176:14 *1083:A2_N 0
*RES
1 *1059:X *177:6 13.8 
2 *177:6 *1083:A2_N 21.1929 
3 *177:6 *177:19 9.83929 
4 *177:19 *177:23 12.4286 
5 *177:23 *1077:S 26.0143 
6 *177:23 *1069:S 9.3 
7 *177:19 *1061:S 19.6571 
*END

*D_NET *178 0.0026986
*CONN
*I *1061:A0 I *D sky130_fd_sc_hd__mux2_1
*I *1060:X O *D sky130_fd_sc_hd__a221o_1
*CAP
1 *1061:A0 0.000934607
2 *1060:X 0.000934607
3 *1061:A0 *1054:B 0
4 *1061:A0 *1057:A1 0.000221163
5 *1061:A0 *1057:A2 0
6 *1061:A0 *1057:B1_N 6.71764e-05
7 *1061:A0 *1060:B1 0
8 *1061:A0 *1061:A1 5.52302e-05
9 *1061:A0 *1065:B 3.69697e-05
10 *1061:A0 *1067:B1 0.000100831
11 *1061:A0 *1076:C1 0
12 *1061:A0 *1261:A 0
13 *1061:A0 *278:10 9.90431e-05
14 *1061:A0 *278:12 0
15 *1061:A0 *320:31 8.07313e-05
16 *1061:A0 *325:67 0
17 *1061:A0 *325:79 0.000116481
18 *1061:S *1061:A0 5.17614e-05
*RES
1 *1060:X *1061:A0 44.6536 
*END

*D_NET *179 0.00138009
*CONN
*I *1064:B I *D sky130_fd_sc_hd__and3_1
*I *1062:X O *D sky130_fd_sc_hd__or2_1
*CAP
1 *1064:B 0.000463907
2 *1062:X 0.000463907
3 *1064:B *990:A 4.72917e-05
4 *1064:B *1062:A 9.41642e-05
5 *1064:B *1064:C 3.5707e-05
6 *1064:B *1081:A1 3.34295e-05
7 *1064:B *320:41 9.22948e-05
8 *1064:B *320:43 6.98302e-05
9 *1033:B2 *1064:B 0
10 *163:6 *1064:B 7.95559e-05
*RES
1 *1062:X *1064:B 34.7964 
*END

*D_NET *180 0.000700538
*CONN
*I *1064:C I *D sky130_fd_sc_hd__and3_1
*I *1063:Y O *D sky130_fd_sc_hd__nand2_1
*CAP
1 *1064:C 0.000177282
2 *1063:Y 0.000177282
3 *1064:C *1068:B1 5.52302e-05
4 *1064:C *1081:A1 0
5 *1064:C *1130:CLK 6.78929e-05
6 *1064:C *1199:A 0.000148196
7 *1064:C *186:12 2.89114e-05
8 *1033:B2 *1064:C 1.00375e-05
9 *1064:B *1064:C 3.5707e-05
*RES
1 *1063:Y *1064:C 31.6 
*END

*D_NET *181 0.00110304
*CONN
*I *1068:B1 I *D sky130_fd_sc_hd__a211o_1
*I *1064:X O *D sky130_fd_sc_hd__and3_1
*CAP
1 *1068:B1 0.000343506
2 *1064:X 0.000343506
3 *1068:B1 *1060:A1 0
4 *1068:B1 *1068:C1 1.02504e-05
5 *1068:B1 *1130:CLK 1.21258e-05
6 *1068:B1 *320:41 0
7 *1033:B2 *1068:B1 0.000266079
8 *1060:C1 *1068:B1 6.65398e-05
9 *1064:C *1068:B1 5.52302e-05
10 *155:18 *1068:B1 5.80706e-06
*RES
1 *1064:X *1068:B1 35.0464 
*END

*D_NET *182 0.000836573
*CONN
*I *1067:B1 I *D sky130_fd_sc_hd__o22a_1
*I *1065:Y O *D sky130_fd_sc_hd__nor2_1
*CAP
1 *1067:B1 0.000122433
2 *1065:Y 0.000122433
3 *1067:B1 *1057:B1_N 5.01213e-05
4 *1067:B1 *1067:A1 9.90431e-05
5 *1067:B1 *1263:A 5.04589e-05
6 *1067:B1 *302:18 0.000268403
7 *1067:B1 *324:37 2.28499e-05
8 *1061:A0 *1067:B1 0.000100831
*RES
1 *1065:Y *1067:B1 31.9571 
*END

*D_NET *183 0.000327483
*CONN
*I *1067:B2 I *D sky130_fd_sc_hd__o22a_1
*I *1066:X O *D sky130_fd_sc_hd__and2_1
*CAP
1 *1067:B2 0.000137031
2 *1066:X 0.000137031
3 *1067:B2 *1057:B1_N 3.93893e-05
4 *1067:B2 *279:23 1.40306e-05
*RES
1 *1066:X *1067:B2 29.7786 
*END

*D_NET *184 0.000479584
*CONN
*I *1068:C1 I *D sky130_fd_sc_hd__a211o_1
*I *1067:X O *D sky130_fd_sc_hd__o22a_1
*CAP
1 *1068:C1 0.000160907
2 *1067:X 0.000160907
3 *1068:C1 *1076:C1 0
4 *1068:C1 *1263:A 9.90431e-05
5 *1068:B1 *1068:C1 1.02504e-05
6 *155:18 *1068:C1 4.8476e-05
*RES
1 *1067:X *1068:C1 30.4929 
*END

*D_NET *185 0.00187676
*CONN
*I *1069:A0 I *D sky130_fd_sc_hd__mux2_1
*I *1068:X O *D sky130_fd_sc_hd__a211o_1
*CAP
1 *1069:A0 0.000423979
2 *1068:X 0.000423979
3 *1069:A0 *1077:A0 0.000135783
4 *1069:A0 *279:12 0.00013785
5 *1077:S *1069:A0 0.00062435
6 *1128:D *1069:A0 0.000105163
7 *155:18 *1069:A0 2.56601e-05
*RES
1 *1068:X *1069:A0 39.0464 
*END

*D_NET *186 0.00192647
*CONN
*I *1072:B I *D sky130_fd_sc_hd__and3_1
*I *1078:B I *D sky130_fd_sc_hd__nand2_1
*I *1079:B I *D sky130_fd_sc_hd__or2_1
*I *1070:Y O *D sky130_fd_sc_hd__nand3_1
*CAP
1 *1072:B 2.23854e-05
2 *1078:B 0
3 *1079:B 8.48227e-05
4 *1070:Y 0.000195935
5 *186:12 0.000356107
6 *186:6 0.000489605
7 *1079:B *1063:A 0
8 *1079:B *1078:A 5.71472e-05
9 *1079:B *1081:A1 1.21289e-05
10 *1079:B *1081:A2 2.44318e-05
11 *186:6 *1063:B 4.13595e-05
12 *186:6 *1071:B1 0.000184522
13 *186:6 *1076:B1 5.52238e-05
14 *186:6 *251:45 6.06593e-05
15 *186:12 *1063:A 2.95726e-05
16 *186:12 *1063:B 0.000138881
17 *186:12 *1071:B1 0
18 *186:12 *1078:A 0
19 *186:12 *1081:A1 0.000144773
20 *1064:C *186:12 2.89114e-05
*RES
1 *1070:Y *186:6 13.1214 
2 *186:6 *186:12 5.91071 
3 *186:12 *1079:B 11.0857 
4 *186:12 *1078:B 9.3 
5 *186:6 *1072:B 9.72857 
*END

*D_NET *187 0.000322842
*CONN
*I *1072:C I *D sky130_fd_sc_hd__and3_1
*I *1071:X O *D sky130_fd_sc_hd__a21o_1
*CAP
1 *1072:C 3.09901e-05
2 *1071:X 3.09901e-05
3 *1072:C *1063:A 7.99507e-05
4 *1072:C *1063:B 6.85397e-05
5 *1072:C *250:25 5.52238e-05
6 *1072:C *251:45 5.71472e-05
*RES
1 *1071:X *1072:C 19.8143 
*END

*D_NET *188 0.00174682
*CONN
*I *1076:B1 I *D sky130_fd_sc_hd__a211o_1
*I *1072:X O *D sky130_fd_sc_hd__and3_1
*CAP
1 *1076:B1 0.000336197
2 *1072:X 0.000336197
3 *1076:B1 *1062:B 0.00031345
4 *1033:B2 *1076:B1 0
5 *1040:B2 *1076:B1 0.000685272
6 *1076:A1 *1076:B1 2.04825e-05
7 *186:6 *1076:B1 5.52238e-05
*RES
1 *1072:X *1076:B1 37.0643 
*END

*D_NET *189 0.00063025
*CONN
*I *1080:B1 I *D sky130_fd_sc_hd__o211a_1
*I *1075:B1 I *D sky130_fd_sc_hd__a2bb2oi_1
*I *1073:X O *D sky130_fd_sc_hd__or3_1
*CAP
1 *1080:B1 8.9501e-06
2 *1075:B1 2.72676e-05
3 *1073:X 0.000102573
4 *189:10 0.00013879
5 *1075:B1 *1075:B2 1.74352e-05
6 *1075:B1 *1080:C1 3.4855e-05
7 *1075:B1 *302:18 9.7049e-06
8 *1075:B1 *302:28 0.000111383
9 *1080:B1 *1080:C1 5.52302e-05
10 *1080:B1 *302:28 3.03304e-05
11 *189:10 *1075:B2 7.83659e-05
12 *189:10 *1080:A1 1.09026e-05
13 *189:10 *1080:A2 4.46186e-06
14 *189:10 *325:79 0
*RES
1 *1073:X *189:10 19.9429 
2 *189:10 *1075:B1 10.675 
3 *189:10 *1080:B1 9.83571 
*END

*D_NET *190 0.000601423
*CONN
*I *1075:B2 I *D sky130_fd_sc_hd__a2bb2oi_1
*I *1074:Y O *D sky130_fd_sc_hd__o21ai_1
*CAP
1 *1075:B2 0.000156291
2 *1074:Y 0.000156291
3 *1075:B2 *1080:C1 9.80173e-05
4 *1075:B2 *302:18 7.43578e-06
5 *1075:B2 *302:28 9.22103e-06
6 *1075:B2 *325:67 7.83659e-05
7 *1075:B1 *1075:B2 1.74352e-05
8 *189:10 *1075:B2 7.83659e-05
*RES
1 *1074:Y *1075:B2 30.4036 
*END

*D_NET *191 0.00196956
*CONN
*I *1076:C1 I *D sky130_fd_sc_hd__a211o_1
*I *1075:Y O *D sky130_fd_sc_hd__a2bb2oi_1
*CAP
1 *1076:C1 0.000652544
2 *1075:Y 0.000652544
3 *1076:C1 *1057:A2 3.56976e-05
4 *1076:C1 *1057:B1_N 5.71472e-05
5 *1076:C1 *1068:A2 3.99614e-06
6 *1076:C1 *1076:A2 8.36527e-05
7 *1076:C1 *1263:A 0.000140933
8 *1076:C1 *319:21 0.000161947
9 *1076:C1 *324:33 5.71472e-05
10 *1076:C1 *324:37 0.000123949
11 *1061:A0 *1076:C1 0
12 *1068:C1 *1076:C1 0
*RES
1 *1075:Y *1076:C1 38.5464 
*END

*D_NET *192 0.000886536
*CONN
*I *1077:A0 I *D sky130_fd_sc_hd__mux2_1
*I *1076:X O *D sky130_fd_sc_hd__a211o_1
*CAP
1 *1077:A0 0.000346715
2 *1076:X 0.000346715
3 *1077:A0 *1076:A2 3.58039e-05
4 *1077:A0 *233:10 2.50802e-06
5 *1069:A0 *1077:A0 0.000135783
6 *1076:A1 *1077:A0 6.19471e-06
7 *159:12 *1077:A0 1.28171e-05
*RES
1 *1076:X *1077:A0 33.2429 
*END

*D_NET *193 0.000994757
*CONN
*I *1081:A2 I *D sky130_fd_sc_hd__a311o_1
*I *1078:Y O *D sky130_fd_sc_hd__nand2_1
*CAP
1 *1081:A2 9.92229e-05
2 *1078:Y 9.92229e-05
3 *1081:A2 *1078:A 0.000144773
4 *1081:A2 *1081:A1 0.000484257
5 *1081:A2 *1081:A3 0.00014285
6 *1079:B *1081:A2 2.44318e-05
*RES
1 *1078:Y *1081:A2 23.2607 
*END

*D_NET *194 0.000254727
*CONN
*I *1081:A3 I *D sky130_fd_sc_hd__a311o_1
*I *1079:X O *D sky130_fd_sc_hd__or2_1
*CAP
1 *1081:A3 5.5939e-05
2 *1079:X 5.5939e-05
3 *1081:A2 *1081:A3 0.00014285
*RES
1 *1079:X *1081:A3 19.9571 
*END

*D_NET *195 0.00198474
*CONN
*I *1081:B1 I *D sky130_fd_sc_hd__a311o_1
*I *1080:X O *D sky130_fd_sc_hd__o211a_1
*CAP
1 *1081:B1 0.000512627
2 *1080:X 0.000512627
3 *1081:B1 *1081:A1 1.97695e-05
4 *1081:B1 *1083:B1 0.000102658
5 *1081:B1 *280:19 0.000361241
6 *1081:C1 *1081:B1 0.000144773
7 *1083:A2_N *1081:B1 0.000128224
8 *177:19 *1081:B1 0.000202816
*RES
1 *1080:X *1081:B1 41.7607 
*END

*D_NET *196 0.00121848
*CONN
*I *1083:B1 I *D sky130_fd_sc_hd__o2bb2a_1
*I *1081:X O *D sky130_fd_sc_hd__a311o_1
*CAP
1 *1083:B1 0.000402229
2 *1081:X 0.000402229
3 *1083:B1 *1081:A1 0.000185643
4 *1083:B1 *280:19 0.000125724
5 *1045:B2 *1083:B1 0
6 *1081:B1 *1083:B1 0.000102658
*RES
1 *1081:X *1083:B1 34.6714 
*END

*D_NET *197 0.000657005
*CONN
*I *1083:B2 I *D sky130_fd_sc_hd__o2bb2a_1
*I *1082:X O *D sky130_fd_sc_hd__a2111o_1
*CAP
1 *1083:B2 0.000105723
2 *1082:X 0.000105723
3 *1082:A1 *1083:B2 0.000355009
4 *1083:A2_N *1083:B2 9.05499e-05
*RES
1 *1082:X *1083:B2 22.0107 
*END

*D_NET *198 0.000264371
*CONN
*I *1085:D I *D sky130_fd_sc_hd__or4_4
*I *1084:X O *D sky130_fd_sc_hd__o2111a_1
*CAP
1 *1085:D 1.94333e-05
2 *1084:X 1.94333e-05
3 *1085:D *1084:B1 0.000144773
4 *139:44 *1085:D 8.07313e-05
*RES
1 *1084:X *1085:D 19.9571 
*END

*D_NET *199 0.0066027
*CONN
*I *1098:S I *D sky130_fd_sc_hd__mux2_1
*I *1093:S I *D sky130_fd_sc_hd__mux2_1
*I *1088:S I *D sky130_fd_sc_hd__mux2_1
*I *1085:X O *D sky130_fd_sc_hd__or4_4
*CAP
1 *1098:S 0.00028585
2 *1093:S 0.000406357
3 *1088:S 0
4 *1085:X 0.000307713
5 *199:20 0.00131034
6 *199:10 0.00149755
7 *1093:S *1087:A2 0.000400867
8 *1093:S *1122:CLK 3.68898e-05
9 *1093:S *268:16 0.000148911
10 *1093:S *268:18 0.000392276
11 *1093:S *332:38 1.69115e-05
12 *199:10 *334:34 9.41642e-05
13 *199:20 *1122:CLK 0.000209005
14 *199:20 *1122:RESET_B 0.000180002
15 *199:20 *282:10 0.000141337
16 *1050:A1 *1098:S 0.000108118
17 *1050:A1 *199:10 0.000100823
18 *1050:A1 *199:20 2.51343e-06
19 *1086:A *1093:S 0.000269422
20 *1088:A1 *1093:S 9.90431e-05
21 *1131:D *1093:S 2.56694e-05
22 *115:10 *1093:S 0
23 *115:75 *1093:S 0
24 *118:6 *199:20 2.72859e-05
25 *118:12 *1098:S 0.000541646
*RES
1 *1085:X *199:10 18.9607 
2 *199:10 *199:20 17.8214 
3 *199:20 *1088:S 9.3 
4 *199:20 *1093:S 30.3714 
5 *199:10 *1098:S 21.8179 
*END

*D_NET *200 0.000658838
*CONN
*I *1087:C1 I *D sky130_fd_sc_hd__a221o_1
*I *1086:Y O *D sky130_fd_sc_hd__nor2_1
*CAP
1 *1087:C1 0.000170357
2 *1086:Y 0.000170357
3 *1087:C1 *1087:A1 0.000182592
4 *1087:C1 *1087:A2 6.15188e-05
5 *1087:C1 *1087:B2 3.36099e-05
6 *1087:C1 *334:34 4.04021e-05
*RES
1 *1086:Y *1087:C1 22.7429 
*END

*D_NET *201 0.00132548
*CONN
*I *1088:A0 I *D sky130_fd_sc_hd__mux2_1
*I *1087:X O *D sky130_fd_sc_hd__a221o_1
*CAP
1 *1088:A0 0.000375705
2 *1087:X 0.000375705
3 *1088:A0 *1087:A2 0.000574073
*RES
1 *1087:X *1088:A0 24.0643 
*END

*D_NET *202 0.000334075
*CONN
*I *1091:B I *D sky130_fd_sc_hd__and3_1
*I *1089:Y O *D sky130_fd_sc_hd__nand2_1
*CAP
1 *1091:B 0.000135984
2 *1089:Y 0.000135984
3 *1091:B *1091:A 1.32552e-05
4 *1089:A *1091:B 4.88515e-05
*RES
1 *1089:Y *1091:B 20.3679 
*END

*D_NET *203 0.000465376
*CONN
*I *1091:C I *D sky130_fd_sc_hd__and3_1
*I *1090:X O *D sky130_fd_sc_hd__or2_1
*CAP
1 *1091:C 0.000122176
2 *1090:X 0.000122176
3 *1091:C *1092:C1 3.92854e-05
4 *1089:A *1091:C 6.05161e-06
5 *1090:A *1091:C 7.6644e-05
6 *116:8 *1091:C 9.90431e-05
*RES
1 *1090:X *1091:C 29.7786 
*END

*D_NET *204 0.00194173
*CONN
*I *1092:C1 I *D sky130_fd_sc_hd__a221o_1
*I *1091:X O *D sky130_fd_sc_hd__and3_1
*CAP
1 *1092:C1 0.000789969
2 *1091:X 0.000789969
3 *1092:C1 *1092:B2 4.73311e-05
4 *1092:C1 *1136:D 1.76135e-05
5 *1092:C1 *1139:CLK 0
6 *1092:C1 *1256:A 1.66955e-05
7 *1092:C1 *268:18 0
8 *1092:C1 *268:20 0
9 *1092:C1 *310:34 0.000171526
10 *1090:A *1092:C1 1.59689e-05
11 *1091:C *1092:C1 3.92854e-05
12 *1092:B1 *1092:C1 2.77143e-05
13 *1093:A1 *1092:C1 2.56601e-05
*RES
1 *1091:X *1092:C1 39.85 
*END

*D_NET *205 0.000674116
*CONN
*I *1093:A0 I *D sky130_fd_sc_hd__mux2_1
*I *1092:X O *D sky130_fd_sc_hd__a221o_1
*CAP
1 *1093:A0 0.000203158
2 *1092:X 0.000203158
3 *1093:A0 *332:40 0.000115467
4 *1093:A0 *332:44 0.000152333
*RES
1 *1092:X *1093:A0 31.6 
*END

*D_NET *206 0.000281429
*CONN
*I *1096:B I *D sky130_fd_sc_hd__and3_1
*I *1094:X O *D sky130_fd_sc_hd__a21o_1
*CAP
1 *1096:B 0.000102114
2 *1094:X 0.000102114
3 *1096:B *1096:C 2.01619e-05
4 *1096:B *1097:C1 5.52302e-05
5 *115:31 *1096:B 1.80815e-06
*RES
1 *1094:X *1096:B 19.9571 
*END

*D_NET *207 0.000926186
*CONN
*I *1096:C I *D sky130_fd_sc_hd__and3_1
*I *1095:Y O *D sky130_fd_sc_hd__nand3_1
*CAP
1 *1096:C 0.000159671
2 *1095:Y 0.000159671
3 *1096:C *1097:C1 4.16984e-05
4 *1094:B1 *1096:C 1.98839e-05
5 *1095:A *1096:C 9.41642e-05
6 *1095:B *1096:C 4.27437e-05
7 *1096:B *1096:C 2.01619e-05
8 *115:31 *1096:C 0.000291071
9 *116:45 *1096:C 9.71197e-05
*RES
1 *1095:Y *1096:C 23.1179 
*END

*D_NET *208 0.00106861
*CONN
*I *1097:C1 I *D sky130_fd_sc_hd__a221o_1
*I *1096:X O *D sky130_fd_sc_hd__and3_1
*CAP
1 *1097:C1 0.000272454
2 *1096:X 0.000272454
3 *1097:C1 *1097:B2 1.02504e-05
4 *1010:B *1097:C1 0.000125717
5 *1094:B1 *1097:C1 0.000182135
6 *1095:A *1097:C1 5.41794e-05
7 *1095:B *1097:C1 1.24368e-05
8 *1096:B *1097:C1 5.52302e-05
9 *1096:C *1097:C1 4.16984e-05
10 *116:45 *1097:C1 3.7086e-05
11 *150:85 *1097:C1 4.97121e-06
*RES
1 *1096:X *1097:C1 33.0464 
*END

*D_NET *209 0.000875599
*CONN
*I *1098:A0 I *D sky130_fd_sc_hd__mux2_1
*I *1097:X O *D sky130_fd_sc_hd__a221o_1
*CAP
1 *1098:A0 0.000347761
2 *1097:X 0.000347761
3 *1098:A0 *1097:A2 0.00010096
4 *1098:A0 *310:20 5.34484e-05
5 *1097:B1 *1098:A0 0
6 *1133:D *1098:A0 0
7 *118:12 *1098:A0 2.56694e-05
*RES
1 *1097:X *1098:A0 33.4393 
*END

*D_NET *210 0.000648824
*CONN
*I *1104:A2 I *D sky130_fd_sc_hd__a21o_1
*I *1099:X O *D sky130_fd_sc_hd__a21o_1
*CAP
1 *1104:A2 0.000224862
2 *1099:X 0.000224862
3 *1104:A2 *1007:A 4.46186e-06
4 *1104:A2 *1099:A2 0
5 *1104:A2 *1104:B1 5.80706e-06
6 *1104:A2 *1155:RESET_B 0
7 *1104:A2 *272:10 0
8 *1104:A2 *285:18 5.52302e-05
9 *1104:A2 *285:28 1.24368e-05
10 *1104:A2 *330:34 1.92905e-05
11 *1099:B1 *1104:A2 0.000101873
*RES
1 *1099:X *1104:A2 32.2071 
*END

*D_NET *211 0.000220702
*CONN
*I *1101:B1 I *D sky130_fd_sc_hd__a32o_1
*I *1100:Y O *D sky130_fd_sc_hd__o21ai_1
*CAP
1 *1101:B1 1.87208e-05
2 *1100:Y 1.87208e-05
3 *1101:B1 *1100:B1 1.74352e-05
4 *1101:B1 *1101:A1 0.000122424
5 *1101:B1 *1101:B2 4.34013e-05
*RES
1 *1100:Y *1101:B1 19.7518 
*END

*D_NET *212 0.00139194
*CONN
*I *1103:B1 I *D sky130_fd_sc_hd__a211o_1
*I *1101:X O *D sky130_fd_sc_hd__a32o_1
*CAP
1 *1103:B1 0.000394891
2 *1101:X 0.000394891
3 *1103:B1 *1000:A_N 5.52302e-05
4 *1103:B1 *1000:D 2.95641e-05
5 *1103:B1 *1100:B1 0.000174232
6 *1103:B1 *1103:C1 0.00015234
7 *1103:B1 *331:89 0
8 *1103:B1 *331:93 0.000186662
9 *1103:A2 *1103:B1 4.1331e-06
*RES
1 *1101:X *1103:B1 34.1893 
*END

*D_NET *213 0.00418271
*CONN
*I *1103:C1 I *D sky130_fd_sc_hd__a211o_1
*I *1107:B1 I *D sky130_fd_sc_hd__a311o_1
*I *1102:X O *D sky130_fd_sc_hd__a32o_1
*CAP
1 *1103:C1 0.000408078
2 *1107:B1 0.000466414
3 *1102:X 0.000178882
4 *213:6 0.00105337
5 *1103:C1 *992:B 0
6 *1103:C1 *1000:A_N 0.000103285
7 *1103:C1 *1102:A1 4.25523e-05
8 *1103:C1 *236:10 0
9 *1103:C1 *236:21 0
10 *1103:C1 *264:10 8.07951e-05
11 *1103:C1 *264:16 0.000125724
12 *1103:C1 *274:10 0
13 *1103:C1 *275:21 1.17968e-05
14 *1103:C1 *328:10 0.000221163
15 *1103:C1 *328:12 0.000197984
16 *1103:C1 *328:14 1.02504e-05
17 *1103:C1 *331:89 0
18 *1107:B1 *1055:A 0.000270326
19 *1107:B1 *1055:C 5.52302e-05
20 *1107:B1 *1055:D 1.55885e-05
21 *1107:B1 *1107:A1 4.72595e-05
22 *1107:B1 *1257:A 0
23 *1107:B1 *311:13 0.000255923
24 *1107:B1 *325:6 0.00014285
25 *213:6 *1257:A 0.000229456
26 *213:6 *311:13 1.5424e-05
27 *1103:B1 *1103:C1 0.00015234
28 *173:14 *1107:B1 9.80173e-05
*RES
1 *1102:X *213:6 11.8893 
2 *213:6 *1107:B1 18.925 
3 *213:6 *1103:C1 29.05 
*END

*D_NET *214 0.00164559
*CONN
*I *1104:B1 I *D sky130_fd_sc_hd__a21o_1
*I *1103:X O *D sky130_fd_sc_hd__a211o_1
*CAP
1 *1104:B1 0.000568855
2 *1103:X 0.000568855
3 *1104:B1 *1005:A_N 0.000171375
4 *1104:B1 *1006:B 5.10822e-05
5 *1104:B1 *1007:A 0
6 *1104:B1 *239:14 0
7 *1104:B1 *242:23 6.12813e-05
8 *1104:B1 *272:25 6.62868e-05
9 *1104:B1 *331:12 0
10 *1104:B1 *331:14 0
11 *1104:B1 *331:67 0.000100969
12 *1104:B1 *331:89 5.10822e-05
13 *1104:A2 *1104:B1 5.80706e-06
*RES
1 *1103:X *1104:B1 38.9036 
*END

*D_NET *215 0.000315773
*CONN
*I *1118:A2 I *D sky130_fd_sc_hd__a211o_1
*I *1105:Y O *D sky130_fd_sc_hd__nand2b_1
*CAP
1 *1118:A2 0.00012145
2 *1105:Y 0.00012145
3 *1118:A2 *1054:A 0
4 *167:25 *1118:A2 6.74815e-05
5 *173:14 *1118:A2 5.39166e-06
*RES
1 *1105:Y *1118:A2 29.7786 
*END

*D_NET *216 0.00170854
*CONN
*I *1107:C1 I *D sky130_fd_sc_hd__a311o_1
*I *1106:X O *D sky130_fd_sc_hd__and3b_1
*CAP
1 *1107:C1 0.000625876
2 *1106:X 0.000625876
3 *1107:C1 *1055:C 1.99099e-05
4 *1107:C1 *1115:A 0.000142856
5 *1107:C1 *1160:A 0
6 *1107:C1 *271:73 0
7 *1107:C1 *317:39 0.000126848
8 *1107:C1 *325:18 6.81335e-05
9 *1157:D *1107:C1 9.90431e-05
*RES
1 *1106:X *1107:C1 38.0107 
*END

*D_NET *217 0.00362363
*CONN
*I *1115:A I *D sky130_fd_sc_hd__or2_1
*I *1112:A I *D sky130_fd_sc_hd__or4b_1
*I *1107:X O *D sky130_fd_sc_hd__a311o_1
*CAP
1 *1115:A 0.000195679
2 *1112:A 0.000634674
3 *1107:X 7.77551e-05
4 *217:8 0.000908108
5 *1112:A *1112:B 4.48113e-05
6 *1112:A *1115:B 0.000840995
7 *1112:A *1118:B1 0
8 *1112:A *271:12 0
9 *1112:A *271:14 0
10 *1112:A *327:33 3.84385e-05
11 *1115:A *1115:B 0.000270243
12 *1115:A *271:73 0
13 *1115:A *317:39 3.55552e-05
14 *1050:A3 *1112:A 0
15 *1107:A3 *217:8 4.87953e-05
16 *1107:C1 *1115:A 0.000142856
17 *1114:A3 *1112:A 0.000385717
18 *139:42 *1112:A 0
19 *167:25 *1112:A 0
20 *167:25 *1115:A 0
21 *167:36 *1115:A 0
*RES
1 *1107:X *217:8 14.7464 
2 *217:8 *1112:A 30.0143 
3 *217:8 *1115:A 18.925 
*END

*D_NET *218 0.000307843
*CONN
*I *1112:B I *D sky130_fd_sc_hd__or4b_1
*I *1108:X O *D sky130_fd_sc_hd__a21o_1
*CAP
1 *1112:B 0.000131516
2 *1108:X 0.000131516
3 *1112:B *1111:A1 0
4 *1112:A *1112:B 4.48113e-05
5 *1156:D *1112:B 0
6 *139:42 *1112:B 0
*RES
1 *1108:X *1112:B 30.1536 
*END

*D_NET *219 0.00158617
*CONN
*I *1110:D I *D sky130_fd_sc_hd__and4_1
*I *1109:X O *D sky130_fd_sc_hd__or4b_1
*CAP
1 *1110:D 0.000523434
2 *1109:X 0.000523434
3 *1110:D *982:A 7.6644e-05
4 *1110:D *1022:A 2.14757e-05
5 *1110:D *1125:CLK 7.6644e-05
6 *1110:D *284:18 0.000181803
7 *1110:D *285:28 5.33005e-05
8 *1265:A *1110:D 2.65105e-05
9 *146:10 *1110:D 0.000102927
*RES
1 *1109:X *1110:D 35.0464 
*END

*D_NET *220 0.00332641
*CONN
*I *1118:B1 I *D sky130_fd_sc_hd__a211o_1
*I *1111:B1 I *D sky130_fd_sc_hd__a31o_1
*I *1110:X O *D sky130_fd_sc_hd__and4_1
*CAP
1 *1118:B1 0.000575873
2 *1111:B1 4.92482e-05
3 *1110:X 0.000238651
4 *220:10 0.000863772
5 *1111:B1 *1111:A1 2.28499e-05
6 *1111:B1 *1111:A2 1.24368e-05
7 *1111:B1 *239:44 8.90362e-05
8 *1118:B1 *1222:A 0
9 *1118:B1 *271:12 4.90803e-05
10 *1118:B1 *271:14 0.000531943
11 *1118:B1 *284:18 0
12 *220:10 *271:14 0.000170661
13 *220:10 *284:18 0
14 *220:10 *326:16 9.60875e-05
15 *220:10 *327:52 2.14658e-05
16 *1112:A *1118:B1 0
17 *167:25 *1118:B1 0.00060531
*RES
1 *1110:X *220:10 17.4071 
2 *220:10 *1111:B1 15.175 
3 *220:10 *1118:B1 28.8536 
*END

*D_NET *221 0.000507854
*CONN
*I *1112:C I *D sky130_fd_sc_hd__or4b_1
*I *1111:X O *D sky130_fd_sc_hd__a31o_1
*CAP
1 *1112:C 9.75501e-05
2 *1111:X 9.75501e-05
3 *1112:C *1111:A1 9.41642e-05
4 *1112:C *239:32 3.48705e-05
5 *1111:A3 *1112:C 5.33005e-05
6 *1114:A3 *1112:C 0.000130419
*RES
1 *1111:X *1112:C 21.1893 
*END

*D_NET *222 0.00120584
*CONN
*I *1114:B1 I *D sky130_fd_sc_hd__o31ai_1
*I *1113:X O *D sky130_fd_sc_hd__a2111o_1
*CAP
1 *1114:B1 0.00011797
2 *1113:X 0.00011797
3 *1114:B1 *1048:A 0.000399828
4 *1114:B1 *241:34 4.25809e-05
5 *1114:B1 *310:110 0.000125731
6 *167:8 *1114:B1 0.000401758
*RES
1 *1113:X *1114:B1 33.0643 
*END

*D_NET *223 0.00229092
*CONN
*I *1115:B I *D sky130_fd_sc_hd__or2_1
*I *1114:Y O *D sky130_fd_sc_hd__o31ai_1
*CAP
1 *1115:B 0.000423264
2 *1114:Y 0.000423264
3 *1115:B *271:73 0.000333155
4 *1112:A *1115:B 0.000840995
5 *1115:A *1115:B 0.000270243
6 *139:42 *1115:B 0
*RES
1 *1114:Y *1115:B 41.6893 
*END

*D_NET *224 0.00037207
*CONN
*I *1117:B1 I *D sky130_fd_sc_hd__a31o_1
*I *1116:Y O *D sky130_fd_sc_hd__nor3b_1
*CAP
1 *1117:B1 0.000132396
2 *1116:Y 0.000132396
3 *1117:B1 *1116:C_N 2.89114e-05
4 *1117:B1 *236:21 0
5 *1117:B1 *240:27 7.83659e-05
*RES
1 *1116:Y *1117:B1 29.7786 
*END

*D_NET *225 0.00373822
*CONN
*I *1118:C1 I *D sky130_fd_sc_hd__a211o_1
*I *1117:X O *D sky130_fd_sc_hd__a31o_1
*CAP
1 *1118:C1 0.000855168
2 *1117:X 0.000855168
3 *1118:C1 *999:A 0.000137983
4 *1118:C1 *1013:A2_N 9.71197e-05
5 *1118:C1 *1013:B2 9.71197e-05
6 *1118:C1 *1102:A2 1.74352e-05
7 *1118:C1 *1102:A3 8.07313e-05
8 *1118:C1 *1102:B1 1.43404e-05
9 *1118:C1 *1107:A2 0.000224583
10 *1118:C1 *1118:A1 0.0003729
11 *1118:C1 *1205:A 5.52302e-05
12 *1118:C1 *1257:A 2.24763e-05
13 *1118:C1 *264:16 0.000613226
14 *1118:C1 *274:10 0.000100831
15 *1118:C1 *311:13 6.81904e-05
16 *1118:C1 *320:6 5.81579e-05
17 *1118:C1 *320:18 6.75605e-05
*RES
1 *1117:X *1118:C1 46.4571 
*END

*D_NET *226 0.00705291
*CONN
*I *1047:A I *D sky130_fd_sc_hd__and3_2
*I *996:A I *D sky130_fd_sc_hd__nor2_1
*I *1084:D1 I *D sky130_fd_sc_hd__o2111a_1
*I *1111:A1 I *D sky130_fd_sc_hd__a31o_1
*I *982:Y O *D sky130_fd_sc_hd__inv_2
*CAP
1 *1047:A 0.000334564
2 *996:A 9.06313e-05
3 *1084:D1 0.000364222
4 *1111:A1 0.000381588
5 *982:Y 0
6 *226:40 0.00124449
7 *226:23 0.00122413
8 *226:4 0.000422201
9 *996:A *1155:CLK 0.000199706
10 *996:A *239:14 2.78729e-05
11 *996:A *254:10 0.000102806
12 *1047:A *1003:A 0.000170654
13 *1047:A *1047:B 0.000107404
14 *1047:A *1047:C 2.59355e-05
15 *1047:A *239:14 4.53031e-05
16 *1047:A *254:10 0.000143147
17 *1047:A *254:23 6.53968e-05
18 *1047:A *275:21 0.00042384
19 *1084:D1 *1084:B1 3.18676e-05
20 *1084:D1 *1125:CLK 0
21 *1084:D1 *1156:RESET_B 0
22 *1084:D1 *1203:A 0.00015234
23 *1111:A1 *982:A 3.18676e-05
24 *1111:A1 *1111:A2 9.41642e-05
25 *1111:A1 *1156:RESET_B 0
26 *226:23 *982:A 2.14658e-05
27 *226:40 *1023:A2 0.000146523
28 *226:40 *1099:A2 4.30382e-05
29 *226:40 *323:10 0.000264087
30 *1084:C1 *1084:D1 0.000229667
31 *1084:C1 *226:40 2.95726e-05
32 *1103:A2 *1047:A 5.33005e-05
33 *1111:A3 *1111:A1 1.38323e-05
34 *1111:B1 *1111:A1 2.28499e-05
35 *1112:B *1111:A1 0
36 *1112:C *1111:A1 9.41642e-05
37 *1156:D *1111:A1 8.00806e-05
38 *139:44 *1084:D1 5.52302e-05
39 *146:16 *1084:D1 2.47093e-05
40 *146:16 *1111:A1 0.000290271
*RES
1 *982:Y *226:4 9.3 
2 *226:4 *1111:A1 25.6214 
3 *226:4 *226:23 0.535714 
4 *226:23 *1084:D1 27.1571 
5 *226:23 *226:40 15.3036 
6 *226:40 *996:A 17.2643 
7 *226:40 *1047:A 23.8714 
*END

*D_NET *227 0.00166874
*CONN
*I *1047:B I *D sky130_fd_sc_hd__and3_2
*I *1113:D1 I *D sky130_fd_sc_hd__a2111o_1
*I *983:Y O *D sky130_fd_sc_hd__inv_2
*CAP
1 *1047:B 0.000120394
2 *1113:D1 0.000150345
3 *983:Y 2.35103e-05
4 *227:6 0.00029425
5 *1047:B *254:23 0.00013053
6 *1047:B *275:21 8.33655e-05
7 *1113:D1 *1002:A 1.38323e-05
8 *1113:D1 *1103:A1 5.03772e-05
9 *1113:D1 *1113:A1 9.60939e-05
10 *1113:D1 *1113:B1 5.33005e-05
11 *1113:D1 *1113:C1 2.59355e-05
12 *1113:D1 *228:8 5.52302e-05
13 *1113:D1 *272:25 0.000214198
14 *1113:D1 *327:33 5.33005e-05
15 *227:6 *1103:A1 4.43256e-05
16 *227:6 *272:25 9.71197e-05
17 *1047:A *1047:B 0.000107404
18 *1113:A2 *1113:D1 5.52302e-05
*RES
1 *983:Y *227:6 10.2464 
2 *227:6 *1113:D1 13.5321 
3 *227:6 *1047:B 21.7643 
*END

*D_NET *228 0.00557151
*CONN
*I *1107:A1 I *D sky130_fd_sc_hd__a311o_1
*I *1013:B2 I *D sky130_fd_sc_hd__a2bb2o_4
*I *1048:A I *D sky130_fd_sc_hd__nand2_1
*I *984:Y O *D sky130_fd_sc_hd__inv_2
*CAP
1 *1107:A1 0.000555667
2 *1013:B2 2.38696e-05
3 *1048:A 0.00068817
4 *984:Y 2.52056e-05
5 *228:23 0.000836144
6 *228:8 0.000969984
7 *1013:B2 *320:6 5.52238e-05
8 *1013:B2 *320:18 2.14757e-05
9 *1048:A *254:23 7.92975e-05
10 *1048:A *273:21 0
11 *1107:A1 *999:A 9.60939e-05
12 *1107:A1 *1055:A 4.69963e-05
13 *1107:A1 *1055:D 9.60875e-05
14 *1107:A1 *1205:A 9.25014e-06
15 *1107:A1 *1206:A 1.98839e-05
16 *1107:A1 *274:10 3.4323e-05
17 *228:23 *1002:A 0.000310321
18 *228:23 *1002:B 0.000335215
19 *228:23 *1205:A 7.90803e-05
20 *228:23 *254:23 4.46186e-06
21 *228:23 *274:10 4.56494e-05
22 *1050:B1 *1048:A 0
23 *1107:B1 *1107:A1 4.72595e-05
24 *1113:A2 *1048:A 4.46186e-06
25 *1113:A2 *1107:A1 5.41797e-05
26 *1113:A2 *228:23 0.000125514
27 *1113:D1 *228:8 5.52302e-05
28 *1114:A3 *1048:A 5.33005e-05
29 *1114:B1 *1048:A 0.000399828
30 *1118:C1 *1013:B2 9.71197e-05
31 *167:8 *1048:A 0.000388181
32 *167:17 *1048:A 5.7661e-06
33 *173:14 *1107:A1 8.27184e-06
*RES
1 *984:Y *228:8 14.3357 
2 *228:8 *1048:A 27.3893 
3 *228:8 *228:23 7.71429 
4 *228:23 *1013:B2 14.7464 
5 *228:23 *1107:A1 21.7464 
*END

*D_NET *229 0.000768553
*CONN
*I *1084:A2 I *D sky130_fd_sc_hd__o2111a_1
*I *985:Y O *D sky130_fd_sc_hd__inv_2
*CAP
1 *1084:A2 0.000209834
2 *985:Y 0.000209834
3 *1084:A2 *1014:A1 1.00073e-05
4 *1084:A2 *1014:A2 0.00010096
5 *139:42 *1084:A2 5.52238e-05
6 *139:44 *1084:A2 0.000182694
*RES
1 *985:Y *1084:A2 22.4214 
*END

*D_NET *230 0.00038071
*CONN
*I *1083:A1_N I *D sky130_fd_sc_hd__o2bb2a_1
*I *986:Y O *D sky130_fd_sc_hd__inv_2
*CAP
1 *1083:A1_N 0.000115162
2 *986:Y 0.000115162
3 *1083:A1_N *320:41 0
4 *1045:B2 *1083:A1_N 1.78353e-05
5 *1130:D *1083:A1_N 7.0493e-05
6 *163:6 *1083:A1_N 6.20574e-05
*RES
1 *986:Y *1083:A1_N 30.3366 
*END

*D_NET *231 0.00161012
*CONN
*I *1053:A1 I *D sky130_fd_sc_hd__o21bai_1
*I *987:Y O *D sky130_fd_sc_hd__inv_2
*CAP
1 *1053:A1 0.000438616
2 *987:Y 0.000438616
3 *1053:A1 *1140:D 7.83366e-05
4 *1053:A1 *1160:A 0.000150625
5 *1053:A1 *347:16 0.000503924
*RES
1 *987:Y *1053:A1 38.2964 
*END

*D_NET *232 0.000538321
*CONN
*I *1102:A1 I *D sky130_fd_sc_hd__a32o_1
*I *988:Y O *D sky130_fd_sc_hd__inv_2
*CAP
1 *1102:A1 0.000236463
2 *988:Y 0.000236463
3 *1102:A1 *1117:A1 0
4 *1102:A1 *236:21 0
5 *1102:A1 *264:10 2.28428e-05
6 *1103:C1 *1102:A1 4.25523e-05
*RES
1 *988:Y *1102:A1 30.9036 
*END

*D_NET *233 0.00371356
*CONN
*I *1060:B2 I *D sky130_fd_sc_hd__a221o_1
*I *1028:A1 I *D sky130_fd_sc_hd__a21o_1
*I *989:Y O *D sky130_fd_sc_hd__inv_2
*CAP
1 *1060:B2 0.000419013
2 *1028:A1 0.000628435
3 *989:Y 0.000330957
4 *233:10 0.0013784
5 *1028:A1 *1031:A 9.83388e-05
6 *1028:A1 *1070:A 1.50171e-05
7 *1028:A1 *252:14 0
8 *1060:B2 *320:41 0
9 *233:10 *1076:A2 6.05161e-06
10 *1028:A2 *1028:A1 5.65955e-05
11 *1028:B1 *1028:A1 2.90487e-05
12 *1037:A *233:10 1.32552e-05
13 *1037:B *233:10 3.28169e-06
14 *1040:B2 *1028:A1 0.000478359
15 *1040:B2 *233:10 4.72217e-05
16 *1077:A0 *233:10 2.50802e-06
17 *155:18 *233:10 2.1768e-05
18 *159:12 *233:10 0.000185301
*RES
1 *989:Y *233:10 18.55 
2 *233:10 *1028:A1 27.7464 
3 *233:10 *1060:B2 19.8223 
*END

*D_NET *234 0.00113986
*CONN
*I *1060:A1 I *D sky130_fd_sc_hd__a221o_1
*I *990:Y O *D sky130_fd_sc_hd__inv_2
*CAP
1 *1060:A1 0.000328692
2 *990:Y 0.000328692
3 *1060:A1 *320:41 0.000126439
4 *1060:C1 *1060:A1 0
5 *1068:B1 *1060:A1 0
6 *163:6 *1060:A1 0.000356035
*RES
1 *990:Y *1060:A1 32.9571 
*END

*D_NET *235 0.000489092
*CONN
*I *1078:A I *D sky130_fd_sc_hd__nand2_1
*I *1079:A I *D sky130_fd_sc_hd__or2_1
*I *991:Y O *D sky130_fd_sc_hd__inv_2
*CAP
1 *1078:A 6.5187e-05
2 *1079:A 0
3 *991:Y 7.83991e-05
4 *235:10 0.000143586
5 *1045:B2 *235:10 0
6 *1079:B *1078:A 5.71472e-05
7 *1081:A2 *1078:A 0.000144773
8 *186:12 *1078:A 0
*RES
1 *991:Y *235:10 19.6393 
2 *235:10 *1079:A 9.3 
3 *235:10 *1078:A 11.0857 
*END

*D_NET *236 0.00188558
*CONN
*I *1117:A2 I *D sky130_fd_sc_hd__a31o_1
*I *1102:A2 I *D sky130_fd_sc_hd__a32o_1
*I *1116:A I *D sky130_fd_sc_hd__nor3b_1
*I *992:X O *D sky130_fd_sc_hd__and2_1
*CAP
1 *1117:A2 2.60415e-05
2 *1102:A2 4.93523e-05
3 *1116:A 0
4 *992:X 0.000245255
5 *236:21 0.000216435
6 *236:10 0.000386296
7 *1102:A2 *1102:A3 0.000186662
8 *1102:A2 *1102:B1 1.97695e-05
9 *1102:A2 *1257:A 0.000236241
10 *1102:A2 *240:27 0
11 *1117:A2 *1102:A3 4.27935e-05
12 *1117:A2 *1257:A 5.52302e-05
13 *1117:A2 *240:27 2.44318e-05
14 *236:10 *993:B 0.000276211
15 *236:10 *1101:A2 2.8266e-06
16 *236:10 *240:27 4.29179e-05
17 *236:21 *1117:A1 2.8266e-06
18 *236:21 *240:27 5.48581e-05
19 *1102:A1 *236:21 0
20 *1103:C1 *236:10 0
21 *1103:C1 *236:21 0
22 *1117:B1 *236:21 0
23 *1118:C1 *1102:A2 1.74352e-05
*RES
1 *992:X *236:10 18.0321 
2 *236:10 *1116:A 13.8 
3 *236:10 *236:21 7.35714 
4 *236:21 *1102:A2 11.9071 
5 *236:21 *1117:A2 10.2464 
*END

*D_NET *237 0.0016038
*CONN
*I *1116:C_N I *D sky130_fd_sc_hd__nor3b_1
*I *1101:B2 I *D sky130_fd_sc_hd__a32o_1
*I *993:X O *D sky130_fd_sc_hd__and2b_1
*CAP
1 *1116:C_N 0.000313772
2 *1101:B2 0.000216142
3 *993:X 0
4 *237:6 0.000529914
5 *1101:B2 *997:A_N 9.0143e-05
6 *1101:B2 *1100:B1 0.00010096
7 *1101:B2 *1101:A1 6.06291e-06
8 *1101:B2 *1116:B 1.8171e-06
9 *1101:B2 *327:101 4.46186e-06
10 *1101:B2 *330:75 0
11 *1101:B2 *330:88 0
12 *1116:C_N *1116:B 0.000268211
13 *1101:B1 *1101:B2 4.34013e-05
14 *1117:B1 *1116:C_N 2.89114e-05
*RES
1 *993:X *237:6 13.8 
2 *237:6 *1101:B2 18.2107 
3 *237:6 *1116:C_N 19.9786 
*END

*D_NET *238 0.00501318
*CONN
*I *1207:A I *D sky130_fd_sc_hd__buf_2
*I *1008:A I *D sky130_fd_sc_hd__or2_1
*I *994:X O *D sky130_fd_sc_hd__and3b_1
*CAP
1 *1207:A 0.000889529
2 *1008:A 0.000197237
3 *994:X 3.92213e-05
4 *238:8 0.00112599
5 *1008:A *1007:B 0.000175519
6 *1008:A *272:10 0.000251085
7 *1008:A *285:18 0.00018372
8 *1008:A *330:34 2.16719e-05
9 *1008:A *330:45 5.00869e-05
10 *1207:A *995:A_N 5.33005e-05
11 *1207:A *995:C 5.52302e-05
12 *1207:A *1108:A1 0.000656826
13 *1207:A *1108:A2 9.60875e-05
14 *1207:A *272:10 4.78056e-05
15 *1207:A *330:45 6.81083e-05
16 *1207:A *330:51 5.33005e-05
17 *1207:A *330:116 0.000202094
18 *238:8 *994:A_N 5.52302e-05
19 *1008:B *1008:A 5.17614e-05
20 *169:16 *1207:A 0.000739381
*RES
1 *994:X *238:8 14.3357 
2 *238:8 *1008:A 19.6929 
3 *238:8 *1207:A 34.175 
*END

*D_NET *239 0.0141361
*CONN
*I *1114:A2 I *D sky130_fd_sc_hd__o31ai_1
*I *1027:A2_N I *D sky130_fd_sc_hd__a2bb2o_1
*I *1039:B1 I *D sky130_fd_sc_hd__a21oi_1
*I *1086:B I *D sky130_fd_sc_hd__nor2_1
*I *1023:A1 I *D sky130_fd_sc_hd__o211a_4
*I *996:B I *D sky130_fd_sc_hd__nor2_1
*I *995:Y O *D sky130_fd_sc_hd__nand3b_4
*CAP
1 *1114:A2 0.000124133
2 *1027:A2_N 7.49457e-05
3 *1039:B1 0.000177779
4 *1086:B 0.000396918
5 *1023:A1 0.000129044
6 *996:B 0
7 *995:Y 0.000101143
8 *239:46 0.00068641
9 *239:44 0.00230248
10 *239:32 0.0032071
11 *239:14 0.000546311
12 *239:8 0.00148556
13 *1023:A1 *309:6 2.14757e-05
14 *1027:A2_N *253:8 0.000140933
15 *1027:A2_N *320:72 5.41794e-05
16 *1039:B1 *1040:A2 5.33005e-05
17 *1086:B *1040:A2 3.17148e-05
18 *1086:B *1199:A 0
19 *1086:B *268:10 0
20 *1086:B *332:24 0.000387122
21 *1086:B *332:36 0.00012798
22 *1086:B *332:38 7.17836e-05
23 *1086:B *334:34 2.34204e-05
24 *1114:A2 *327:37 9.64602e-05
25 *239:8 *328:16 5.59013e-05
26 *239:8 *328:20 0.000114759
27 *239:8 *331:12 0
28 *239:8 *331:14 0
29 *239:14 *1003:A 8.359e-05
30 *239:14 *1003:C 5.94737e-05
31 *239:14 *1003:D_N 0
32 *239:14 *1155:CLK 0.000105591
33 *239:14 *1155:RESET_B 0
34 *239:14 *275:21 2.49484e-05
35 *239:14 *309:6 5.71472e-05
36 *239:14 *328:20 3.17148e-05
37 *239:32 *998:A 9.40156e-05
38 *239:32 *998:C_N 0.000265447
39 *239:32 *1112:D_N 0.000123719
40 *239:32 *241:8 1.92789e-05
41 *239:32 *328:31 5.33005e-05
42 *239:44 *1111:A2 8.43535e-06
43 *239:44 *253:8 0.000824262
44 *239:46 *1040:A2 0.000195081
45 *239:46 *281:20 5.37664e-05
46 *239:46 *320:72 9.25054e-05
47 *239:46 *332:24 6.80581e-05
48 *996:A *239:14 2.78729e-05
49 *1029:S *1027:A2_N 0.000130586
50 *1029:S *239:44 0.000113073
51 *1040:B2 *1027:A2_N 1.46624e-05
52 *1040:B2 *239:46 3.2231e-05
53 *1040:C1 *1039:B1 0.000166485
54 *1041:A1 *1086:B 0.000271958
55 *1046:A1 *239:44 5.33334e-05
56 *1047:A *239:14 4.53031e-05
57 *1050:A3 *1114:A2 3.28686e-05
58 *1104:B1 *239:14 0
59 *1111:A3 *239:44 6.57032e-05
60 *1111:B1 *239:44 8.90362e-05
61 *1112:C *239:32 3.48705e-05
62 *1114:A3 *1114:A2 0.000270943
63 *1114:A3 *239:32 2.14658e-05
64 *1114:A3 *239:44 5.33433e-05
65 *1124:D *239:44 3.79711e-05
66 *1155:D *239:14 0.000103253
67 *150:29 *1086:B 0
*RES
1 *995:Y *239:8 16.05 
2 *239:8 *239:14 13.3571 
3 *239:14 *996:B 9.3 
4 *239:14 *1023:A1 11.4964 
5 *239:8 *239:32 16.9464 
6 *239:32 *239:44 32.9286 
7 *239:44 *239:46 3.76786 
8 *239:46 *1086:B 24.6036 
9 *239:46 *1039:B1 17.2107 
10 *239:44 *1027:A2_N 16.3179 
11 *239:32 *1114:A2 22.0946 
*END

*D_NET *240 0.00182096
*CONN
*I *1117:A3 I *D sky130_fd_sc_hd__a31o_1
*I *1102:A3 I *D sky130_fd_sc_hd__a32o_1
*I *1101:A2 I *D sky130_fd_sc_hd__a32o_1
*I *997:X O *D sky130_fd_sc_hd__and2b_1
*CAP
1 *1117:A3 0
2 *1102:A3 5.41513e-05
3 *1101:A2 0.000233124
4 *997:X 0
5 *240:27 0.000277507
6 *240:6 0.000456479
7 *1101:A2 *992:B 0
8 *1101:A2 *1101:A3 5.52302e-05
9 *1101:A2 *1116:B 0.000114121
10 *1101:A2 *327:97 6.87476e-05
11 *240:27 *1116:B 4.80163e-05
12 *1102:A2 *1102:A3 0.000186662
13 *1102:A2 *240:27 0
14 *1117:A2 *1102:A3 4.27935e-05
15 *1117:A2 *240:27 2.44318e-05
16 *1117:B1 *240:27 7.83659e-05
17 *1118:C1 *1102:A3 8.07313e-05
18 *236:10 *1101:A2 2.8266e-06
19 *236:10 *240:27 4.29179e-05
20 *236:21 *240:27 5.48581e-05
*RES
1 *997:X *240:6 13.8 
2 *240:6 *1101:A2 18.425 
3 *240:6 *240:27 9.76786 
4 *240:27 *1102:A3 11.4786 
5 *240:27 *1117:A3 9.3 
*END

*D_NET *241 0.00545883
*CONN
*I *999:A I *D sky130_fd_sc_hd__inv_2
*I *1013:A2_N I *D sky130_fd_sc_hd__a2bb2o_4
*I *1023:C1 I *D sky130_fd_sc_hd__o211a_4
*I *1014:A1 I *D sky130_fd_sc_hd__a21o_1
*I *998:X O *D sky130_fd_sc_hd__or4bb_4
*CAP
1 *999:A 0.000144523
2 *1013:A2_N 2.63024e-05
3 *1023:C1 8.61506e-05
4 *1014:A1 0.000458793
5 *998:X 1.55834e-05
6 *241:34 0.000798781
7 *241:10 0.000934993
8 *241:8 0.00103359
9 *999:A *1055:A 2.28598e-05
10 *999:A *1206:A 5.33005e-05
11 *999:A *315:10 0.00014576
12 *999:A *320:18 6.71854e-05
13 *1013:A2_N *320:18 5.03772e-05
14 *1014:A1 *985:A 6.05161e-06
15 *1014:A1 *1014:A2 5.04589e-05
16 *1014:A1 *243:12 0
17 *1014:A1 *243:16 0
18 *1014:A1 *310:95 0
19 *241:8 *1112:D_N 5.52238e-05
20 *241:10 *1210:A 4.81157e-05
21 *241:10 *243:10 0
22 *241:10 *243:12 0
23 *241:10 *254:10 0
24 *241:10 *273:21 5.84171e-05
25 *241:10 *310:95 0
26 *241:34 *1055:D 4.02462e-05
27 *241:34 *273:21 0.000296066
28 *241:34 *310:95 0
29 *241:34 *310:110 0
30 *241:34 *315:10 0.000118189
31 *241:34 *317:10 3.75052e-05
32 *241:34 *327:19 0.000115474
33 *241:34 *327:23 0.000247778
34 *1084:A2 *1014:A1 1.00073e-05
35 *1107:A1 *999:A 9.60939e-05
36 *1113:A2 *999:A 0.000144038
37 *1114:B1 *241:34 4.25809e-05
38 *1118:C1 *999:A 0.000137983
39 *1118:C1 *1013:A2_N 9.71197e-05
40 *239:32 *241:8 1.92789e-05
*RES
1 *998:X *241:8 14.3357 
2 *241:8 *241:10 7.41071 
3 *241:10 *1014:A1 21.1571 
4 *241:10 *1023:C1 15.1571 
5 *241:8 *241:34 19.5 
6 *241:34 *1013:A2_N 10.2464 
7 *241:34 *999:A 22.9786 
*END

*D_NET *242 0.0038298
*CONN
*I *1116:B I *D sky130_fd_sc_hd__nor3b_1
*I *1101:A3 I *D sky130_fd_sc_hd__a32o_1
*I *1047:C I *D sky130_fd_sc_hd__and3_2
*I *1001:Y O *D sky130_fd_sc_hd__nor2_1
*CAP
1 *1116:B 0.000354757
2 *1101:A3 1.16062e-05
3 *1047:C 0.000389361
4 *1001:Y 0.000136654
5 *242:23 0.000614372
6 *242:6 0.000774024
7 *1047:C *1005:A_N 5.33005e-05
8 *1047:C *1005:B_N 0.000265726
9 *1047:C *331:71 4.30317e-05
10 *1101:A3 *327:97 5.52302e-05
11 *1116:B *997:A_N 7.83366e-05
12 *242:6 *1001:B 4.72818e-05
13 *242:6 *1005:C 5.52302e-05
14 *242:6 *312:8 5.52302e-05
15 *242:6 *331:71 1.74795e-05
16 *242:23 *997:A_N 1.08359e-05
17 *242:23 *1005:A_N 4.46186e-06
18 *242:23 *1005:C 1.24469e-05
19 *242:23 *1007:A 2.09897e-05
20 *242:23 *327:101 0.0002005
21 *242:23 *331:89 0
22 *1047:A *1047:C 2.59355e-05
23 *1101:A2 *1101:A3 5.52302e-05
24 *1101:A2 *1116:B 0.000114121
25 *1101:B2 *1116:B 1.8171e-06
26 *1103:A2 *1047:C 2.05612e-05
27 *1104:B1 *242:23 6.12813e-05
28 *1116:C_N *1116:B 0.000268211
29 *167:8 *1047:C 3.37729e-05
30 *240:27 *1116:B 4.80163e-05
*RES
1 *1001:Y *242:6 11.8893 
2 *242:6 *1047:C 17.6929 
3 *242:6 *242:23 10.0893 
4 *242:23 *1101:A3 14.3357 
5 *242:23 *1116:B 21.3179 
*END

*D_NET *243 0.00405499
*CONN
*I *1023:B1 I *D sky130_fd_sc_hd__o211a_4
*I *1014:A2 I *D sky130_fd_sc_hd__a21o_1
*I *1264:A I *D sky130_fd_sc_hd__dlygate4sd1_1
*I *1004:A I *D sky130_fd_sc_hd__inv_2
*I *1003:X O *D sky130_fd_sc_hd__or4b_4
*CAP
1 *1023:B1 0
2 *1014:A2 0.000123638
3 *1264:A 6.02509e-05
4 *1004:A 8.39273e-05
5 *1003:X 0.000296191
6 *243:16 0.000664105
7 *243:12 0.000936141
8 *243:10 0.000588768
9 *1004:A *1015:S 4.43256e-05
10 *1004:A *1017:S 5.33334e-05
11 *1014:A2 *985:A 0.000184745
12 *1264:A *1015:S 7.48091e-05
13 *243:10 *998:D_N 3.14078e-05
14 *243:10 *1023:A2 7.26935e-05
15 *243:10 *1210:A 9.90431e-05
16 *243:10 *254:10 0
17 *243:10 *285:28 0.000313241
18 *243:10 *330:19 4.70078e-05
19 *243:12 *1023:A2 1.41706e-05
20 *243:12 *254:10 0
21 *243:16 *985:A 0
22 *243:16 *1015:S 1.97381e-05
23 *243:16 *1018:A1 0
24 *243:16 *265:8 0
25 *243:16 *310:95 0
26 *243:16 *333:34 0
27 *1014:A1 *1014:A2 5.04589e-05
28 *1014:A1 *243:12 0
29 *1014:A1 *243:16 0
30 *1014:B1 *1014:A2 1.3701e-05
31 *1016:A0 *243:16 0.000182329
32 *1084:A2 *1014:A2 0.00010096
33 *241:10 *243:10 0
34 *241:10 *243:12 0
*RES
1 *1003:X *243:10 21.175 
2 *243:10 *243:12 4.98214 
3 *243:12 *243:16 14.6429 
4 *243:16 *1004:A 11.0679 
5 *243:16 *1264:A 10.6571 
6 *243:12 *1014:A2 17.2286 
7 *243:10 *1023:B1 13.8 
*END

*D_NET *244 0.00377029
*CONN
*I *1007:B I *D sky130_fd_sc_hd__nor2_1
*I *1112:D_N I *D sky130_fd_sc_hd__or4b_1
*I *1006:X O *D sky130_fd_sc_hd__or3b_1
*CAP
1 *1007:B 0.000177091
2 *1112:D_N 0.00051586
3 *1006:X 0
4 *244:4 0.000692951
5 *1007:B *994:B 0.000180764
6 *1007:B *1006:B 8.66063e-05
7 *1007:B *1007:A 4.13477e-05
8 *1007:B *330:34 0.000101545
9 *1007:B *331:40 4.59075e-05
10 *1112:D_N *998:A 0.000481575
11 *1112:D_N *998:B 0.000780462
12 *1112:D_N *998:C_N 1.56e-05
13 *1112:D_N *1006:B 9.71197e-05
14 *1112:D_N *328:31 6.09804e-05
15 *1112:D_N *328:44 4.33174e-05
16 *1112:D_N *331:40 9.47028e-05
17 *1008:A *1007:B 0.000175519
18 *239:32 *1112:D_N 0.000123719
19 *241:8 *1112:D_N 5.52238e-05
*RES
1 *1006:X *244:4 9.3 
2 *244:4 *1112:D_N 23.8357 
3 *244:4 *1007:B 23.1393 
*END

*D_NET *245 0.000902675
*CONN
*I *1087:A1 I *D sky130_fd_sc_hd__a221o_1
*I *1137:Q O *D sky130_fd_sc_hd__dfrtp_1
*CAP
1 *1087:A1 0.000302437
2 *1137:Q 0.000302437
3 *1087:A1 *1087:B2 1.13883e-05
4 *1087:A1 *334:34 1.45433e-05
5 *1087:C1 *1087:A1 0.000182592
6 *150:12 *1087:A1 7.92444e-05
7 *150:29 *1087:A1 1.00332e-05
*RES
1 *1137:Q *1087:A1 32.0464 
*END

*D_NET *246 0.000229724
*CONN
*I *1092:A1 I *D sky130_fd_sc_hd__a221o_1
*I *1138:Q O *D sky130_fd_sc_hd__dfrtp_1
*CAP
1 *1092:A1 6.35892e-05
2 *1138:Q 6.35892e-05
3 *1092:A1 *1256:A 0.000102545
*RES
1 *1138:Q *1092:A1 28.9393 
*END

*D_NET *247 0.00102879
*CONN
*I *1097:A1 I *D sky130_fd_sc_hd__a221o_1
*I *1139:Q O *D sky130_fd_sc_hd__dfrtp_1
*CAP
1 *1097:A1 0.000454703
2 *1139:Q 0.000454703
3 *1097:A1 *1097:B2 6.8646e-06
4 *1097:A1 *1122:RESET_B 0
5 *1097:A1 *1251:A 2.56601e-05
6 *1097:A1 *1252:A 0
7 *1011:A *1097:A1 8.68569e-05
8 *1012:B *1097:A1 0
*RES
1 *1139:Q *1097:A1 34.5643 
*END

*D_NET *248 0.00055372
*CONN
*I *1015:A0 I *D sky130_fd_sc_hd__mux2_1
*I *1145:Q O *D sky130_fd_sc_hd__dfrtp_1
*CAP
1 *1015:A0 0.000172996
2 *1145:Q 0.000172996
3 *1015:A0 *1015:A1 0.00012401
4 *1015:A0 *1015:S 1.31516e-05
5 *1015:A0 *1017:A0 0
6 *1015:A0 *1144:CLK 5.17614e-05
7 *1016:A0 *1015:A0 1.88048e-05
*RES
1 *1145:Q *1015:A0 30.4929 
*END

*D_NET *249 0.00109083
*CONN
*I *1017:A0 I *D sky130_fd_sc_hd__mux2_1
*I *1146:Q O *D sky130_fd_sc_hd__dfrtp_1
*CAP
1 *1017:A0 0.00035807
2 *1146:Q 0.00035807
3 *1017:A0 *1144:CLK 0.000102207
4 *1017:A0 *270:60 3.18676e-05
5 *1017:A0 *270:67 0.000102197
6 *1017:A0 *310:20 8.08022e-05
7 *1015:A0 *1017:A0 0
8 *1018:A0 *1017:A0 5.7616e-05
*RES
1 *1146:Q *1017:A0 33.3679 
*END

*D_NET *250 0.00516329
*CONN
*I *990:A I *D sky130_fd_sc_hd__inv_2
*I *1062:A I *D sky130_fd_sc_hd__or2_1
*I *1063:A I *D sky130_fd_sc_hd__nand2_1
*I *1071:A1 I *D sky130_fd_sc_hd__a21o_1
*I *1070:A I *D sky130_fd_sc_hd__nand3_1
*I *1027:B2 I *D sky130_fd_sc_hd__a2bb2o_1
*I *1151:Q O *D sky130_fd_sc_hd__dfrtp_1
*CAP
1 *990:A 4.02745e-05
2 *1062:A 7.82491e-05
3 *1063:A 0.000263708
4 *1071:A1 0
5 *1070:A 0.000108542
6 *1027:B2 0.000170586
7 *1151:Q 0.000511023
8 *250:58 0.000319567
9 *250:25 0.000262504
10 *250:23 0.000417671
11 *250:21 0.00024133
12 *250:8 0.000721896
13 *1027:B2 *320:68 0.000143044
14 *1027:B2 *320:70 7.99213e-05
15 *1062:A *1062:B 0.000136951
16 *1063:A *1063:B 4.52e-05
17 *1063:A *1072:A 5.52238e-05
18 *1070:A *251:25 1.62621e-05
19 *1070:A *251:32 5.47047e-05
20 *1070:A *251:45 4.30071e-05
21 *250:21 *320:68 3.25078e-05
22 *250:25 *251:45 0.000154908
23 *250:58 *1062:B 0.000360816
24 *250:58 *320:64 9.88232e-05
25 *250:58 *320:68 3.17148e-05
26 *1028:A1 *1070:A 1.50171e-05
27 *1029:S *1027:B2 5.71472e-05
28 *1033:B2 *250:58 6.53781e-05
29 *1040:B2 *1027:B2 0.000222965
30 *1040:B2 *250:21 3.25078e-05
31 *1040:B2 *250:58 1.09026e-05
32 *1064:B *990:A 4.72917e-05
33 *1064:B *1062:A 9.41642e-05
34 *1072:C *1063:A 7.99507e-05
35 *1072:C *250:25 5.52238e-05
36 *1079:B *1063:A 0
37 *163:6 *990:A 5.62995e-05
38 *163:6 *1062:A 8.43535e-06
39 *186:12 *1063:A 2.95726e-05
*RES
1 *1151:Q *250:8 19.2643 
2 *250:8 *1027:B2 19.6214 
3 *250:8 *250:21 1.03571 
4 *250:21 *250:23 4.5 
5 *250:23 *250:25 2.17857 
6 *250:25 *1070:A 19.9786 
7 *250:25 *1071:A1 9.3 
8 *250:23 *1063:A 13.0321 
9 *250:21 *250:58 10.3214 
10 *250:58 *1062:A 11.0679 
11 *250:58 *990:A 10.675 
*END

*D_NET *251 0.00550691
*CONN
*I *1063:B I *D sky130_fd_sc_hd__nand2_1
*I *1062:B I *D sky130_fd_sc_hd__or2_1
*I *1071:A2 I *D sky130_fd_sc_hd__a21o_1
*I *1070:B I *D sky130_fd_sc_hd__nand3_1
*I *1031:A I *D sky130_fd_sc_hd__and2_1
*I *1152:Q O *D sky130_fd_sc_hd__dfrtp_1
*CAP
1 *1063:B 6.32953e-05
2 *1062:B 0.000231193
3 *1071:A2 1.69201e-05
4 *1070:B 0
5 *1031:A 0.000360882
6 *1152:Q 0.000575042
7 *251:45 0.00037723
8 *251:32 0.000131809
9 *251:25 0.000236027
10 *251:6 0.0011398
11 *1031:A *1031:B 2.89114e-05
12 *1031:A *1215:A 3.69047e-06
13 *1063:B *1072:A 5.33005e-05
14 *1071:A2 *1071:B1 3.41517e-06
15 *251:6 *1215:A 7.73814e-05
16 *251:6 *335:6 9.68208e-05
17 *251:25 *1071:B1 2.84109e-05
18 *251:25 *252:14 0.000154114
19 *251:32 *1071:B1 5.07619e-05
20 *251:45 *1071:B1 8.53499e-05
21 *1028:A1 *1031:A 9.83388e-05
22 *1028:A2 *1031:A 2.12005e-05
23 *1028:B1 *1031:A 3.18747e-05
24 *1040:B2 *1062:B 3.67548e-05
25 *1062:A *1062:B 0.000136951
26 *1063:A *1063:B 4.52e-05
27 *1070:A *251:25 1.62621e-05
28 *1070:A *251:32 5.47047e-05
29 *1070:A *251:45 4.30071e-05
30 *1072:C *1063:B 6.85397e-05
31 *1072:C *251:45 5.71472e-05
32 *1076:B1 *1062:B 0.00031345
33 *163:6 *1062:B 0.000112496
34 *186:6 *1063:B 4.13595e-05
35 *186:6 *251:45 6.06593e-05
36 *186:12 *1063:B 0.000138881
37 *250:25 *251:45 0.000154908
38 *250:58 *1062:B 0.000360816
*RES
1 *1152:Q *251:6 16.8179 
2 *251:6 *1031:A 15.2107 
3 *251:6 *251:25 13.3036 
4 *251:25 *1070:B 9.3 
5 *251:25 *251:32 0.946429 
6 *251:32 *1071:A2 9.72857 
7 *251:32 *251:45 3.14286 
8 *251:45 *1062:B 25.4607 
9 *251:45 *1063:B 11.4786 
*END

*D_NET *252 0.00400719
*CONN
*I *1040:A1 I *D sky130_fd_sc_hd__a221o_1
*I *1071:B1 I *D sky130_fd_sc_hd__a21o_1
*I *1070:C I *D sky130_fd_sc_hd__nand3_1
*I *1153:Q O *D sky130_fd_sc_hd__dfrtp_1
*CAP
1 *1040:A1 0.000242184
2 *1071:B1 0.000154174
3 *1070:C 0
4 *1153:Q 0.000404578
5 *252:14 0.000803853
6 *252:6 0.00129644
7 *1040:A1 *332:24 5.59013e-05
8 *252:6 *1153:CLK 9.3562e-05
9 *252:14 *1121:CLK 0
10 *252:14 *1121:RESET_B 0
11 *252:14 *1215:A 0.000102228
12 *252:14 *1216:A 2.46553e-05
13 *252:14 *268:119 0
14 *1028:A1 *252:14 0
15 *1028:A2 *252:14 0
16 *1029:A1 *252:14 8.00806e-05
17 *1040:B2 *252:14 0
18 *1040:C1 *1040:A1 0.000183022
19 *1071:A2 *1071:B1 3.41517e-06
20 *150:29 *1040:A1 4.96854e-05
21 *150:29 *252:14 0
22 *150:38 *1040:A1 1.02504e-05
23 *150:38 *252:14 0
24 *186:6 *1071:B1 0.000184522
25 *186:12 *1071:B1 0
26 *251:25 *1071:B1 2.84109e-05
27 *251:25 *252:14 0.000154114
28 *251:32 *1071:B1 5.07619e-05
29 *251:45 *1071:B1 8.53499e-05
*RES
1 *1153:Q *252:6 15.9964 
2 *252:6 *252:14 21.8036 
3 *252:14 *1070:C 9.3 
4 *252:14 *1071:B1 13.4607 
5 *252:6 *1040:A1 22.8536 
*END

*D_NET *253 0.00565214
*CONN
*I *991:A I *D sky130_fd_sc_hd__inv_2
*I *1045:A1 I *D sky130_fd_sc_hd__a221o_1
*I *1154:Q O *D sky130_fd_sc_hd__dfrtp_1
*CAP
1 *991:A 0.000313934
2 *1045:A1 0.000390462
3 *1154:Q 0.000726001
4 *253:8 0.0014304
5 *1045:A1 *1019:B 2.84398e-05
6 *1045:A1 *1045:A2 2.13481e-06
7 *1045:A1 *326:28 2.51343e-06
8 *253:8 *1027:A1_N 3.45112e-05
9 *253:8 *1029:A0 0.00011979
10 *253:8 *1212:A 0.000450764
11 *1027:A2_N *253:8 0.000140933
12 *1029:S *253:8 0.000792968
13 *1034:B1 *991:A 0
14 *1034:B1 *1045:A1 0
15 *1045:B1 *1045:A1 0.000225616
16 *1045:B2 *991:A 0
17 *1045:B2 *1045:A1 0
18 *1045:C1 *1045:A1 2.84494e-05
19 *1121:D *253:8 0.000140969
20 *239:44 *253:8 0.000824262
*RES
1 *1154:Q *253:8 32.8179 
2 *253:8 *1045:A1 19.675 
3 *253:8 *991:A 19.3893 
*END

*D_NET *254 0.00484285
*CONN
*I *984:A I *D sky130_fd_sc_hd__inv_2
*I *1103:A1 I *D sky130_fd_sc_hd__a211o_1
*I *1108:A1 I *D sky130_fd_sc_hd__a21o_1
*I *1141:Q O *D sky130_fd_sc_hd__dfrtp_1
*CAP
1 *984:A 0
2 *1103:A1 0.000261185
3 *1108:A1 0.000440234
4 *1141:Q 0.000575957
5 *254:23 0.000552667
6 *254:10 0.00130767
7 *1103:A1 *272:25 8.00315e-05
8 *254:10 *998:D_N 8.59056e-05
9 *254:10 *1023:A2 0.000225307
10 *254:10 *1155:CLK 0
11 *254:10 *1210:A 0
12 *254:10 *270:96 3.67257e-05
13 *254:10 *273:21 0
14 *254:23 *273:21 0
15 *996:A *254:10 0.000102806
16 *1047:A *254:10 0.000143147
17 *1047:A *254:23 6.53968e-05
18 *1047:B *254:23 0.00013053
19 *1048:A *254:23 7.92975e-05
20 *1113:D1 *1103:A1 5.03772e-05
21 *1207:A *1108:A1 0.000656826
22 *227:6 *1103:A1 4.43256e-05
23 *228:23 *254:23 4.46186e-06
24 *241:10 *254:10 0
25 *243:10 *254:10 0
26 *243:12 *254:10 0
*RES
1 *1141:Q *254:10 26.4071 
2 *254:10 *1108:A1 20.0857 
3 *254:10 *254:23 10.0893 
4 *254:23 *1103:A1 13.9786 
5 *254:23 *984:A 9.3 
*END

*D_NET *255 0.00221258
*CONN
*I *1087:B2 I *D sky130_fd_sc_hd__a221o_1
*I *1134:Q O *D sky130_fd_sc_hd__dfrtp_1
*CAP
1 *1087:B2 0.000635739
2 *1134:Q 0.000635739
3 *1087:B2 *1134:RESET_B 0.000797505
4 *1087:B2 *334:34 9.86015e-05
5 *1087:A1 *1087:B2 1.13883e-05
6 *1087:C1 *1087:B2 3.36099e-05
*RES
1 *1134:Q *1087:B2 37.9616 
*END

*D_NET *256 0.0013869
*CONN
*I *1092:B2 I *D sky130_fd_sc_hd__a221o_1
*I *1135:Q O *D sky130_fd_sc_hd__dfrtp_1
*CAP
1 *1092:B2 0.000660552
2 *1135:Q 0.000660552
3 *1092:B2 *1138:CLK 0
4 *1092:B1 *1092:B2 1.8461e-05
5 *1092:C1 *1092:B2 4.73311e-05
*RES
1 *1135:Q *1092:B2 38.9616 
*END

*D_NET *257 0.00115602
*CONN
*I *1097:B2 I *D sky130_fd_sc_hd__a221o_1
*I *1136:Q O *D sky130_fd_sc_hd__dfrtp_1
*CAP
1 *1097:B2 0.000337616
2 *1136:Q 0.000337616
3 *1010:A *1097:B2 7.61932e-05
4 *1010:B *1097:B2 6.59861e-05
5 *1011:A *1097:B2 0.000134454
6 *1092:B1 *1097:B2 0.00018077
7 *1097:A1 *1097:B2 6.8646e-06
8 *1097:B1 *1097:B2 6.26774e-06
9 *1097:C1 *1097:B2 1.02504e-05
*RES
1 *1136:Q *1097:B2 33.0866 
*END

*D_NET *258 0.00110364
*CONN
*I *1015:A1 I *D sky130_fd_sc_hd__mux2_1
*I *1143:Q O *D sky130_fd_sc_hd__dfrtp_1
*CAP
1 *1015:A1 0.000394157
2 *1143:Q 0.000394157
3 *1015:A1 *1015:S 1.02504e-05
4 *1015:A1 *1017:A1 0
5 *1015:A1 *1143:RESET_B 4.85567e-05
6 *1015:A1 *333:52 9.90431e-05
7 *1015:A1 *333:66 3.34672e-05
8 *1015:A0 *1015:A1 0.00012401
*RES
1 *1143:Q *1015:A1 33.85 
*END

*D_NET *259 0.00124248
*CONN
*I *1017:A1 I *D sky130_fd_sc_hd__mux2_1
*I *1144:Q O *D sky130_fd_sc_hd__dfrtp_1
*CAP
1 *1017:A1 0.000519174
2 *1144:Q 0.000519174
3 *1017:A1 *310:20 6.05161e-06
4 *1017:A1 *333:46 0
5 *1015:A1 *1017:A1 0
6 *1016:A0 *1017:A1 5.52238e-05
7 *1018:A0 *1017:A1 0.000142856
*RES
1 *1144:Q *1017:A1 36.1893 
*END

*D_NET *260 0.00199078
*CONN
*I *989:A I *D sky130_fd_sc_hd__inv_2
*I *1032:A I *D sky130_fd_sc_hd__xor2_1
*I *1036:A I *D sky130_fd_sc_hd__and3_1
*I *1035:A1 I *D sky130_fd_sc_hd__a21oi_1
*I *1147:Q O *D sky130_fd_sc_hd__dfrtp_1
*CAP
1 *989:A 8.45819e-05
2 *1032:A 0
3 *1036:A 0
4 *1035:A1 0.000168675
5 *1147:Q 0.000115265
6 *260:36 0.000236882
7 *260:27 0.0001523
8 *260:10 0.000283939
9 *1035:A1 *1035:A2 2.59355e-05
10 *1035:A1 *262:10 1.02504e-05
11 *1035:A1 *335:50 2.5463e-05
12 *260:10 *1263:A 5.33005e-05
13 *260:10 *261:10 3.34687e-05
14 *260:10 *261:14 4.25619e-05
15 *260:10 *262:10 0.00016284
16 *260:36 *1032:B 0.000227564
17 *260:36 *1035:A2 9.90431e-05
18 *260:36 *1036:C 0.000106663
19 *1037:A *989:A 9.51577e-05
20 *1037:A *260:36 1.02936e-05
21 *155:18 *989:A 5.65955e-05
*RES
1 *1147:Q *260:10 16.5857 
2 *260:10 *1035:A1 16.1393 
3 *260:10 *260:27 4.5 
4 *260:27 *1036:A 9.3 
5 *260:27 *260:36 3.83929 
6 *260:36 *1032:A 9.3 
7 *260:36 *989:A 11.4786 
*END

*D_NET *261 0.00201656
*CONN
*I *1036:B I *D sky130_fd_sc_hd__and3_1
*I *1032:B I *D sky130_fd_sc_hd__xor2_1
*I *1035:A2 I *D sky130_fd_sc_hd__a21oi_1
*I *1148:Q O *D sky130_fd_sc_hd__dfrtp_1
*CAP
1 *1036:B 0
2 *1032:B 6.05415e-05
3 *1035:A2 0.000113964
4 *1148:Q 0.000395665
5 *261:14 0.000220731
6 *261:10 0.00044189
7 *1035:A2 *1036:C 2.28499e-05
8 *261:10 *262:10 0.000138409
9 *1035:A1 *1035:A2 2.59355e-05
10 *1037:A *1032:B 0.000123673
11 *1037:A *1035:A2 7.02611e-05
12 *1042:B *261:10 0
13 *1042:B *261:14 0
14 *260:10 *261:10 3.34687e-05
15 *260:10 *261:14 4.25619e-05
16 *260:36 *1032:B 0.000227564
17 *260:36 *1035:A2 9.90431e-05
*RES
1 *1148:Q *261:10 21.05 
2 *261:10 *261:14 5.53571 
3 *261:14 *1035:A2 11.8893 
4 *261:14 *1032:B 11.9071 
5 *261:10 *1036:B 13.8 
*END

*D_NET *262 0.00172809
*CONN
*I *1035:B1 I *D sky130_fd_sc_hd__a21oi_1
*I *1036:C I *D sky130_fd_sc_hd__and3_1
*I *1149:Q O *D sky130_fd_sc_hd__dfrtp_1
*CAP
1 *1035:B1 0
2 *1036:C 0.000122739
3 *1149:Q 0.000316043
4 *262:10 0.000438781
5 *262:10 *1129:CLK 0
6 *262:10 *335:50 0.000145594
7 *262:10 *335:60 0.000210525
8 *262:10 *335:72 5.33978e-05
9 *1035:A1 *262:10 1.02504e-05
10 *1035:A2 *1036:C 2.28499e-05
11 *260:10 *262:10 0.00016284
12 *260:36 *1036:C 0.000106663
13 *261:10 *262:10 0.000138409
*RES
1 *1149:Q *262:10 27.8357 
2 *262:10 *1036:C 11.1571 
3 *262:10 *1035:B1 9.3 
*END

*D_NET *263 0.00049957
*CONN
*I *1042:A I *D sky130_fd_sc_hd__xor2_1
*I *1150:Q O *D sky130_fd_sc_hd__dfrtp_1
*CAP
1 *1042:A 0.000249785
2 *1150:Q 0.000249785
*RES
1 *1150:Q *1042:A 22.85 
*END

*D_NET *264 0.00385518
*CONN
*I *1102:B2 I *D sky130_fd_sc_hd__a32o_1
*I *1013:A1_N I *D sky130_fd_sc_hd__a2bb2o_4
*I *1107:A2 I *D sky130_fd_sc_hd__a311o_1
*I *1140:Q O *D sky130_fd_sc_hd__dfrtp_1
*CAP
1 *1102:B2 0
2 *1013:A1_N 2.95276e-05
3 *1107:A2 0.000194758
4 *1140:Q 0.0004427
5 *264:16 0.000823139
6 *264:10 0.00104155
7 *1013:A1_N *1055:C 5.58941e-05
8 *1013:A1_N *317:14 4.46186e-06
9 *1013:A1_N *317:39 2.01767e-05
10 *1107:A2 *271:73 0.000104974
11 *1107:A2 *317:39 5.33882e-05
12 *264:10 *1157:RESET_B 0
13 *264:10 *1257:A 0
14 *264:10 *274:10 0
15 *264:10 *347:16 0
16 *264:16 *274:10 0
17 *264:16 *320:6 1.74352e-05
18 *1102:A1 *264:10 2.28428e-05
19 *1103:C1 *264:10 8.07951e-05
20 *1103:C1 *264:16 0.000125724
21 *1118:C1 *1107:A2 0.000224583
22 *1118:C1 *264:16 0.000613226
*RES
1 *1140:Q *264:10 21.55 
2 *264:10 *264:16 13.25 
3 *264:16 *1107:A2 21.8179 
4 *264:16 *1013:A1_N 19.0321 
5 *264:10 *1102:B2 13.8 
*END

*D_NET *265 0.00179071
*CONN
*I *985:A I *D sky130_fd_sc_hd__inv_2
*I *1218:A I *D sky130_fd_sc_hd__dlygate4sd3_1
*I *1119:Q O *D sky130_fd_sc_hd__dfrtp_1
*CAP
1 *985:A 0.000511513
2 *1218:A 0.0001579
3 *1119:Q 0.000103643
4 *265:8 0.000773056
5 *985:A *333:105 0
6 *1218:A *1016:A1 3.69047e-06
7 *265:8 *333:34 5.01117e-05
8 *265:8 *333:105 0
9 *1014:A1 *985:A 6.05161e-06
10 *1014:A2 *985:A 0.000184745
11 *243:16 *985:A 0
12 *243:16 *265:8 0
*RES
1 *1119:Q *265:8 15.7464 
2 *265:8 *1218:A 16.3893 
3 *265:8 *985:A 23.1214 
*END

*D_NET *266 0.000935683
*CONN
*I *1084:A1 I *D sky130_fd_sc_hd__o2111a_1
*I *1217:A I *D sky130_fd_sc_hd__dlygate4sd3_1
*I *1120:Q O *D sky130_fd_sc_hd__dfrtp_1
*CAP
1 *1084:A1 9.18086e-05
2 *1217:A 7.56315e-05
3 *1120:Q 7.54325e-05
4 *266:8 0.000242873
5 *1084:A1 *270:23 0.000175519
6 *1217:A *1156:RESET_B 4.87953e-05
7 *266:8 *270:23 0.000175512
8 *266:8 *333:20 5.01117e-05
9 *1084:C1 *1084:A1 0
*RES
1 *1120:Q *266:8 16.05 
2 *266:8 *1217:A 15.1571 
3 *266:8 *1084:A1 16.05 
*END

*D_NET *267 0.0109009
*CONN
*I *1201:A I *D sky130_fd_sc_hd__clkbuf_16
*I *1199:A I *D sky130_fd_sc_hd__clkbuf_16
*I *1198:A I *D sky130_fd_sc_hd__clkbuf_16
*I *1200:A I *D sky130_fd_sc_hd__clkbuf_16
*I *1197:X O *D sky130_fd_sc_hd__clkbuf_16
*CAP
1 *1201:A 0.000459532
2 *1199:A 0.00086426
3 *1198:A 0.000382348
4 *1200:A 0.000427576
5 *1197:X 0
6 *267:25 0.0020003
7 *267:8 0.00138694
8 *267:6 0.000665206
9 *1198:A *281:44 0
10 *1199:A *1040:A2 0
11 *1199:A *1081:A1 0
12 *1199:A *281:44 0
13 *1199:A *320:70 0
14 *1199:A *320:72 0
15 *1200:A *1030:A1 6.19181e-05
16 *1200:A *1030:A2 0.00024535
17 *1201:A *1124:CLK 0.000152932
18 *1201:A *1222:A 0
19 *1201:A *271:36 0.000260954
20 *1201:A *271:38 0.000131439
21 *267:8 *284:30 0.000123288
22 *267:25 *1021:D 0.000126629
23 *267:25 *1030:A1 0.000137529
24 *267:25 *281:44 0.000123673
25 *267:25 *281:50 2.58821e-05
26 *267:25 *282:34 0.000430313
27 *267:25 *282:36 0.000138881
28 *267:25 *283:34 1.98839e-05
29 *267:25 *283:41 0.000569201
30 *267:25 *283:54 5.52238e-05
31 *1025:A *1200:A 5.52302e-05
32 *1033:B1 *1199:A 0
33 *1033:B2 *1199:A 0.000390071
34 *1033:C1 *1199:A 4.03157e-05
35 *1041:A1 *1198:A 0
36 *1041:A1 *1199:A 0
37 *1050:A1 *1201:A 0.000251649
38 *1050:A1 *267:8 9.74684e-05
39 *1064:C *1199:A 0.000148196
40 *1086:B *1199:A 0
41 *1125:D *1200:A 2.6949e-05
42 *1125:D *1201:A 0.000148897
43 *1125:D *267:8 0.00011888
44 *148:12 *1200:A 0.000197984
45 *148:12 *267:8 0.000274448
46 *148:16 *1200:A 9.31893e-05
47 *149:10 *1200:A 0.000268403
*RES
1 *1197:X *267:6 13.8 
2 *267:6 *267:8 6.19643 
3 *267:8 *1200:A 23.8714 
4 *267:8 *267:25 25.9643 
5 *267:25 *1198:A 19.5857 
6 *267:25 *1199:A 30.6214 
7 *267:6 *1201:A 26.1571 
*END

*D_NET *268 0.0169213
*CONN
*I *1122:CLK I *D sky130_fd_sc_hd__dfrtp_2
*I *1131:CLK I *D sky130_fd_sc_hd__dfrtp_2
*I *1132:CLK I *D sky130_fd_sc_hd__dfrtp_1
*I *1123:CLK I *D sky130_fd_sc_hd__dfrtp_1
*I *1121:CLK I *D sky130_fd_sc_hd__dfrtp_4
*I *1153:CLK I *D sky130_fd_sc_hd__dfrtp_1
*I *1202:A I *D sky130_fd_sc_hd__clkbuf_4
*I *1134:CLK I *D sky130_fd_sc_hd__dfrtp_1
*I *1137:CLK I *D sky130_fd_sc_hd__dfrtp_1
*I *1135:CLK I *D sky130_fd_sc_hd__dfrtp_1
*I *1138:CLK I *D sky130_fd_sc_hd__dfrtp_1
*I *1136:CLK I *D sky130_fd_sc_hd__dfrtp_1
*I *1139:CLK I *D sky130_fd_sc_hd__dfrtp_1
*I *1198:X O *D sky130_fd_sc_hd__clkbuf_16
*CAP
1 *1122:CLK 0.000231969
2 *1131:CLK 7.57528e-05
3 *1132:CLK 3.88172e-05
4 *1123:CLK 0
5 *1121:CLK 8.42878e-05
6 *1153:CLK 0.000943333
7 *1202:A 0.000253888
8 *1134:CLK 0.00040904
9 *1137:CLK 0
10 *1135:CLK 0.000589013
11 *1138:CLK 0.000239086
12 *1136:CLK 0
13 *1139:CLK 0.000344053
14 *1198:X 0.000450943
15 *268:119 0.00124035
16 *268:108 0.000598657
17 *268:104 0.000498269
18 *268:85 0.000942041
19 *268:76 0.000745737
20 *268:59 0.00140241
21 *268:44 0.000736872
22 *268:42 0.000888105
23 *268:20 0.000447407
24 *268:18 0.000938327
25 *268:16 0.000506821
26 *268:10 0.000864936
27 *1121:CLK *1121:RESET_B 6.0038e-05
28 *1131:CLK *1131:RESET_B 5.03772e-05
29 *1134:CLK *1134:D 1.08881e-05
30 *1135:CLK *1135:D 1.72894e-05
31 *1139:CLK *1136:D 4.94455e-05
32 *1139:CLK *1256:A 0
33 *1139:CLK *332:44 7.60306e-05
34 *1139:CLK *332:52 0.000753293
35 *268:10 *326:34 0
36 *268:10 *332:36 0
37 *268:10 *332:38 0
38 *268:16 *332:38 7.71417e-05
39 *268:18 *332:38 2.94103e-05
40 *268:18 *332:40 0.000284381
41 *268:18 *332:44 4.13573e-05
42 *268:20 *332:44 6.82922e-05
43 *268:42 *1135:RESET_B 8.44261e-05
44 *268:44 *1135:RESET_B 9.2342e-05
45 *268:59 *1135:RESET_B 0.00015957
46 *268:85 *334:12 9.24395e-05
47 *268:104 *334:12 7.80929e-05
48 *1034:B1 *268:10 0
49 *1041:A1 *268:10 0
50 *1086:A *1122:CLK 5.33005e-05
51 *1086:A *268:16 0.000269422
52 *1086:B *268:10 0
53 *1088:A1 *1122:CLK 8.66063e-05
54 *1092:B2 *1138:CLK 0
55 *1092:C1 *1139:CLK 0
56 *1092:C1 *268:18 0
57 *1092:C1 *268:20 0
58 *1093:A1 *268:18 3.92757e-05
59 *1093:S *1122:CLK 3.68898e-05
60 *1093:S *268:16 0.000148911
61 *1093:S *268:18 0.000392276
62 *1131:D *1131:CLK 3.23539e-05
63 *115:10 *268:18 0
64 *115:16 *268:18 0
65 *115:75 *268:10 3.17148e-05
66 *150:12 *1131:CLK 3.30237e-05
67 *199:20 *1122:CLK 0.000209005
68 *252:6 *1153:CLK 9.3562e-05
69 *252:14 *1121:CLK 0
70 *252:14 *268:119 0
*RES
1 *1198:X *268:10 25.4071 
2 *268:10 *268:16 9.03571 
3 *268:16 *268:18 8.32143 
4 *268:18 *268:20 1.94643 
5 *268:20 *1139:CLK 23.1571 
6 *268:20 *1136:CLK 13.8 
7 *268:18 *268:42 11.6071 
8 *268:42 *268:44 3.41071 
9 *268:44 *1138:CLK 22.3714 
10 *268:44 *268:59 4.66071 
11 *268:59 *1135:CLK 16.8714 
12 *268:59 *268:76 14.6429 
13 *268:76 *1137:CLK 13.8 
14 *268:76 *268:85 3.16071 
15 *268:85 *1134:CLK 20.6393 
16 *268:85 *268:104 11.0893 
17 *268:104 *268:108 6.75 
18 *268:108 *1202:A 17.6214 
19 *268:108 *268:119 3.76786 
20 *268:119 *1153:CLK 25.3357 
21 *268:119 *1121:CLK 15.4429 
22 *268:104 *1123:CLK 9.3 
23 *268:42 *1132:CLK 10.0321 
24 *268:16 *1131:CLK 15.5679 
25 *268:10 *1122:CLK 13.9607 
*END

*D_NET *269 0.0138561
*CONN
*I *1130:CLK I *D sky130_fd_sc_hd__dfrtp_1
*I *1151:CLK I *D sky130_fd_sc_hd__dfrtp_1
*I *1128:CLK I *D sky130_fd_sc_hd__dfrtp_2
*I *1127:CLK I *D sky130_fd_sc_hd__dfrtp_2
*I *1129:CLK I *D sky130_fd_sc_hd__dfrtp_1
*I *1142:CLK I *D sky130_fd_sc_hd__dfrtp_1
*I *1149:CLK I *D sky130_fd_sc_hd__dfrtp_1
*I *1148:CLK I *D sky130_fd_sc_hd__dfrtp_1
*I *1147:CLK I *D sky130_fd_sc_hd__dfrtp_1
*I *1150:CLK I *D sky130_fd_sc_hd__dfrtp_1
*I *1152:CLK I *D sky130_fd_sc_hd__dfrtp_1
*I *1154:CLK I *D sky130_fd_sc_hd__dfrtp_1
*I *1199:X O *D sky130_fd_sc_hd__clkbuf_16
*CAP
1 *1130:CLK 0.00071474
2 *1151:CLK 0.000287308
3 *1128:CLK 0
4 *1127:CLK 0.000536388
5 *1129:CLK 0.000151097
6 *1142:CLK 0.000176877
7 *1149:CLK 0
8 *1148:CLK 0
9 *1147:CLK 0
10 *1150:CLK 0
11 *1152:CLK 0
12 *1154:CLK 0.000181528
13 *1199:X 2.22847e-05
14 *269:104 0.00086293
15 *269:91 0.000759858
16 *269:76 0.000856937
17 *269:67 0.000510115
18 *269:56 0.000347946
19 *269:47 0.000587799
20 *269:38 0.000466368
21 *269:18 0.000582505
22 *269:16 0.000995422
23 *269:12 0.00143339
24 *269:6 0.00140291
25 *1127:CLK *1142:RESET_B 0
26 *1127:CLK *347:8 0.000639707
27 *1130:CLK *986:A 1.74352e-05
28 *1130:CLK *1064:A 2.89114e-05
29 *1130:CLK *320:64 0.000348207
30 *1142:CLK *1142:D 4.94643e-05
31 *1151:CLK *1151:D 0.000109661
32 *1151:CLK *335:26 0
33 *1151:CLK *335:40 3.70247e-05
34 *1154:CLK *1152:D 4.1331e-06
35 *1154:CLK *1154:D 0
36 *269:12 *1151:D 6.54675e-05
37 *269:16 *1151:D 6.25743e-05
38 *269:18 *1152:D 0.000108489
39 *269:38 *1150:D 2.83284e-06
40 *269:47 *1150:D 3.43988e-06
41 *269:91 *1149:RESET_B 2.51837e-05
42 *269:91 *335:82 0.000294696
43 *269:104 *1128:RESET_B 6.79057e-05
44 *269:104 *335:82 0.000329068
45 *1064:C *1130:CLK 6.78929e-05
46 *1068:B1 *1130:CLK 1.21258e-05
47 *1130:D *1130:CLK 7.43578e-06
48 *1224:A *269:18 0
49 *1232:A *269:67 0.000165157
50 *1235:A *269:47 0.000188336
51 *1240:A *269:47 6.99087e-05
52 *1240:A *269:56 0.000200406
53 *1246:A *269:16 6.05161e-06
54 *1247:A *269:18 6.8194e-05
55 *262:10 *1129:CLK 0
*RES
1 *1199:X *269:6 9.72857 
2 *269:6 *269:12 11.1429 
3 *269:12 *269:16 10.375 
4 *269:16 *269:18 8.01786 
5 *269:18 *1154:CLK 16.8893 
6 *269:18 *1152:CLK 13.8 
7 *269:16 *269:38 1.94643 
8 *269:38 *1150:CLK 13.8 
9 *269:38 *269:47 7.10714 
10 *269:47 *1147:CLK 13.8 
11 *269:47 *269:56 4.98214 
12 *269:56 *1148:CLK 13.8 
13 *269:56 *269:67 7.05357 
14 *269:67 *1149:CLK 9.3 
15 *269:67 *269:76 6.30357 
16 *269:76 *1142:CLK 21.4964 
17 *269:76 *269:91 6.28571 
18 *269:91 *1129:CLK 20.8536 
19 *269:91 *269:104 7.51786 
20 *269:104 *1127:CLK 31.3536 
21 *269:104 *1128:CLK 9.3 
22 *269:12 *1151:CLK 23.8893 
23 *269:6 *1130:CLK 22.1571 
*END

*D_NET *270 0.0117638
*CONN
*I *1141:CLK I *D sky130_fd_sc_hd__dfrtp_1
*I *1155:CLK I *D sky130_fd_sc_hd__dfrtp_1
*I *1133:CLK I *D sky130_fd_sc_hd__dfrtp_1
*I *1144:CLK I *D sky130_fd_sc_hd__dfrtp_1
*I *1143:CLK I *D sky130_fd_sc_hd__dfrtp_1
*I *1145:CLK I *D sky130_fd_sc_hd__dfrtp_1
*I *1146:CLK I *D sky130_fd_sc_hd__dfrtp_1
*I *1120:CLK I *D sky130_fd_sc_hd__dfrtp_1
*I *1119:CLK I *D sky130_fd_sc_hd__dfrtp_1
*I *1203:A I *D sky130_fd_sc_hd__clkinv_2
*I *1200:X O *D sky130_fd_sc_hd__clkbuf_16
*CAP
1 *1141:CLK 0.000653198
2 *1155:CLK 0.000159638
3 *1133:CLK 0
4 *1144:CLK 0.000747982
5 *1143:CLK 0.000113335
6 *1145:CLK 0
7 *1146:CLK 0.000283218
8 *1120:CLK 0.000142993
9 *1119:CLK 0.000139907
10 *1203:A 0.000227369
11 *1200:X 0
12 *270:96 0.00115908
13 *270:67 0.000906143
14 *270:60 0.000237904
15 *270:51 0.000627348
16 *270:47 0.000556961
17 *270:36 0.000738009
18 *270:23 0.00057778
19 *270:6 0.000806152
20 *270:4 0.000676264
21 *1119:CLK *310:95 0
22 *1119:CLK *333:20 1.97381e-05
23 *1143:CLK *1133:RESET_B 0
24 *1143:CLK *1145:D 0.000152333
25 *1144:CLK *1144:D 8.07313e-05
26 *1144:CLK *1145:RESET_B 2.81497e-05
27 *1144:CLK *333:66 9.7659e-05
28 *1144:CLK *333:80 0.000204734
29 *1155:CLK *1155:RESET_B 0
30 *270:23 *1156:RESET_B 0.000363245
31 *270:23 *310:95 0
32 *270:23 *333:20 4.98055e-06
33 *270:36 *1120:RESET_B 2.51837e-05
34 *270:36 *333:34 7.48091e-05
35 *270:47 *1133:RESET_B 0
36 *270:47 *333:20 0
37 *270:51 *1133:RESET_B 0
38 *270:60 *1146:RESET_B 2.51837e-05
39 *270:60 *333:80 7.77751e-05
40 *270:67 *333:80 7.49621e-05
41 *996:A *1155:CLK 0.000199706
42 *1015:A0 *1144:CLK 5.17614e-05
43 *1017:A0 *1144:CLK 0.000102207
44 *1017:A0 *270:60 3.18676e-05
45 *1017:A0 *270:67 0.000102197
46 *1084:A1 *270:23 0.000175519
47 *1084:C1 *1203:A 0.000150632
48 *1084:C1 *270:23 0
49 *1084:D1 *1203:A 0.00015234
50 *1120:D *1120:CLK 0.000105649
51 *1120:D *270:36 0.000314589
52 *1133:D *270:47 0
53 *1133:D *270:51 0
54 *140:16 *270:23 7.67315e-05
55 *239:14 *1155:CLK 0.000105591
56 *254:10 *1155:CLK 0
57 *254:10 *270:96 3.67257e-05
58 *266:8 *270:23 0.000175512
*RES
1 *1200:X *270:4 9.3 
2 *270:4 *270:6 4.64286 
3 *270:6 *1203:A 22.8357 
4 *270:6 *270:23 12.2143 
5 *270:23 *1119:CLK 16.3536 
6 *270:23 *270:36 9.96429 
7 *270:36 *1120:CLK 12.3 
8 *270:36 *270:47 11.9107 
9 *270:47 *270:51 7.05357 
10 *270:51 *1146:CLK 13.9429 
11 *270:51 *270:60 3.82143 
12 *270:60 *1145:CLK 9.3 
13 *270:60 *270:67 1.76786 
14 *270:67 *1143:CLK 20.8536 
15 *270:67 *1144:CLK 25.0321 
16 *270:47 *1133:CLK 13.8 
17 *270:4 *270:96 4.25 
18 *270:96 *1155:CLK 22.3714 
19 *270:96 *1141:CLK 17.1393 
*END

*D_NET *271 0.0120834
*CONN
*I *1126:CLK I *D sky130_fd_sc_hd__dfrtp_1
*I *1140:CLK I *D sky130_fd_sc_hd__dfrtp_1
*I *1157:CLK I *D sky130_fd_sc_hd__dfrtp_1
*I *1204:A I *D sky130_fd_sc_hd__clkinvlp_4
*I *1158:CLK I *D sky130_fd_sc_hd__dfrtp_1
*I *1124:CLK I *D sky130_fd_sc_hd__dfrtp_1
*I *1156:CLK I *D sky130_fd_sc_hd__dfrtp_1
*I *1125:CLK I *D sky130_fd_sc_hd__dfrtp_1
*I *1201:X O *D sky130_fd_sc_hd__clkbuf_16
*CAP
1 *1126:CLK 0.000459059
2 *1140:CLK 0.000158971
3 *1157:CLK 0
4 *1204:A 0
5 *1158:CLK 0.000289316
6 *1124:CLK 0.000436418
7 *1156:CLK 6.92683e-05
8 *1125:CLK 0.000503929
9 *1201:X 2.75556e-05
10 *271:82 0.000703574
11 *271:73 0.000700288
12 *271:38 0.000773831
13 *271:36 0.000202616
14 *271:14 0.000885706
15 *271:12 0.000781589
16 *271:6 0.000956862
17 *1124:CLK *336:10 0.000372248
18 *1125:CLK *982:A 4.89167e-05
19 *1125:CLK *1084:B1 0.000246064
20 *1125:CLK *284:18 0
21 *1125:CLK *326:95 0.000527807
22 *1126:CLK *1009:A 2.89016e-05
23 *1126:CLK *1009:B 0.000164554
24 *1126:CLK *1126:RESET_B 7.24753e-05
25 *1126:CLK *325:18 5.66157e-05
26 *1126:CLK *336:42 7.57542e-05
27 *1126:CLK *336:56 0.000173543
28 *1140:CLK *325:22 2.59355e-05
29 *1156:CLK *285:28 0.000157867
30 *1156:CLK *327:52 9.71197e-05
31 *1158:CLK *336:10 0
32 *1158:CLK *336:20 0
33 *1158:CLK *336:34 0
34 *271:6 *327:33 1.32552e-05
35 *271:12 *327:33 8.35901e-05
36 *271:14 *982:A 1.52978e-05
37 *271:14 *284:18 0
38 *271:14 *326:10 0.000138946
39 *271:14 *326:16 0.000146474
40 *271:14 *327:33 0
41 *271:14 *327:37 0.000148457
42 *271:73 *317:14 0
43 *271:73 *317:39 6.72333e-05
44 *271:73 *325:18 0.00024705
45 *271:82 *325:18 0.000177941
46 *1050:A1 *1124:CLK 0.000202842
47 *1082:A2 *1158:CLK 0
48 *1084:D1 *1125:CLK 0
49 *1107:A2 *271:73 0.000104974
50 *1107:C1 *271:73 0
51 *1110:D *1125:CLK 7.6644e-05
52 *1112:A *271:12 0
53 *1112:A *271:14 0
54 *1115:A *271:73 0
55 *1115:B *271:73 0.000333155
56 *1118:B1 *271:12 4.90803e-05
57 *1118:B1 *271:14 0.000531943
58 *1125:D *1125:CLK 0
59 *1126:D *1126:CLK 2.59355e-05
60 *1201:A *1124:CLK 0.000152932
61 *1201:A *271:36 0.000260954
62 *1201:A *271:38 0.000131439
63 *139:42 *271:73 0
64 *146:16 *1125:CLK 7.80714e-06
65 *167:25 *1158:CLK 0
66 *220:10 *271:14 0.000170661
*RES
1 *1201:X *271:6 9.83571 
2 *271:6 *271:12 9.875 
3 *271:12 *271:14 9.83929 
4 *271:14 *1125:CLK 25.7643 
5 *271:14 *1156:CLK 15.5679 
6 *271:12 *271:36 7.91071 
7 *271:36 *271:38 1.35714 
8 *271:38 *1124:CLK 28.5679 
9 *271:38 *1158:CLK 23.2821 
10 *271:36 *1204:A 9.3 
11 *271:6 *271:73 18.8929 
12 *271:73 *1157:CLK 13.8 
13 *271:73 *271:82 2.25 
14 *271:82 *1140:CLK 16.3893 
15 *271:82 *1126:CLK 24.175 
*END

*D_NET *272 0.00508468
*CONN
*I *1002:B I *D sky130_fd_sc_hd__nor4b_2
*I *1113:A1 I *D sky130_fd_sc_hd__a2111o_1
*I *1211:A I *D sky130_fd_sc_hd__clkbuf_4
*I *1155:Q O *D sky130_fd_sc_hd__dfrtp_1
*CAP
1 *1002:B 0.000111911
2 *1113:A1 4.65078e-05
3 *1211:A 1.40568e-05
4 *1155:Q 0.000387982
5 *272:25 0.00112244
6 *272:10 0.00136606
7 *1113:A1 *1002:A 9.41642e-05
8 *1113:A1 *273:21 5.59013e-05
9 *1211:A *330:51 5.52238e-05
10 *272:10 *994:C 0
11 *272:10 *285:18 0
12 *272:25 *1002:A 9.60939e-05
13 *272:25 *1007:A 0
14 *272:25 *327:101 9.39611e-05
15 *272:25 *330:64 0
16 *272:25 *330:75 0
17 *272:25 *330:116 6.8646e-06
18 *1008:A *272:10 0.000251085
19 *1099:B1 *272:10 2.56601e-05
20 *1103:A1 *272:25 8.00315e-05
21 *1104:A2 *272:10 0
22 *1104:B1 *272:25 6.62868e-05
23 *1113:A2 *1002:B 0.000335215
24 *1113:A2 *1113:A1 5.58941e-05
25 *1113:D1 *1113:A1 9.60939e-05
26 *1113:D1 *272:25 0.000214198
27 *1207:A *272:10 4.78056e-05
28 *169:16 *1211:A 2.89016e-05
29 *227:6 *272:25 9.71197e-05
30 *228:23 *1002:B 0.000335215
*RES
1 *1155:Q *272:10 20.5321 
2 *272:10 *1211:A 14.3357 
3 *272:10 *272:25 21.6071 
4 *272:25 *1113:A1 19.9786 
5 *272:25 *1002:B 22.675 
*END

*D_NET *273 0.00314584
*CONN
*I *1002:A I *D sky130_fd_sc_hd__nor4b_2
*I *1113:C1 I *D sky130_fd_sc_hd__a2111o_1
*I *1210:A I *D sky130_fd_sc_hd__buf_2
*I *1156:Q O *D sky130_fd_sc_hd__dfrtp_1
*CAP
1 *1002:A 0.000352488
2 *1113:C1 4.70928e-05
3 *1210:A 0.000103181
4 *1156:Q 0
5 *273:21 0.000839192
6 *273:6 0.000542792
7 *1002:A *274:10 1.76135e-05
8 *1002:A *275:21 0
9 *1210:A *998:D_N 7.43578e-06
10 *1210:A *285:28 4.72818e-05
11 *273:21 *998:D_N 0
12 *273:21 *327:23 7.90803e-05
13 *1048:A *273:21 0
14 *1113:A1 *1002:A 9.41642e-05
15 *1113:A1 *273:21 5.59013e-05
16 *1113:A2 *273:21 1.17968e-05
17 *1113:D1 *1002:A 1.38323e-05
18 *1113:D1 *1113:C1 2.59355e-05
19 *228:23 *1002:A 0.000310321
20 *241:10 *1210:A 4.81157e-05
21 *241:10 *273:21 5.84171e-05
22 *241:34 *273:21 0.000296066
23 *243:10 *1210:A 9.90431e-05
24 *254:10 *1210:A 0
25 *254:10 *273:21 0
26 *254:23 *273:21 0
27 *272:25 *1002:A 9.60939e-05
*RES
1 *1156:Q *273:6 13.8 
2 *273:6 *1210:A 16.6036 
3 *273:6 *273:21 14.3393 
4 *273:21 *1113:C1 9.83571 
5 *273:21 *1002:A 24.55 
*END

*D_NET *274 0.0019425
*CONN
*I *1209:A I *D sky130_fd_sc_hd__clkbuf_2
*I *1002:C I *D sky130_fd_sc_hd__nor4b_2
*I *1157:Q O *D sky130_fd_sc_hd__dfrtp_1
*CAP
1 *1209:A 7.17596e-05
2 *1002:C 0.000191989
3 *1157:Q 0.000505319
4 *274:10 0.000769068
5 *1002:C *1002:D_N 0
6 *1002:C *275:17 8.5229e-05
7 *1209:A *275:17 5.06983e-05
8 *274:10 *1205:A 4.02462e-05
9 *274:10 *275:21 2.97756e-05
10 *1002:A *274:10 1.76135e-05
11 *1103:C1 *274:10 0
12 *1107:A1 *274:10 3.4323e-05
13 *1113:A2 *274:10 0
14 *1118:C1 *274:10 0.000100831
15 *228:23 *274:10 4.56494e-05
16 *264:10 *274:10 0
17 *264:16 *274:10 0
*RES
1 *1157:Q *274:10 27.8357 
2 *274:10 *1002:C 12.3179 
3 *274:10 *1209:A 10.6571 
*END

*D_NET *275 0.00755018
*CONN
*I *993:B I *D sky130_fd_sc_hd__and2b_1
*I *998:A I *D sky130_fd_sc_hd__or4bb_4
*I *1003:A I *D sky130_fd_sc_hd__or4b_4
*I *1208:A I *D sky130_fd_sc_hd__clkbuf_2
*I *1158:Q O *D sky130_fd_sc_hd__dfrtp_1
*CAP
1 *993:B 0.000384046
2 *998:A 0.000118167
3 *1003:A 0.000109103
4 *1208:A 2.06112e-05
5 *1158:Q 0.000217909
6 *275:21 0.000643602
7 *275:17 0.00127004
8 *275:6 0.000708182
9 *993:B *993:A_N 0.000207119
10 *993:B *997:B 2.08464e-05
11 *993:B *328:10 5.33005e-05
12 *993:B *328:102 0.000555695
13 *998:A *998:C_N 0.000117543
14 *1003:A *285:28 6.19351e-05
15 *1003:A *330:19 0.000139913
16 *1208:A *1002:D_N 3.99614e-06
17 *275:17 *317:10 0.000183726
18 *275:21 *328:10 0.000211205
19 *275:21 *328:12 0.000185304
20 *275:21 *328:14 0.000138946
21 *275:21 *328:16 0.000236814
22 *275:21 *328:20 0.000146474
23 *1002:A *275:21 0
24 *1002:C *275:17 8.5229e-05
25 *1047:A *1003:A 0.000170654
26 *1047:A *275:21 0.00042384
27 *1047:B *275:21 8.33655e-05
28 *1103:C1 *275:21 1.17968e-05
29 *1112:D_N *998:A 0.000481575
30 *1209:A *275:17 5.06983e-05
31 *236:10 *993:B 0.000276211
32 *239:14 *1003:A 8.359e-05
33 *239:14 *275:21 2.49484e-05
34 *239:32 *998:A 9.40156e-05
35 *274:10 *275:21 2.97756e-05
*RES
1 *1158:Q *275:6 12.7107 
2 *275:6 *1208:A 9.72857 
3 *275:6 *275:17 7.53571 
4 *275:17 *275:21 17.375 
5 *275:21 *1003:A 17.4071 
6 *275:21 *998:A 18.4429 
7 *275:17 *993:B 18.7464 
*END

*D_NET *276 0.00146596
*CONN
*I *1220:A I *D sky130_fd_sc_hd__dlygate4sd3_1
*I *1009:A I *D sky130_fd_sc_hd__and2_1
*I *1126:Q O *D sky130_fd_sc_hd__dfrtp_1
*CAP
1 *1220:A 6.36788e-05
2 *1009:A 0.000455828
3 *1126:Q 0
4 *276:4 0.000519507
5 *1009:A *1009:B 0.000376615
6 *1009:A *336:56 2.13481e-06
7 *1220:A *336:56 1.92905e-05
8 *1126:CLK *1009:A 2.89016e-05
*RES
1 *1126:Q *276:4 9.3 
2 *276:4 *1009:A 28.175 
3 *276:4 *1220:A 10.5679 
*END

*D_NET *277 0.00735232
*CONN
*I *1052:A1 I *D sky130_fd_sc_hd__o211a_1
*I *1061:A1 I *D sky130_fd_sc_hd__mux2_1
*I *1056:A I *D sky130_fd_sc_hd__or4_1
*I *1074:A1 I *D sky130_fd_sc_hd__o21ai_1
*I *1073:A I *D sky130_fd_sc_hd__or3_1
*I *1066:A I *D sky130_fd_sc_hd__and2_1
*I *1057:B1_N I *D sky130_fd_sc_hd__o21ba_1
*I *1065:A I *D sky130_fd_sc_hd__nor2_1
*I *1127:Q O *D sky130_fd_sc_hd__dfrtp_2
*CAP
1 *1052:A1 0.000319736
2 *1061:A1 0.000533131
3 *1056:A 0
4 *1074:A1 0
5 *1073:A 0
6 *1066:A 0
7 *1057:B1_N 0.000351851
8 *1065:A 0
9 *1127:Q 0
10 *277:35 0.000434485
11 *277:26 0.000174742
12 *277:20 0.000151876
13 *277:18 0.000153367
14 *277:16 0.000284314
15 *277:10 0.000879008
16 *277:4 0.000474897
17 *1052:A1 *325:35 7.79781e-06
18 *1052:A1 *347:16 0.000318101
19 *1057:B1_N *1057:A1 5.30637e-06
20 *1057:B1_N *1057:A2 0.000155623
21 *1057:B1_N *1065:B 3.34295e-05
22 *1057:B1_N *1066:B 3.34366e-05
23 *1057:B1_N *319:6 3.00924e-05
24 *1057:B1_N *319:21 5.71472e-05
25 *1061:A1 *336:42 9.71197e-05
26 *277:10 *1127:RESET_B 9.57064e-05
27 *277:10 *336:34 1.08359e-05
28 *277:10 *347:16 9.90431e-05
29 *277:16 *1051:B 5.52238e-05
30 *277:16 *1051:C 4.38128e-05
31 *277:16 *325:35 0
32 *277:16 *336:34 0.000179053
33 *277:18 *1051:B 8.46829e-05
34 *277:18 *1051:C 0.00014183
35 *277:18 *279:43 0.000492333
36 *277:18 *280:38 0.000230773
37 *277:20 *279:36 0.000144773
38 *277:20 *279:43 0.000128496
39 *277:20 *280:38 6.05161e-06
40 *277:20 *325:79 0.000159846
41 *277:26 *1073:C 6.76935e-05
42 *277:26 *279:23 6.25993e-05
43 *277:26 *279:36 8.23247e-06
44 *277:26 *325:79 0.000240905
45 *277:35 *1065:B 1.51018e-05
46 *277:35 *1073:C 0
47 *277:35 *279:23 0.000137983
48 *1052:B1 *1052:A1 5.80706e-06
49 *1053:A2 *1052:A1 0
50 *1053:B1_N *1052:A1 9.32966e-05
51 *1061:A0 *1057:B1_N 6.71764e-05
52 *1061:A0 *1061:A1 5.52302e-05
53 *1061:S *1061:A1 8.37135e-05
54 *1067:B1 *1057:B1_N 5.01213e-05
55 *1067:B2 *1057:B1_N 3.93893e-05
56 *1076:C1 *1057:B1_N 5.71472e-05
*RES
1 *1127:Q *277:4 9.3 
2 *277:4 *277:10 8 
3 *277:10 *277:16 9.41071 
4 *277:16 *277:18 5.46429 
5 *277:18 *277:20 2.58929 
6 *277:20 *277:26 3.44643 
7 *277:26 *1065:A 9.3 
8 *277:26 *277:35 1.78571 
9 *277:35 *1057:B1_N 26.0143 
10 *277:35 *1066:A 9.3 
11 *277:20 *1073:A 9.3 
12 *277:18 *1074:A1 9.3 
13 *277:16 *1056:A 9.3 
14 *277:10 *1061:A1 20.4964 
15 *277:4 *1052:A1 25.3714 
*END

*D_NET *278 0.00465588
*CONN
*I *1069:A1 I *D sky130_fd_sc_hd__mux2_1
*I *1051:A I *D sky130_fd_sc_hd__nor3_1
*I *1056:B I *D sky130_fd_sc_hd__or4_1
*I *1074:A2 I *D sky130_fd_sc_hd__o21ai_1
*I *1073:B I *D sky130_fd_sc_hd__or3_1
*I *1065:B I *D sky130_fd_sc_hd__nor2_1
*I *1066:B I *D sky130_fd_sc_hd__and2_1
*I *1128:Q O *D sky130_fd_sc_hd__dfrtp_2
*CAP
1 *1069:A1 2.52229e-05
2 *1051:A 0.000230388
3 *1056:B 0
4 *1074:A2 0
5 *1073:B 0
6 *1065:B 4.11895e-05
7 *1066:B 6.9275e-05
8 *1128:Q 0.000318235
9 *278:56 0.000644468
10 *278:49 0.000569774
11 *278:42 0.000387423
12 *278:27 0.00034324
13 *278:12 0.000260207
14 *278:10 0.000464068
15 *1051:A *1051:B 9.31893e-05
16 *1066:B *279:23 2.89016e-05
17 *278:27 *279:23 9.71197e-05
18 *278:42 *279:23 0.000318443
19 *278:42 *279:36 1.56682e-05
20 *278:49 *279:36 7.32955e-05
21 *278:49 *279:43 5.17614e-05
22 *278:56 *1051:B 5.17614e-05
23 *278:56 *279:43 0.000288644
24 *1057:B1_N *1065:B 3.34295e-05
25 *1057:B1_N *1066:B 3.34366e-05
26 *1061:A0 *1065:B 3.69697e-05
27 *1061:A0 *278:10 9.90431e-05
28 *1061:A0 *278:12 0
29 *1077:S *1069:A1 5.52238e-05
30 *170:6 *1051:A 1.03968e-05
31 *277:35 *1065:B 1.51018e-05
*RES
1 *1128:Q *278:10 18.0321 
2 *278:10 *278:12 1.94643 
3 *278:12 *1066:B 15.3714 
4 *278:12 *278:27 5.44643 
5 *278:27 *1065:B 19.4875 
6 *278:27 *278:42 3.41071 
7 *278:42 *1073:B 9.3 
8 *278:42 *278:49 2.17857 
9 *278:49 *1074:A2 9.3 
10 *278:49 *278:56 5.875 
11 *278:56 *1056:B 9.3 
12 *278:56 *1051:A 12.6214 
13 *278:10 *1069:A1 14.3357 
*END

*D_NET *279 0.00422656
*CONN
*I *1051:B I *D sky130_fd_sc_hd__nor3_1
*I *1056:C I *D sky130_fd_sc_hd__or4_1
*I *1074:B1 I *D sky130_fd_sc_hd__o21ai_1
*I *1073:C I *D sky130_fd_sc_hd__or3_1
*I *1077:A1 I *D sky130_fd_sc_hd__mux2_1
*I *1129:Q O *D sky130_fd_sc_hd__dfrtp_1
*CAP
1 *1051:B 5.91294e-05
2 *1056:C 0
3 *1074:B1 0
4 *1073:C 2.82362e-05
5 *1077:A1 0
6 *1129:Q 0.000183928
7 *279:43 0.000162796
8 *279:36 0.000126171
9 *279:23 0.000554039
10 *279:12 0.000687226
11 *1051:B *1051:C 4.88637e-05
12 *1051:A *1051:B 9.31893e-05
13 *1066:B *279:23 2.89016e-05
14 *1067:B2 *279:23 1.40306e-05
15 *1069:A0 *279:12 0.00013785
16 *1077:S *279:12 6.05161e-06
17 *170:6 *1051:B 1.74352e-05
18 *277:16 *1051:B 5.52238e-05
19 *277:18 *1051:B 8.46829e-05
20 *277:18 *279:43 0.000492333
21 *277:20 *279:36 0.000144773
22 *277:20 *279:43 0.000128496
23 *277:26 *1073:C 6.76935e-05
24 *277:26 *279:23 6.25993e-05
25 *277:26 *279:36 8.23247e-06
26 *277:35 *1073:C 0
27 *277:35 *279:23 0.000137983
28 *278:27 *279:23 9.71197e-05
29 *278:42 *279:23 0.000318443
30 *278:42 *279:36 1.56682e-05
31 *278:49 *279:36 7.32955e-05
32 *278:49 *279:43 5.17614e-05
33 *278:56 *1051:B 5.17614e-05
34 *278:56 *279:43 0.000288644
*RES
1 *1129:Q *279:12 20.8893 
2 *279:12 *1077:A1 9.3 
3 *279:12 *279:23 10.5759 
4 *279:23 *1073:C 10.492 
5 *279:23 *279:36 1.62054 
6 *279:36 *1074:B1 9.3 
7 *279:36 *279:43 5.875 
8 *279:43 *1056:C 9.3 
9 *279:43 *1051:B 11.8893 
*END

*D_NET *280 0.00530901
*CONN
*I *1051:C I *D sky130_fd_sc_hd__nor3_1
*I *1056:D I *D sky130_fd_sc_hd__or4_1
*I *1080:C1 I *D sky130_fd_sc_hd__o211a_1
*I *986:A I *D sky130_fd_sc_hd__inv_2
*I *1130:Q O *D sky130_fd_sc_hd__dfrtp_1
*CAP
1 *1051:C 0.000137434
2 *1056:D 0
3 *1080:C1 8.78136e-05
4 *986:A 0.000316445
5 *1130:Q 0.000417598
6 *280:38 0.000526983
7 *280:19 0.000817982
8 *280:6 0.00107466
9 *1080:C1 *302:18 1.5471e-05
10 *1080:C1 *302:28 7.21765e-05
11 *1080:C1 *325:63 5.33005e-05
12 *280:6 *1130:RESET_B 0.000135163
13 *280:19 *1054:B 0.00015739
14 *280:19 *1080:A1 3.34295e-05
15 *280:19 *1080:A2 3.67548e-05
16 *280:19 *324:23 5.10822e-05
17 *280:38 *1080:A1 2.24646e-05
18 *280:38 *325:67 3.57844e-05
19 *1045:B2 *280:19 0
20 *1051:B *1051:C 4.88637e-05
21 *1075:B1 *1080:C1 3.4855e-05
22 *1075:B2 *1080:C1 9.80173e-05
23 *1080:B1 *1080:C1 5.52302e-05
24 *1081:B1 *280:19 0.000361241
25 *1083:B1 *280:19 0.000125724
26 *1130:CLK *986:A 1.74352e-05
27 *1130:D *986:A 0.000139907
28 *170:6 *1051:C 1.33343e-05
29 *277:16 *1051:C 4.38128e-05
30 *277:18 *1051:C 0.00014183
31 *277:18 *280:38 0.000230773
32 *277:20 *280:38 6.05161e-06
*RES
1 *1130:Q *280:6 14.3536 
2 *280:6 *986:A 13.4429 
3 *280:6 *280:19 14.0357 
4 *280:19 *1080:C1 16.4071 
5 *280:19 *280:38 10.5 
6 *280:38 *1056:D 9.3 
7 *280:38 *1051:C 12.3179 
*END

*D_NET *281 0.00870338
*CONN
*I *1019:A I *D sky130_fd_sc_hd__nor2_1
*I *1020:A I *D sky130_fd_sc_hd__or3_1
*I *1021:A I *D sky130_fd_sc_hd__nor4_1
*I *1030:A1 I *D sky130_fd_sc_hd__a2111o_1
*I *1022:A I *D sky130_fd_sc_hd__or4_1
*I *1109:D_N I *D sky130_fd_sc_hd__or4b_1
*I *1043:A1 I *D sky130_fd_sc_hd__o31a_1
*I *1038:A1 I *D sky130_fd_sc_hd__o21ai_1
*I *1027:A1_N I *D sky130_fd_sc_hd__a2bb2o_1
*I *1029:A0 I *D sky130_fd_sc_hd__mux2_1
*I *1121:Q O *D sky130_fd_sc_hd__dfrtp_4
*CAP
1 *1019:A 2.3932e-05
2 *1020:A 0
3 *1021:A 0
4 *1030:A1 0.000511867
5 *1022:A 0.000286074
6 *1109:D_N 2.22809e-05
7 *1043:A1 0
8 *1038:A1 0
9 *1027:A1_N 2.49344e-05
10 *1029:A0 7.38818e-05
11 *1121:Q 0
12 *281:74 0.000621592
13 *281:65 0.000475747
14 *281:57 0.000804642
15 *281:50 0.000310438
16 *281:44 0.000535464
17 *281:36 0.000467214
18 *281:20 0.000413435
19 *281:4 0.00040261
20 *1019:A *1045:A2 2.59355e-05
21 *1022:A *1022:C 0.000148342
22 *1022:A *1109:A 0.000214584
23 *1022:A *284:18 0.00014183
24 *1030:A1 *1021:D 0.000232399
25 *1030:A1 *283:41 4.43256e-05
26 *1030:A1 *283:54 2.44318e-05
27 *281:20 *1045:A2 6.05161e-06
28 *281:20 *1121:RESET_B 1.56604e-06
29 *281:20 *1216:A 0
30 *281:20 *332:24 9.82612e-05
31 *281:36 *1045:A2 0.000216862
32 *281:44 *1033:A1 2.65208e-05
33 *281:50 *283:34 6.12927e-05
34 *281:50 *283:41 5.97398e-05
35 *281:57 *283:41 0.000358971
36 *281:65 *282:21 9.25014e-06
37 *281:65 *282:30 6.73939e-05
38 *281:65 *282:61 9.40095e-05
39 *281:65 *282:76 4.56437e-05
40 *281:74 *1043:B1 0.000126629
41 *1028:A2 *281:20 0.000168779
42 *1029:A1 *1029:A0 2.89016e-05
43 *1029:S *1027:A1_N 8.13309e-05
44 *1029:S *1029:A0 9.66977e-05
45 *1029:S *281:20 1.5181e-05
46 *1033:B1 *281:44 5.66157e-05
47 *1034:B1 *281:44 0
48 *1039:A1 *281:44 6.58195e-05
49 *1040:B2 *281:20 2.03008e-05
50 *1044:A1 *281:65 5.33005e-05
51 *1044:A1 *281:74 4.51641e-05
52 *1045:B1 *1019:A 6.05161e-06
53 *1110:D *1022:A 2.14757e-05
54 *1125:D *1030:A1 0.000148189
55 *1198:A *281:44 0
56 *1199:A *281:44 0
57 *1200:A *1030:A1 6.19181e-05
58 *1265:A *1022:A 5.18086e-05
59 *1265:A *281:74 1.15281e-05
60 *148:12 *1030:A1 1.00375e-05
61 *149:32 *281:65 0
62 *150:59 *1019:A 1.98839e-05
63 *150:59 *281:20 5.62793e-05
64 *150:59 *281:36 0.00021081
65 *239:46 *281:20 5.37664e-05
66 *253:8 *1027:A1_N 3.45112e-05
67 *253:8 *1029:A0 0.00011979
68 *267:25 *1030:A1 0.000137529
69 *267:25 *281:44 0.000123673
70 *267:25 *281:50 2.58821e-05
*RES
1 *1121:Q *281:4 9.3 
2 *281:4 *281:20 24.1071 
3 *281:20 *1029:A0 11.4786 
4 *281:20 *1027:A1_N 10.108 
5 *281:4 *281:36 3.82143 
6 *281:36 *281:44 16.1607 
7 *281:44 *281:50 3.44643 
8 *281:50 *1038:A1 9.3 
9 *281:50 *281:57 3.41071 
10 *281:57 *281:65 12.3929 
11 *281:65 *1043:A1 9.3 
12 *281:65 *281:74 4.55357 
13 *281:74 *1109:D_N 9.72857 
14 *281:74 *1022:A 14.8 
15 *281:57 *1030:A1 28.6036 
16 *281:57 *1021:A 9.3 
17 *281:44 *1020:A 9.3 
18 *281:36 *1019:A 9.83571 
*END

*D_NET *282 0.0077112
*CONN
*I *1022:B I *D sky130_fd_sc_hd__or4_1
*I *1109:A I *D sky130_fd_sc_hd__or4b_1
*I *1043:A2 I *D sky130_fd_sc_hd__o31a_1
*I *1038:A2 I *D sky130_fd_sc_hd__o21ai_1
*I *1020:B I *D sky130_fd_sc_hd__or3_1
*I *1019:B I *D sky130_fd_sc_hd__nor2_1
*I *1021:B I *D sky130_fd_sc_hd__nor4_1
*I *1034:A1 I *D sky130_fd_sc_hd__a22o_1
*I *1122:Q O *D sky130_fd_sc_hd__dfrtp_2
*CAP
1 *1022:B 0.000440558
2 *1109:A 8.76356e-05
3 *1043:A2 2.84912e-05
4 *1038:A2 0
5 *1020:B 0
6 *1019:B 0.00021466
7 *1021:B 0
8 *1034:A1 0.000223974
9 *1122:Q 0.00048093
10 *282:76 0.000907545
11 *282:61 0.000446975
12 *282:36 0.000318075
13 *282:34 0.000395888
14 *282:30 0.000370424
15 *282:21 0.000160903
16 *282:10 0.000826989
17 *1019:B *1045:A2 7.99498e-05
18 *1022:B *1022:C 4.46186e-06
19 *1022:B *1216:A 8.87461e-06
20 *1109:A *1022:C 9.0145e-05
21 *1109:A *284:40 2.90913e-05
22 *282:10 *1122:RESET_B 0
23 *282:21 *1021:D 0
24 *282:30 *1021:D 0
25 *282:30 *283:54 2.61337e-05
26 *282:61 *283:54 5.10822e-05
27 *282:76 *1021:D 0
28 *282:76 *1216:A 0.000137961
29 *282:76 *283:54 4.46186e-06
30 *282:76 *326:28 0
31 *1022:A *1109:A 0.000214584
32 *1034:A2 *1034:A1 0.000446597
33 *1034:B1 *1019:B 0.000160722
34 *1039:A2 *1019:B 0.000151333
35 *1044:A1 *1043:A2 5.52302e-05
36 *1045:A1 *1019:B 2.84398e-05
37 *1045:B1 *1019:B 0.000141445
38 *1045:C1 *1019:B 0
39 *1050:A1 *1022:B 7.69776e-06
40 *1122:D *282:10 0
41 *1265:A *1022:B 0.000221641
42 *149:12 *1034:A1 2.14757e-05
43 *149:32 *1019:B 0
44 *149:32 *282:21 0
45 *199:20 *282:10 0.000141337
46 *267:25 *282:34 0.000430313
47 *267:25 *282:36 0.000138881
48 *281:65 *282:21 9.25014e-06
49 *281:65 *282:30 6.73939e-05
50 *281:65 *282:61 9.40095e-05
51 *281:65 *282:76 4.56437e-05
*RES
1 *1122:Q *282:10 22.8 
2 *282:10 *1034:A1 18.4429 
3 *282:10 *282:21 1.94643 
4 *282:21 *1021:B 13.8 
5 *282:21 *282:30 1.03571 
6 *282:30 *282:34 8.73214 
7 *282:34 *282:36 1.35714 
8 *282:36 *1019:B 24.1393 
9 *282:36 *1020:B 9.3 
10 *282:34 *1038:A2 9.3 
11 *282:30 *282:61 1.33929 
12 *282:61 *1043:A2 14.3357 
13 *282:61 *282:76 5.0616 
14 *282:76 *1109:A 19.6832 
15 *282:76 *1022:B 20.1636 
*END

*D_NET *283 0.00560596
*CONN
*I *1043:A3 I *D sky130_fd_sc_hd__o31a_1
*I *1109:B I *D sky130_fd_sc_hd__or4b_1
*I *1022:C I *D sky130_fd_sc_hd__or4_1
*I *1021:C I *D sky130_fd_sc_hd__nor4_1
*I *1038:B1 I *D sky130_fd_sc_hd__o21ai_1
*I *1020:C I *D sky130_fd_sc_hd__or3_1
*I *1041:A0 I *D sky130_fd_sc_hd__mux2_1
*I *1123:Q O *D sky130_fd_sc_hd__dfrtp_1
*CAP
1 *1043:A3 0
2 *1109:B 0
3 *1022:C 0.000123164
4 *1021:C 0
5 *1038:B1 0
6 *1020:C 0
7 *1041:A0 0
8 *1123:Q 0.000181356
9 *283:58 0.000388217
10 *283:54 0.000373814
11 *283:41 0.000217271
12 *283:34 0.000145986
13 *283:25 0.000276106
14 *283:8 0.000419985
15 *1022:C *1021:D 2.84494e-05
16 *1022:C *284:40 2.04825e-05
17 *283:8 *1123:RESET_B 1.24368e-05
18 *283:8 *332:36 0.000137983
19 *283:25 *326:34 3.34783e-05
20 *283:54 *1021:D 0
21 *1022:A *1022:C 0.000148342
22 *1022:B *1022:C 4.46186e-06
23 *1030:A1 *283:41 4.43256e-05
24 *1030:A1 *283:54 2.44318e-05
25 *1034:B1 *283:25 0.000160961
26 *1039:A2 *283:25 5.58941e-05
27 *1041:A1 *283:8 0.000492333
28 *1041:A1 *283:25 5.71472e-05
29 *1041:S *283:25 1.95646e-05
30 *1044:A1 *283:58 3.03071e-05
31 *1109:A *1022:C 9.0145e-05
32 *1123:D *283:8 0.000145019
33 *1265:A *1022:C 0.00035252
34 *1265:A *283:58 0.000313241
35 *145:10 *283:54 0.000102545
36 *267:25 *283:34 1.98839e-05
37 *267:25 *283:41 0.000569201
38 *267:25 *283:54 5.52238e-05
39 *281:50 *283:34 6.12927e-05
40 *281:50 *283:41 5.97398e-05
41 *281:57 *283:41 0.000358971
42 *282:30 *283:54 2.61337e-05
43 *282:61 *283:54 5.10822e-05
44 *282:76 *283:54 4.46186e-06
*RES
1 *1123:Q *283:8 15.1929 
2 *283:8 *1041:A0 9.3 
3 *283:8 *283:25 13.7857 
4 *283:25 *1020:C 9.3 
5 *283:25 *283:34 0.964286 
6 *283:34 *1038:B1 9.3 
7 *283:34 *283:41 5.46429 
8 *283:41 *1021:C 9.3 
9 *283:41 *283:54 11.4821 
10 *283:54 *283:58 3.83929 
11 *283:58 *1022:C 22.4429 
12 *283:58 *1109:B 9.3 
13 *283:54 *1043:A3 9.3 
*END

*D_NET *284 0.00523665
*CONN
*I *1222:A I *D sky130_fd_sc_hd__dlygate4sd3_1
*I *1022:D I *D sky130_fd_sc_hd__or4_1
*I *1109:C I *D sky130_fd_sc_hd__or4b_1
*I *1043:B1 I *D sky130_fd_sc_hd__o31a_1
*I *1021:D I *D sky130_fd_sc_hd__nor4_1
*I *1124:Q O *D sky130_fd_sc_hd__dfrtp_1
*CAP
1 *1222:A 0.000122067
2 *1022:D 0
3 *1109:C 0
4 *1043:B1 4.58856e-05
5 *1021:D 0.000208857
6 *1124:Q 0.000155717
7 *284:40 0.000530323
8 *284:30 0.00049767
9 *284:18 0.000650107
10 *284:8 0.000705802
11 *284:30 *326:28 5.75147e-05
12 *1022:A *284:18 0.00014183
13 *1022:C *1021:D 2.84494e-05
14 *1022:C *284:40 2.04825e-05
15 *1030:A1 *1021:D 0.000232399
16 *1044:A1 *1043:B1 1.33343e-05
17 *1050:A1 *1021:D 0
18 *1050:A1 *1222:A 9.90367e-05
19 *1050:A1 *284:30 0.000148189
20 *1050:A1 *284:40 4.46689e-05
21 *1109:A *284:40 2.90913e-05
22 *1110:D *284:18 0.000181803
23 *1118:B1 *1222:A 0
24 *1118:B1 *284:18 0
25 *1125:CLK *284:18 0
26 *1125:D *1222:A 6.98302e-05
27 *1125:D *284:18 0.000589182
28 *1125:D *284:30 5.86416e-05
29 *1201:A *1222:A 0
30 *1265:A *1043:B1 0.000117621
31 *1265:A *284:18 1.74352e-05
32 *145:10 *1021:D 0
33 *148:12 *284:30 9.41642e-05
34 *220:10 *284:18 0
35 *267:8 *284:30 0.000123288
36 *267:25 *1021:D 0.000126629
37 *271:14 *284:18 0
38 *281:74 *1043:B1 0.000126629
39 *282:21 *1021:D 0
40 *282:30 *1021:D 0
41 *282:76 *1021:D 0
42 *283:54 *1021:D 0
*RES
1 *1124:Q *284:8 15.5679 
2 *284:8 *284:18 14.6429 
3 *284:18 *284:30 18.8571 
4 *284:30 *284:40 5.10714 
5 *284:40 *1021:D 18.8357 
6 *284:40 *1043:B1 15.9786 
7 *284:30 *1109:C 13.8 
8 *284:18 *1022:D 9.3 
9 *284:8 *1222:A 16.3893 
*END

*D_NET *285 0.00824517
*CONN
*I *1104:A1 I *D sky130_fd_sc_hd__a21o_1
*I *1024:A_N I *D sky130_fd_sc_hd__and3b_1
*I *1110:B I *D sky130_fd_sc_hd__and4_1
*I *1223:X O *D sky130_fd_sc_hd__buf_1
*CAP
1 *1104:A1 2.06112e-05
2 *1024:A_N 4.07632e-05
3 *1110:B 0
4 *1223:X 0.00134473
5 *285:28 0.00141027
6 *285:18 0.00273485
7 *1024:A_N *1024:C 5.71472e-05
8 *1024:A_N *326:91 7.32955e-05
9 *1024:A_N *327:52 8.76257e-05
10 *285:18 *1049:A 0.00013662
11 *285:18 *1159:A 0.000227021
12 *285:18 *1254:A 0.000232399
13 *285:18 *1258:A 0.000177941
14 *285:18 *299:8 0.000123756
15 *285:18 *330:34 2.9912e-05
16 *285:18 *330:64 0
17 *285:18 *330:75 0
18 *285:18 *330:88 0
19 *285:28 *1003:D_N 2.27416e-05
20 *285:28 *326:91 5.52238e-05
21 *285:28 *327:52 3.9846e-05
22 *285:28 *330:19 2.49291e-05
23 *285:28 *330:34 0.000122031
24 bvalid *285:18 0
25 rdata[2] *285:18 0
26 *1003:A *285:28 6.19351e-05
27 *1008:A *285:18 0.00018372
28 *1008:B *1104:A1 0
29 *1008:B *285:18 4.01656e-05
30 *1104:A2 *285:18 5.52302e-05
31 *1104:A2 *285:28 1.24368e-05
32 *1110:D *285:28 5.33005e-05
33 *1155:D *285:28 0.000318107
34 *1156:CLK *285:28 0.000157867
35 *1156:D *285:28 4.01768e-05
36 *1210:A *285:28 4.72818e-05
37 *1223:A *285:18 0
38 *1237:A *285:18 0
39 *243:10 *285:28 0.000313241
40 *272:10 *285:18 0
*RES
1 *1223:X *285:18 45.8536 
2 *285:18 *285:28 21.3571 
3 *285:28 *1110:B 9.3 
4 *285:28 *1024:A_N 11.0857 
5 *285:18 *1104:A1 9.72857 
*END

*D_NET *286 0.000687941
*CONN
*I *1154:D I *D sky130_fd_sc_hd__dfrtp_1
*I *1224:X O *D sky130_fd_sc_hd__clkbuf_1
*CAP
1 *1154:D 0.000279897
2 *1224:X 0.000279897
3 *1154:D *1152:D 0.000128146
4 *1154:CLK *1154:D 0
*RES
1 *1224:X *1154:D 32.3143 
*END

*D_NET *287 0.00205365
*CONN
*I *1141:D I *D sky130_fd_sc_hd__dfrtp_1
*I *1225:X O *D sky130_fd_sc_hd__clkbuf_1
*CAP
1 *1141:D 0.000626801
2 *1225:X 0.000626801
3 *1141:D *1155:RESET_B 0
4 *1141:D *1255:A 0.000800049
5 *1141:D *333:105 0
*RES
1 *1225:X *1141:D 36.8679 
*END

*D_NET *288 0.000278181
*CONN
*I *1134:D I *D sky130_fd_sc_hd__dfrtp_1
*I *1226:X O *D sky130_fd_sc_hd__clkbuf_1
*CAP
1 *1134:D 0.000119692
2 *1226:X 0.000119692
3 *1134:CLK *1134:D 1.08881e-05
4 *1226:A *1134:D 2.79092e-05
*RES
1 *1226:X *1134:D 29.3545 
*END

*D_NET *289 0.000233248
*CONN
*I *1135:D I *D sky130_fd_sc_hd__dfrtp_1
*I *1227:X O *D sky130_fd_sc_hd__clkbuf_1
*CAP
1 *1135:D 0.000107979
2 *1227:X 0.000107979
3 *1135:CLK *1135:D 1.72894e-05
4 *1227:A *1135:D 0
*RES
1 *1227:X *1135:D 29.475 
*END

*D_NET *290 0.000720211
*CONN
*I *1136:D I *D sky130_fd_sc_hd__dfrtp_1
*I *1228:X O *D sky130_fd_sc_hd__clkbuf_1
*CAP
1 *1136:D 0.000316931
2 *1228:X 0.000316931
3 *1136:D *1256:A 0
4 *1092:C1 *1136:D 1.76135e-05
5 *1139:CLK *1136:D 4.94455e-05
6 *1228:A *1136:D 1.92905e-05
*RES
1 *1228:X *1136:D 32.725 
*END

*D_NET *291 0.000514912
*CONN
*I *1143:D I *D sky130_fd_sc_hd__dfrtp_1
*I *1229:X O *D sky130_fd_sc_hd__clkbuf_1
*CAP
1 *1143:D 0.000247811
2 *1229:X 0.000247811
3 *1143:D *1145:D 0
4 *1229:A *1143:D 1.92905e-05
*RES
1 *1229:X *1143:D 31.0107 
*END

*D_NET *292 0.00102254
*CONN
*I *1144:D I *D sky130_fd_sc_hd__dfrtp_1
*I *1230:X O *D sky130_fd_sc_hd__clkbuf_1
*CAP
1 *1144:D 0.000470904
2 *1230:X 0.000470904
3 *1144:CLK *1144:D 8.07313e-05
*RES
1 *1230:X *1144:D 35.225 
*END

*D_NET *293 0.000211304
*CONN
*I *1147:D I *D sky130_fd_sc_hd__dfrtp_1
*I *1231:X O *D sky130_fd_sc_hd__clkbuf_1
*CAP
1 *1147:D 5.94176e-05
2 *1231:X 5.94176e-05
3 *1147:D *302:18 7.83659e-05
4 *1240:A *1147:D 1.41029e-05
*RES
1 *1231:X *1147:D 28.9393 
*END

*D_NET *294 0.000762428
*CONN
*I *1148:D I *D sky130_fd_sc_hd__dfrtp_1
*I *1232:X O *D sky130_fd_sc_hd__clkbuf_1
*CAP
1 *1148:D 0.000144771
2 *1232:X 0.000144771
3 *1148:D *1149:D 0.000177234
4 *1232:A *1148:D 0.000295653
*RES
1 *1232:X *1148:D 31.9036 
*END

*D_NET *295 0.000790332
*CONN
*I *1149:D I *D sky130_fd_sc_hd__dfrtp_1
*I *1233:X O *D sky130_fd_sc_hd__clkbuf_1
*CAP
1 *1149:D 0.000288181
2 *1233:X 0.000288181
3 *1148:D *1149:D 0.000177234
4 *1232:A *1149:D 3.67356e-05
*RES
1 *1233:X *1149:D 32.8143 
*END

*D_NET *296 0.000931424
*CONN
*I *1137:D I *D sky130_fd_sc_hd__dfrtp_1
*I *1234:X O *D sky130_fd_sc_hd__clkbuf_1
*CAP
1 *1137:D 0.000428234
2 *1234:X 0.000428234
3 *1137:D *334:12 7.49566e-05
*RES
1 *1234:X *1137:D 25.85 
*END

*D_NET *297 0.000323712
*CONN
*I *1150:D I *D sky130_fd_sc_hd__dfrtp_1
*I *1235:X O *D sky130_fd_sc_hd__clkbuf_1
*CAP
1 *1150:D 0.000129106
2 *1235:X 0.000129106
3 *1235:A *1150:D 5.92267e-05
4 *269:38 *1150:D 2.83284e-06
5 *269:47 *1150:D 3.43988e-06
*RES
1 *1235:X *1150:D 29.7786 
*END

*D_NET *298 0.00161359
*CONN
*I *1140:D I *D sky130_fd_sc_hd__dfrtp_1
*I *1236:X O *D sky130_fd_sc_hd__clkbuf_1
*CAP
1 *1140:D 0.000629469
2 *1236:X 0.000629469
3 *1140:D *1009:B 0
4 *1140:D *1160:A 0.000276317
5 *1140:D *1260:A 0
6 *1053:A1 *1140:D 7.83366e-05
*RES
1 *1236:X *1140:D 41.0821 
*END

*D_NET *299 0.00178262
*CONN
*I *1100:A2 I *D sky130_fd_sc_hd__o21ai_1
*I *1049:A I *D sky130_fd_sc_hd__and2_1
*I *1237:X O *D sky130_fd_sc_hd__clkbuf_1
*CAP
1 *1100:A2 0.000187319
2 *1049:A 0.000231126
3 *1237:X 0.00016225
4 *299:8 0.000580695
5 *1100:A2 *1101:A1 0.000148165
6 bresp *1049:A 0.00012178
7 *1237:A *299:8 6.27457e-05
8 *1239:A *1049:A 1.05524e-05
9 *1239:A *299:8 1.76135e-05
10 *285:18 *1049:A 0.00013662
11 *285:18 *299:8 0.000123756
*RES
1 *1237:X *299:8 18.175 
2 *299:8 *1049:A 19.425 
3 *299:8 *1100:A2 17.6214 
*END

*D_NET *300 0.00753337
*CONN
*I *1215:A I *D sky130_fd_sc_hd__clkbuf_4
*I *1216:A I *D sky130_fd_sc_hd__buf_2
*I *1214:A I *D sky130_fd_sc_hd__clkbuf_2
*I *1238:X O *D sky130_fd_sc_hd__buf_1
*CAP
1 *1215:A 0.00034818
2 *1216:A 0.00151943
3 *1214:A 0.000277692
4 *1238:X 5.05962e-05
5 *300:21 0.00280109
6 *300:6 0.00126177
7 *1214:A *1153:D 0
8 *1214:A *1212:A 0
9 *1214:A *334:58 0.000140311
10 *1216:A *326:28 0.000122494
11 *300:21 *1121:RESET_B 4.36599e-05
12 *1022:B *1216:A 8.87461e-06
13 *1029:A1 *1215:A 7.83659e-05
14 *1029:S *1215:A 3.59076e-05
15 *1031:A *1215:A 3.69047e-06
16 *1050:A1 *1216:A 0
17 *1197:A *1216:A 0.000499082
18 *251:6 *1215:A 7.73814e-05
19 *252:14 *1215:A 0.000102228
20 *252:14 *1216:A 2.46553e-05
21 *281:20 *1216:A 0
22 *282:76 *1216:A 0.000137961
*RES
1 *1238:X *300:6 9.83571 
2 *300:6 *1214:A 24.1929 
3 *300:6 *300:21 15.3036 
4 *300:21 *1216:A 25.431 
5 *300:21 *1215:A 20.5679 
*END

*D_NET *301 0.00128297
*CONN
*I *1101:A1 I *D sky130_fd_sc_hd__a32o_1
*I *1239:X O *D sky130_fd_sc_hd__clkbuf_1
*CAP
1 *1101:A1 0.000496529
2 *1239:X 0.000496529
3 *1101:A1 *1100:B1 1.32552e-05
4 *1100:A2 *1101:A1 0.000148165
5 *1101:B1 *1101:A1 0.000122424
6 *1101:B2 *1101:A1 6.06291e-06
*RES
1 *1239:X *1101:A1 25.3143 
*END

*D_NET *302 0.00816732
*CONN
*I *1106:A_N I *D sky130_fd_sc_hd__and3b_1
*I *1105:A_N I *D sky130_fd_sc_hd__nand2b_1
*I *1240:X O *D sky130_fd_sc_hd__buf_1
*CAP
1 *1106:A_N 1.89274e-05
2 *1105:A_N 0.000140415
3 *1240:X 0.00218989
4 *302:28 0.000628897
5 *302:18 0.00265945
6 *1105:A_N *1054:A 4.46186e-06
7 *1105:A_N *325:37 0.000111805
8 *1106:A_N *317:47 3.30352e-05
9 *302:18 *1067:A1 2.14658e-05
10 *302:18 *1075:A2_N 1.5471e-05
11 *302:18 *1147:RESET_B 4.85567e-05
12 *302:18 *1263:A 0.000494133
13 *302:18 *324:33 6.2169e-05
14 *302:18 *324:37 1.56e-05
15 *302:18 *325:94 2.59355e-05
16 *302:28 *317:47 4.53889e-05
17 *302:28 *324:33 0.000210051
18 *302:28 *325:63 0.000346812
19 *1067:B1 *302:18 0.000268403
20 *1075:B1 *302:18 9.7049e-06
21 *1075:B1 *302:28 0.000111383
22 *1075:B2 *302:18 7.43578e-06
23 *1075:B2 *302:28 9.22103e-06
24 *1080:B1 *302:28 3.03304e-05
25 *1080:C1 *302:18 1.5471e-05
26 *1080:C1 *302:28 7.21765e-05
27 *1106:C *1106:A_N 9.90431e-05
28 *1106:C *302:28 0.000313241
29 *1147:D *302:18 7.83659e-05
30 *1240:A *302:18 8.00806e-05
31 *167:25 *1105:A_N 0
32 *167:36 *1105:A_N 0
*RES
1 *1240:X *302:18 48.5679 
2 *302:18 *302:28 13.1429 
3 *302:28 *1105:A_N 21.1571 
4 *302:28 *1106:A_N 10.2464 
*END

*D_NET *303 0.00100075
*CONN
*I *1142:D I *D sky130_fd_sc_hd__dfrtp_1
*I *1241:X O *D sky130_fd_sc_hd__clkbuf_1
*CAP
1 *1142:D 0.000475641
2 *1241:X 0.000475641
3 *1142:CLK *1142:D 4.94643e-05
*RES
1 *1241:X *1142:D 25.0286 
*END

*D_NET *304 0.000599346
*CONN
*I *1251:A I *D sky130_fd_sc_hd__buf_2
*I *1010:X O *D sky130_fd_sc_hd__and2_1
*CAP
1 *1251:A 0.000277198
2 *1010:X 0.000277198
3 *1251:A *1139:D 0
4 *1251:A *1252:A 0
5 *1251:A *332:56 0
6 *1010:A *1251:A 1.92905e-05
7 *1097:A1 *1251:A 2.56601e-05
*RES
1 *1010:X *1251:A 32.5107 
*END

*D_NET *305 0.00178275
*CONN
*I *1252:A I *D sky130_fd_sc_hd__buf_2
*I *1011:X O *D sky130_fd_sc_hd__and2_1
*CAP
1 *1252:A 0.000672135
2 *1011:X 0.000672135
3 *1252:A *1253:A 0
4 *1252:A *310:24 0.000394975
5 *1012:B *1252:A 4.35048e-05
6 *1097:A1 *1252:A 0
7 *1251:A *1252:A 0
*RES
1 *1011:X *1252:A 38.225 
*END

*D_NET *306 0.0005923
*CONN
*I *1253:A I *D sky130_fd_sc_hd__buf_2
*I *1012:X O *D sky130_fd_sc_hd__and2_1
*CAP
1 *1253:A 0.000294083
2 *1012:X 0.000294083
3 *1253:A *1146:D 0
4 *1245:A *1253:A 4.1331e-06
5 *1252:A *1253:A 0
*RES
1 *1012:X *1253:A 32.5107 
*END

*D_NET *307 0.000186505
*CONN
*I *1138:D I *D sky130_fd_sc_hd__dfrtp_1
*I *1242:X O *D sky130_fd_sc_hd__clkbuf_1
*CAP
1 *1138:D 9.32525e-05
2 *1242:X 9.32525e-05
*RES
1 *1242:X *1138:D 29.2429 
*END

*D_NET *308 0.000493088
*CONN
*I *1254:A I *D sky130_fd_sc_hd__buf_2
*I *1008:X O *D sky130_fd_sc_hd__or2_1
*CAP
1 *1254:A 0.000130345
2 *1008:X 0.000130345
3 *285:18 *1254:A 0.000232399
*RES
1 *1008:X *1254:A 21.6 
*END

*D_NET *309 0.00261898
*CONN
*I *1255:A I *D sky130_fd_sc_hd__buf_2
*I *1099:A1 I *D sky130_fd_sc_hd__a21o_1
*I *996:Y O *D sky130_fd_sc_hd__nor2_1
*CAP
1 *1255:A 0.000465089
2 *1099:A1 0
3 *996:Y 0.00026975
4 *309:6 0.000734838
5 PWRITE *1255:A 2.62984e-05
6 *1023:A1 *309:6 2.14757e-05
7 *1099:B1 *1255:A 0.000232399
8 *1141:D *1255:A 0.000800049
9 *1225:A *1255:A 1.19402e-05
10 *239:14 *309:6 5.71472e-05
*RES
1 *996:Y *309:6 13.5321 
2 *309:6 *1099:A1 9.3 
3 *309:6 *1255:A 30.6214 
*END

*D_NET *310 0.0206107
*CONN
*I *1205:A I *D sky130_fd_sc_hd__buf_6
*I *1055:D I *D sky130_fd_sc_hd__nor4_1
*I *1108:A2 I *D sky130_fd_sc_hd__a21o_1
*I *1097:A2 I *D sky130_fd_sc_hd__a221o_1
*I *1087:A2 I *D sky130_fd_sc_hd__a221o_1
*I *1026:B I *D sky130_fd_sc_hd__nor2_2
*I *1092:A2 I *D sky130_fd_sc_hd__a221o_1
*I *1256:A I *D sky130_fd_sc_hd__buf_2
*I *1004:Y O *D sky130_fd_sc_hd__inv_2
*CAP
1 *1205:A 0.000323662
2 *1055:D 0.00015416
3 *1108:A2 2.46213e-05
4 *1097:A2 6.32198e-05
5 *1087:A2 0.00057525
6 *1026:B 0
7 *1092:A2 0
8 *1256:A 0.000419194
9 *1004:Y 9.9383e-05
10 *310:110 0.000956931
11 *310:95 0.00145258
12 *310:58 0.000782482
13 *310:34 0.000847111
14 *310:24 0.000821311
15 *310:20 0.00161303
16 *310:8 0.00241188
17 *1055:D *1055:C 0.000208536
18 *1055:D *317:10 4.34543e-05
19 *1087:A2 *1026:A 0.000142856
20 *1087:A2 *326:34 0
21 *1205:A *320:6 9.65799e-05
22 *1205:A *320:18 0.000309279
23 *1256:A *332:44 5.03787e-05
24 *310:8 *1017:S 0.000139907
25 *310:20 *1017:S 0.00018039
26 *310:20 *1133:RESET_B 0.000111052
27 *310:34 *1122:RESET_B 7.50601e-05
28 *310:34 *1136:RESET_B 7.40473e-05
29 *310:58 *1122:RESET_B 0.000313407
30 *310:95 *1018:A1 0.000127446
31 *310:95 *1156:RESET_B 2.41224e-05
32 *310:110 *317:10 0.000125724
33 *310:110 *320:18 9.41642e-05
34 arready *1256:A 5.33433e-05
35 *1010:B *310:34 6.8646e-06
36 *1011:A *310:24 0.00026353
37 *1014:A1 *310:95 0
38 *1017:A0 *310:20 8.08022e-05
39 *1017:A1 *310:20 6.05161e-06
40 *1018:A0 *310:20 0.000217409
41 *1018:A0 *310:95 0.000268521
42 *1086:A *1087:A2 7.27536e-05
43 *1087:C1 *1087:A2 6.15188e-05
44 *1088:A0 *1087:A2 0.000574073
45 *1092:A1 *1256:A 0.000102545
46 *1092:B1 *1256:A 3.33238e-05
47 *1092:B1 *310:34 0.0009816
48 *1092:B1 *310:58 0.000103267
49 *1092:C1 *1256:A 1.66955e-05
50 *1092:C1 *310:34 0.000171526
51 *1093:S *1087:A2 0.000400867
52 *1097:B1 *1097:A2 0
53 *1097:B1 *310:24 2.28598e-05
54 *1098:A0 *1097:A2 0.00010096
55 *1098:A0 *310:20 5.34484e-05
56 *1107:A1 *1055:D 9.60875e-05
57 *1107:A1 *1205:A 9.25014e-06
58 *1107:B1 *1055:D 1.55885e-05
59 *1114:B1 *310:110 0.000125731
60 *1118:C1 *1205:A 5.52302e-05
61 *1119:CLK *310:95 0
62 *1133:D *310:20 0.000178459
63 *1136:D *1256:A 0
64 *1139:CLK *1256:A 0
65 *1207:A *1108:A2 9.60875e-05
66 *1252:A *310:24 0.000394975
67 *115:8 *1087:A2 0.000126639
68 *115:10 *1087:A2 2.19684e-05
69 *115:75 *1087:A2 4.03318e-05
70 *139:42 *310:95 0.00112346
71 *139:42 *310:110 0.000902297
72 *140:16 *310:95 0.000295844
73 *150:12 *1087:A2 0.00014631
74 *150:85 *310:58 0.000473613
75 *169:16 *1108:A2 9.60875e-05
76 *228:23 *1205:A 7.90803e-05
77 *241:10 *310:95 0
78 *241:34 *1055:D 4.02462e-05
79 *241:34 *310:95 0
80 *241:34 *310:110 0
81 *243:16 *310:95 0
82 *270:23 *310:95 0
83 *274:10 *1205:A 4.02462e-05
*RES
1 *1004:Y *310:8 15.1571 
2 *310:8 *310:20 24.9821 
3 *310:20 *310:24 9.96429 
4 *310:24 *310:34 18.0089 
5 *310:34 *1256:A 26.6125 
6 *310:34 *1092:A2 9.3 
7 *310:24 *310:58 12.2143 
8 *310:58 *1026:B 9.3 
9 *310:58 *1087:A2 34.0946 
10 *310:20 *1097:A2 11.5946 
11 *310:8 *310:95 23.5 
12 *310:95 *1108:A2 14.7464 
13 *310:95 *310:110 17.1071 
14 *310:110 *1055:D 22.1036 
15 *310:110 *1205:A 23.6929 
*END

*D_NET *311 0.00341987
*CONN
*I *1257:A I *D sky130_fd_sc_hd__buf_2
*I *1102:B1 I *D sky130_fd_sc_hd__a32o_1
*I *1055:A I *D sky130_fd_sc_hd__nor4_1
*I *999:Y O *D sky130_fd_sc_hd__inv_2
*CAP
1 *1257:A 0.000733052
2 *1102:B1 1.88385e-05
3 *1055:A 5.88974e-05
4 *999:Y 0
5 *311:13 0.000883585
6 *311:4 0.000190592
7 *1055:A *1206:A 9.71197e-05
8 *1257:A *1117:A1 0.000176417
9 *1257:A *347:16 4.1331e-06
10 *999:A *1055:A 2.28598e-05
11 *1102:A2 *1102:B1 1.97695e-05
12 *1102:A2 *1257:A 0.000236241
13 *1107:A1 *1055:A 4.69963e-05
14 *1107:B1 *1055:A 0.000270326
15 *1107:B1 *1257:A 0
16 *1107:B1 *311:13 0.000255923
17 *1117:A2 *1257:A 5.52302e-05
18 *1118:C1 *1102:B1 1.43404e-05
19 *1118:C1 *1257:A 2.24763e-05
20 *1118:C1 *311:13 6.81904e-05
21 *213:6 *1257:A 0.000229456
22 *213:6 *311:13 1.5424e-05
23 *264:10 *1257:A 0
*RES
1 *999:Y *311:4 9.3 
2 *311:4 *1055:A 11.8893 
3 *311:4 *311:13 3.82143 
4 *311:13 *1102:B1 9.96964 
5 *311:13 *1257:A 33.1393 
*END

*D_NET *312 0.00170485
*CONN
*I *1049:B I *D sky130_fd_sc_hd__and2_1
*I *1258:A I *D sky130_fd_sc_hd__buf_2
*I *1159:A I *D sky130_fd_sc_hd__clkbuf_1
*I *1005:X O *D sky130_fd_sc_hd__and4bb_1
*CAP
1 *1049:B 0
2 *1258:A 0.000175595
3 *1159:A 0.000109932
4 *1005:X 0.000225917
5 *312:10 0.000285527
6 *312:8 0.000225917
7 *1159:A *330:64 0
8 *1258:A *330:75 0
9 *312:8 *1001:A 9.90367e-05
10 *312:8 *1001:B 5.52302e-05
11 *169:16 *1159:A 6.75007e-05
12 *242:6 *312:8 5.52302e-05
13 *285:18 *1159:A 0.000227021
14 *285:18 *1258:A 0.000177941
*RES
1 *1005:X *312:8 13.55 
2 *312:8 *312:10 4.5 
3 *312:10 *1159:A 16.6571 
4 *312:10 *1258:A 17.4071 
5 *312:8 *1049:B 9.3 
*END

*D_NET *313 0.00014024
*CONN
*I *1259:A I *D sky130_fd_sc_hd__buf_2
*I *1159:X O *D sky130_fd_sc_hd__clkbuf_1
*CAP
1 *1259:A 7.01202e-05
2 *1159:X 7.01202e-05
*RES
1 *1159:X *1259:A 19.8679 
*END

*D_NET *314 0.000220761
*CONN
*I *1260:A I *D sky130_fd_sc_hd__buf_2
*I *1009:X O *D sky130_fd_sc_hd__and2_1
*CAP
1 *1260:A 0.00011038
2 *1009:X 0.00011038
3 *1260:A *1262:A 0
4 *1140:D *1260:A 0
5 *1236:A *1260:A 0
*RES
1 *1009:X *1260:A 29.5464 
*END

*D_NET *315 0.00523446
*CONN
*I *1160:A I *D sky130_fd_sc_hd__clkbuf_1
*I *1206:A I *D sky130_fd_sc_hd__buf_2
*I *1000:X O *D sky130_fd_sc_hd__and4bb_1
*CAP
1 *1160:A 0.00137685
2 *1206:A 2.85312e-05
3 *1000:X 0.000395611
4 *315:10 0.00180099
5 *1160:A *1009:B 5.52238e-05
6 *1160:A *1055:C 0
7 *1160:A *1157:RESET_B 9.81719e-05
8 *1160:A *1262:A 1.72894e-05
9 *1160:A *325:18 3.34672e-05
10 *1160:A *336:56 3.15645e-05
11 *315:10 *1000:D 1.98839e-05
12 *315:10 *1055:C 0
13 *315:10 *327:19 0.000101545
14 *315:10 *327:84 5.52302e-05
15 *999:A *1206:A 5.33005e-05
16 *999:A *315:10 0.00014576
17 *1053:A1 *1160:A 0.000150625
18 *1055:A *1206:A 9.71197e-05
19 *1107:A1 *1206:A 1.98839e-05
20 *1107:C1 *1160:A 0
21 *1113:A2 *1160:A 0.000175776
22 *1113:A2 *315:10 0.00018313
23 *1140:D *1160:A 0.000276317
24 *1157:D *1160:A 0
25 *241:34 *315:10 0.000118189
*RES
1 *1000:X *315:10 22.0679 
2 *315:10 *1206:A 14.7464 
3 *315:10 *1160:A 41.8179 
*END

*D_NET *316 0.000324798
*CONN
*I *1262:A I *D sky130_fd_sc_hd__buf_2
*I *1160:X O *D sky130_fd_sc_hd__clkbuf_1
*CAP
1 *1262:A 0.000153754
2 *1160:X 0.000153754
3 *1160:A *1262:A 1.72894e-05
4 *1260:A *1262:A 0
*RES
1 *1160:X *1262:A 30.0821 
*END

*D_NET *317 0.00660423
*CONN
*I *1055:C I *D sky130_fd_sc_hd__nor4_1
*I *1106:B I *D sky130_fd_sc_hd__and3b_1
*I *1058:A2 I *D sky130_fd_sc_hd__o21ba_1
*I *1266:A I *D sky130_fd_sc_hd__clkbuf_2
*I *1118:A1 I *D sky130_fd_sc_hd__a211o_1
*I *1002:Y O *D sky130_fd_sc_hd__nor4b_2
*CAP
1 *1055:C 0.000100126
2 *1106:B 0
3 *1058:A2 0
4 *1266:A 0.000141309
5 *1118:A1 0.000215854
6 *1002:Y 0.000117752
7 *317:47 0.00052202
8 *317:39 0.00113672
9 *317:14 0.00108257
10 *317:10 0.000328594
11 *1118:A1 *320:18 0.000724778
12 *317:10 *327:6 3.18676e-05
13 *317:10 *327:19 7.32173e-05
14 *317:39 *325:18 9.90367e-05
15 *317:47 *1054:A 1.02504e-05
16 *317:47 *325:37 0.000137939
17 *1013:A1_N *1055:C 5.58941e-05
18 *1013:A1_N *317:14 4.46186e-06
19 *1013:A1_N *317:39 2.01767e-05
20 *1055:D *1055:C 0.000208536
21 *1055:D *317:10 4.34543e-05
22 *1105:B *1266:A 7.72917e-05
23 *1106:A_N *317:47 3.30352e-05
24 *1106:C *317:39 4.0342e-06
25 *1106:C *317:47 5.30209e-05
26 *1107:A2 *317:39 5.33882e-05
27 *1107:B1 *1055:C 5.52302e-05
28 *1107:C1 *1055:C 1.99099e-05
29 *1107:C1 *317:39 0.000126848
30 *1115:A *317:39 3.55552e-05
31 *1118:C1 *1118:A1 0.0003729
32 *1160:A *1055:C 0
33 *1249:A *1266:A 9.71197e-05
34 *173:14 *1266:A 7.49387e-06
35 *174:14 *1266:A 5.71472e-05
36 *174:14 *317:47 0
37 *176:10 *1266:A 9.71197e-05
38 *241:34 *317:10 3.75052e-05
39 *271:73 *317:14 0
40 *271:73 *317:39 6.72333e-05
41 *275:17 *317:10 0.000183726
42 *302:28 *317:47 4.53889e-05
43 *310:110 *317:10 0.000125724
44 *315:10 *1055:C 0
*RES
1 *1002:Y *317:10 17.6661 
2 *317:10 *317:14 1.9375 
3 *317:14 *1118:A1 21.8893 
4 *317:14 *317:39 15.9286 
5 *317:39 *317:47 14.7679 
6 *317:47 *1266:A 12.7286 
7 *317:47 *1058:A2 9.3 
8 *317:39 *1106:B 9.3 
9 *317:10 *1055:C 17.3446 
*END

*D_NET *318 0.000186505
*CONN
*I *1139:D I *D sky130_fd_sc_hd__dfrtp_1
*I *1243:X O *D sky130_fd_sc_hd__clkbuf_1
*CAP
1 *1139:D 9.32525e-05
2 *1243:X 9.32525e-05
3 *1251:A *1139:D 0
*RES
1 *1243:X *1139:D 29.2429 
*END

*D_NET *319 0.00333911
*CONN
*I *1068:A2 I *D sky130_fd_sc_hd__a211o_1
*I *1076:A2 I *D sky130_fd_sc_hd__a211o_1
*I *1060:B1 I *D sky130_fd_sc_hd__a221o_1
*I *1249:X O *D sky130_fd_sc_hd__buf_1
*CAP
1 *1068:A2 1.57361e-05
2 *1076:A2 0.000187661
3 *1060:B1 7.22895e-05
4 *1249:X 0.000863065
5 *319:21 0.000397748
6 *319:6 0.00112971
7 *319:6 *1057:A1 0.000100625
8 *319:6 *1057:A2 3.18676e-05
9 *319:6 *324:8 0.000105125
10 *1057:B1_N *319:6 3.00924e-05
11 *1057:B1_N *319:21 5.71472e-05
12 *1060:C1 *1060:B1 3.57163e-05
13 *1061:A0 *1060:B1 0
14 *1076:A1 *1076:A2 2.0876e-05
15 *1076:C1 *1068:A2 3.99614e-06
16 *1076:C1 *1076:A2 8.36527e-05
17 *1076:C1 *319:21 0.000161947
18 *1077:A0 *1076:A2 3.58039e-05
19 *233:10 *1076:A2 6.05161e-06
*RES
1 *1249:X *319:6 20.1036 
2 *319:6 *1060:B1 19.6393 
3 *319:6 *319:21 3.83929 
4 *319:21 *1076:A2 12.8536 
5 *319:21 *1068:A2 9.72857 
*END

*D_NET *320 0.014711
*CONN
*I *1013:B1 I *D sky130_fd_sc_hd__a2bb2o_4
*I *1060:A2 I *D sky130_fd_sc_hd__a221o_1
*I *1064:A I *D sky130_fd_sc_hd__and3_1
*I *1072:A I *D sky130_fd_sc_hd__and3_1
*I *1031:B I *D sky130_fd_sc_hd__and2_1
*I *1027:B1 I *D sky130_fd_sc_hd__a2bb2o_1
*I *1045:A2 I *D sky130_fd_sc_hd__a221o_1
*I *1040:A2 I *D sky130_fd_sc_hd__a221o_1
*I *1081:A1 I *D sky130_fd_sc_hd__a311o_1
*I *1054:C I *D sky130_fd_sc_hd__nor3_1
*I *1205:X O *D sky130_fd_sc_hd__buf_6
*CAP
1 *1013:B1 0
2 *1060:A2 0
3 *1064:A 3.09205e-05
4 *1072:A 1.42885e-05
5 *1031:B 8.47924e-05
6 *1027:B1 0
7 *1045:A2 0.00076735
8 *1040:A2 0.000179233
9 *1081:A1 0.000358281
10 *1054:C 0
11 *1205:X 0.000106862
12 *320:72 0.00103858
13 *320:70 0.000194067
14 *320:68 0.000364085
15 *320:64 0.000476506
16 *320:43 0.000687958
17 *320:41 0.000375065
18 *320:31 0.00100838
19 *320:18 0.00120926
20 *320:6 0.000607204
21 *1045:A2 *326:28 0.000115907
22 *320:18 *1054:A 0.000130443
23 *320:31 *1054:B 0.000155008
24 *999:A *320:18 6.71854e-05
25 *1013:A2_N *320:18 5.03772e-05
26 *1013:B2 *320:6 5.52238e-05
27 *1013:B2 *320:18 2.14757e-05
28 *1019:A *1045:A2 2.59355e-05
29 *1019:B *1045:A2 7.99498e-05
30 *1027:A2_N *320:72 5.41794e-05
31 *1027:B2 *320:68 0.000143044
32 *1027:B2 *320:70 7.99213e-05
33 *1031:A *1031:B 2.89114e-05
34 *1033:A2 *1045:A2 5.52302e-05
35 *1033:B2 *320:64 0.000196269
36 *1033:B2 *320:68 0.000188703
37 *1033:B2 *320:70 7.95376e-05
38 *1039:B1 *1040:A2 5.33005e-05
39 *1040:B2 *320:70 0
40 *1040:C1 *1040:A2 0.000116526
41 *1045:A1 *1045:A2 2.13481e-06
42 *1045:B1 *1045:A2 8.76188e-05
43 *1045:B2 *1045:A2 8.66619e-06
44 *1046:A1 *1045:A2 4.46186e-06
45 *1059:C *320:31 5.33005e-05
46 *1060:A1 *320:41 0.000126439
47 *1060:B2 *320:41 0
48 *1061:A0 *320:31 8.07313e-05
49 *1063:A *1072:A 5.52238e-05
50 *1063:B *1072:A 5.33005e-05
51 *1064:B *1081:A1 3.34295e-05
52 *1064:B *320:41 9.22948e-05
53 *1064:B *320:43 6.98302e-05
54 *1064:C *1081:A1 0
55 *1068:B1 *320:41 0
56 *1079:B *1081:A1 1.21289e-05
57 *1081:A2 *1081:A1 0.000484257
58 *1081:B1 *1081:A1 1.97695e-05
59 *1083:A1_N *320:41 0
60 *1083:B1 *1081:A1 0.000185643
61 *1086:B *1040:A2 3.17148e-05
62 *1118:A1 *320:18 0.000724778
63 *1118:C1 *320:6 5.81579e-05
64 *1118:C1 *320:18 6.75605e-05
65 *1130:CLK *1064:A 2.89114e-05
66 *1130:CLK *320:64 0.000348207
67 *1199:A *1040:A2 0
68 *1199:A *1081:A1 0
69 *1199:A *320:70 0
70 *1199:A *320:72 0
71 *1205:A *320:6 9.65799e-05
72 *1205:A *320:18 0.000309279
73 *139:16 *320:18 0.00132178
74 *139:16 *320:31 6.5615e-05
75 *139:42 *320:18 9.90367e-05
76 *149:32 *1045:A2 1.0945e-05
77 *172:8 *320:18 2.14658e-05
78 *172:8 *320:31 1.33343e-05
79 *173:14 *320:31 1.4487e-05
80 *186:12 *1081:A1 0.000144773
81 *239:46 *1040:A2 0.000195081
82 *239:46 *320:72 9.25054e-05
83 *250:21 *320:68 3.25078e-05
84 *250:58 *320:64 9.88232e-05
85 *250:58 *320:68 3.17148e-05
86 *264:16 *320:6 1.74352e-05
87 *281:20 *1045:A2 6.05161e-06
88 *281:36 *1045:A2 0.000216862
89 *310:110 *320:18 9.41642e-05
*RES
1 *1205:X *320:6 11.8893 
2 *320:6 *320:18 19.3214 
3 *320:18 *1054:C 9.3 
4 *320:18 *320:31 13.4062 
5 *320:31 *320:41 10.3973 
6 *320:41 *320:43 1.03571 
7 *320:43 *1081:A1 22.4607 
8 *320:43 *320:64 14.9643 
9 *320:64 *320:68 5.21429 
10 *320:68 *320:70 2.55357 
11 *320:70 *320:72 1.94643 
12 *320:72 *1040:A2 17.8089 
13 *320:72 *1045:A2 34.9295 
14 *320:70 *1027:B1 13.8 
15 *320:68 *1031:B 15.1571 
16 *320:64 *1072:A 14.3357 
17 *320:41 *1064:A 14.3357 
18 *320:31 *1060:A2 9.3 
19 *320:6 *1013:B1 9.3 
*END

*D_NET *321 0.0017399
*CONN
*I *1015:S I *D sky130_fd_sc_hd__mux2_1
*I *1017:S I *D sky130_fd_sc_hd__mux2_1
*I *1264:X O *D sky130_fd_sc_hd__dlygate4sd1_1
*CAP
1 *1015:S 0.000286165
2 *1017:S 0.000315834
3 *1264:X 0
4 *321:4 0.000602
5 *1017:S *1133:RESET_B 0
6 *1004:A *1015:S 4.43256e-05
7 *1004:A *1017:S 5.33334e-05
8 *1015:A0 *1015:S 1.31516e-05
9 *1015:A1 *1015:S 1.02504e-05
10 *1016:A0 *1015:S 0
11 *1264:A *1015:S 7.48091e-05
12 *243:16 *1015:S 1.97381e-05
13 *310:8 *1017:S 0.000139907
14 *310:20 *1017:S 0.00018039
*RES
1 *1264:X *321:4 9.3 
2 *321:4 *1017:S 24.8714 
3 *321:4 *1015:S 23.6393 
*END

*D_NET *322 0.00162755
*CONN
*I *1099:A2 I *D sky130_fd_sc_hd__a21o_1
*I *1250:X O *D sky130_fd_sc_hd__clkbuf_1
*CAP
1 *1099:A2 0.000666906
2 *1250:X 0.000666906
3 *1099:A2 *1023:A2 9.7659e-05
4 *1099:A2 *1155:RESET_B 0.00015304
5 *1099:B1 *1099:A2 0
6 *1104:A2 *1099:A2 0
7 *226:40 *1099:A2 4.30382e-05
*RES
1 *1250:X *1099:A2 37.6179 
*END

*D_NET *323 0.00279608
*CONN
*I *1023:A2 I *D sky130_fd_sc_hd__o211a_4
*I *1250:A I *D sky130_fd_sc_hd__clkbuf_1
*I *1265:X O *D sky130_fd_sc_hd__clkbuf_1
*CAP
1 *1023:A2 0.000149725
2 *1250:A 0
3 *1265:X 0.000573928
4 *323:10 0.000723654
5 *1084:C1 *323:10 0.000214198
6 *1099:A2 *1023:A2 9.7659e-05
7 *146:10 *323:10 0.000314132
8 *226:40 *1023:A2 0.000146523
9 *226:40 *323:10 0.000264087
10 *243:10 *1023:A2 7.26935e-05
11 *243:12 *1023:A2 1.41706e-05
12 *254:10 *1023:A2 0.000225307
*RES
1 *1265:X *323:10 20.9607 
2 *323:10 *1250:A 9.3 
3 *323:10 *1023:A2 23.7464 
*END

*D_NET *324 0.00876527
*CONN
*I *1080:A2 I *D sky130_fd_sc_hd__o211a_1
*I *1075:A2_N I *D sky130_fd_sc_hd__a2bb2oi_1
*I *1057:A2 I *D sky130_fd_sc_hd__o21ba_1
*I *1263:A I *D sky130_fd_sc_hd__buf_2
*I *1067:A2 I *D sky130_fd_sc_hd__o22a_1
*I *1054:B I *D sky130_fd_sc_hd__nor3_1
*I *1266:X O *D sky130_fd_sc_hd__clkbuf_2
*CAP
1 *1080:A2 5.35928e-05
2 *1075:A2_N 1.27707e-05
3 *1057:A2 0.000110443
4 *1263:A 0.00115036
5 *1067:A2 0
6 *1054:B 0.000708825
7 *1266:X 0.000277048
8 *324:37 0.00135473
9 *324:33 0.000328642
10 *324:23 0.000338781
11 *324:8 0.00104912
12 *1054:B *1057:A1 0
13 *1080:A2 *1057:A1 0
14 *1080:A2 *1080:A1 1.02504e-05
15 *1263:A *1147:RESET_B 1.66258e-05
16 *1263:A *335:50 9.34004e-05
17 *324:23 *1057:A1 0
18 *324:37 *1067:A1 0.000140933
19 *324:37 *325:94 4.08637e-05
20 *1057:B1_N *1057:A2 0.000155623
21 *1061:A0 *1054:B 0
22 *1061:A0 *1057:A2 0
23 *1067:B1 *1263:A 5.04589e-05
24 *1067:B1 *324:37 2.28499e-05
25 *1068:C1 *1263:A 9.90431e-05
26 *1076:C1 *1057:A2 3.56976e-05
27 *1076:C1 *1263:A 0.000140933
28 *1076:C1 *324:33 5.71472e-05
29 *1076:C1 *324:37 0.000123949
30 *1249:A *324:8 3.18676e-05
31 *139:16 *1054:B 7.46327e-05
32 *155:18 *1263:A 0.000658264
33 *173:14 *1054:B 0.000136951
34 *173:14 *324:8 9.90431e-05
35 *189:10 *1080:A2 4.46186e-06
36 *260:10 *1263:A 5.33005e-05
37 *280:19 *1054:B 0.00015739
38 *280:19 *1080:A2 3.67548e-05
39 *280:19 *324:23 5.10822e-05
40 *302:18 *1075:A2_N 1.5471e-05
41 *302:18 *1263:A 0.000494133
42 *302:18 *324:33 6.2169e-05
43 *302:18 *324:37 1.56e-05
44 *302:28 *324:33 0.000210051
45 *319:6 *1057:A2 3.18676e-05
46 *319:6 *324:8 0.000105125
47 *320:31 *1054:B 0.000155008
*RES
1 *1266:X *324:8 18.8536 
2 *324:8 *1054:B 24.6929 
3 *324:8 *324:23 1.33929 
4 *324:23 *324:33 8.89286 
5 *324:33 *324:37 3.01786 
6 *324:37 *1067:A2 9.3 
7 *324:37 *1263:A 44.2107 
8 *324:37 *1057:A2 21.2107 
9 *324:33 *1075:A2_N 9.72857 
10 *324:23 *1080:A2 14.8357 
*END

*D_NET *325 0.0138886
*CONN
*I *1055:B I *D sky130_fd_sc_hd__nor4_1
*I *1009:B I *D sky130_fd_sc_hd__and2_1
*I *1080:A1 I *D sky130_fd_sc_hd__o211a_1
*I *1261:A I *D sky130_fd_sc_hd__buf_2
*I *1075:A1_N I *D sky130_fd_sc_hd__a2bb2oi_1
*I *1067:A1 I *D sky130_fd_sc_hd__o22a_1
*I *1057:A1 I *D sky130_fd_sc_hd__o21ba_1
*I *1058:A1 I *D sky130_fd_sc_hd__o21ba_1
*I *1054:A I *D sky130_fd_sc_hd__nor3_1
*I *1052:C1 I *D sky130_fd_sc_hd__o211a_1
*I *1206:X O *D sky130_fd_sc_hd__buf_2
*CAP
1 *1055:B 0
2 *1009:B 0.000556271
3 *1080:A1 2.22747e-05
4 *1261:A 0.00102532
5 *1075:A1_N 0
6 *1067:A1 2.86992e-05
7 *1057:A1 0.000203789
8 *1058:A1 2.52056e-05
9 *1054:A 0.000217677
10 *1052:C1 6.06565e-05
11 *1206:X 9.43981e-05
12 *325:94 4.71639e-05
13 *325:79 0.000559026
14 *325:67 0.00144851
15 *325:63 0.000733532
16 *325:37 0.000389209
17 *325:35 0.000991596
18 *325:22 0.000842687
19 *325:18 0.00159506
20 *325:6 0.000571585
21 *325:35 *336:34 0
22 PWDATA[10] *1261:A 4.46186e-06
23 *1009:A *1009:B 0.000376615
24 *1052:A1 *325:35 7.79781e-06
25 *1052:A2 *1052:C1 3.99614e-06
26 *1052:A2 *325:22 0.000175493
27 *1052:B1 *325:35 0.000277524
28 *1054:B *1057:A1 0
29 *1057:B1_N *1057:A1 5.30637e-06
30 *1061:A0 *1057:A1 0.000221163
31 *1061:A0 *1261:A 0
32 *1061:A0 *325:67 0
33 *1061:A0 *325:79 0.000116481
34 *1061:S *1261:A 0
35 *1067:B1 *1067:A1 9.90431e-05
36 *1075:B2 *325:67 7.83659e-05
37 *1080:A2 *1057:A1 0
38 *1080:A2 *1080:A1 1.02504e-05
39 *1080:C1 *325:63 5.33005e-05
40 *1082:A2 *1054:A 0
41 *1105:A_N *1054:A 4.46186e-06
42 *1105:A_N *325:37 0.000111805
43 *1105:B *1058:A1 5.52302e-05
44 *1106:C *325:63 0.000228558
45 *1107:B1 *325:6 0.00014285
46 *1107:C1 *325:18 6.81335e-05
47 *1118:A2 *1054:A 0
48 *1126:CLK *1009:B 0.000164554
49 *1126:CLK *325:18 5.66157e-05
50 *1127:D *1261:A 6.65302e-05
51 *1140:CLK *325:22 2.59355e-05
52 *1140:D *1009:B 0
53 *1157:D *325:18 5.01213e-05
54 *1160:A *1009:B 5.52238e-05
55 *1160:A *325:18 3.34672e-05
56 *167:25 *1054:A 0
57 *174:8 *325:35 0
58 *174:14 *325:37 0
59 *177:19 *1261:A 0
60 *177:19 *325:67 0
61 *189:10 *1080:A1 1.09026e-05
62 *189:10 *325:79 0
63 *271:73 *325:18 0.00024705
64 *271:82 *325:18 0.000177941
65 *277:16 *325:35 0
66 *277:20 *325:79 0.000159846
67 *277:26 *325:79 0.000240905
68 *280:19 *1080:A1 3.34295e-05
69 *280:38 *1080:A1 2.24646e-05
70 *280:38 *325:67 3.57844e-05
71 *302:18 *1067:A1 2.14658e-05
72 *302:18 *325:94 2.59355e-05
73 *302:28 *325:63 0.000346812
74 *317:39 *325:18 9.90367e-05
75 *317:47 *1054:A 1.02504e-05
76 *317:47 *325:37 0.000137939
77 *319:6 *1057:A1 0.000100625
78 *320:18 *1054:A 0.000130443
79 *324:23 *1057:A1 0
80 *324:37 *1067:A1 0.000140933
81 *324:37 *325:94 4.08637e-05
*RES
1 *1206:X *325:6 10.6571 
2 *325:6 *325:18 24.1429 
3 *325:18 *325:22 13.6607 
4 *325:22 *1052:C1 10.2643 
5 *325:22 *325:35 9.17857 
6 *325:35 *325:37 3.46429 
7 *325:37 *1054:A 17.5143 
8 *325:37 *1058:A1 14.3357 
9 *325:35 *325:63 17.75 
10 *325:63 *325:67 1.875 
11 *325:67 *325:79 15.0179 
12 *325:79 *1057:A1 18.425 
13 *325:79 *325:94 5.03571 
14 *325:94 *1067:A1 10.6571 
15 *325:94 *1075:A1_N 9.3 
16 *325:67 *1261:A 32.0679 
17 *325:63 *1080:A1 14.5321 
18 *325:18 *1009:B 25.9964 
19 *325:6 *1055:B 9.3 
*END

*D_NET *326 0.0138239
*CONN
*I *1111:A2 I *D sky130_fd_sc_hd__a31o_1
*I *1024:B I *D sky130_fd_sc_hd__and3b_1
*I *1110:C I *D sky130_fd_sc_hd__and4_1
*I *1030:A2 I *D sky130_fd_sc_hd__a2111o_1
*I *1084:B1 I *D sky130_fd_sc_hd__o2111a_1
*I *1044:B1 I *D sky130_fd_sc_hd__o21a_1
*I *1033:A1 I *D sky130_fd_sc_hd__a221o_1
*I *1026:A I *D sky130_fd_sc_hd__nor2_2
*I *1096:A I *D sky130_fd_sc_hd__and3_1
*I *1091:A I *D sky130_fd_sc_hd__and3_1
*I *1207:X O *D sky130_fd_sc_hd__buf_2
*CAP
1 *1111:A2 3.29116e-05
2 *1024:B 1.91209e-05
3 *1110:C 0
4 *1030:A2 0.000119834
5 *1084:B1 0.000408728
6 *1044:B1 0
7 *1033:A1 0.000550181
8 *1026:A 2.57978e-05
9 *1096:A 0
10 *1091:A 9.21885e-05
11 *1207:X 0.000180478
12 *326:95 0.000787989
13 *326:91 0.000588478
14 *326:38 0.00039396
15 *326:34 0.00102577
16 *326:30 0.00137274
17 *326:28 0.000927255
18 *326:18 0.00116296
19 *326:16 0.000276999
20 *326:10 0.000440256
21 *326:10 *327:37 0.000146474
22 *326:16 *1024:C 0.000218045
23 *326:16 *327:37 0.000146474
24 *326:16 *327:52 0.000229456
25 *326:18 *1024:C 1.24368e-05
26 *326:34 *1122:RESET_B 0
27 *326:38 *1122:RESET_B 0
28 *326:91 *1024:C 0.00012734
29 *1024:A_N *326:91 7.32955e-05
30 *1025:A *1030:A2 5.52302e-05
31 *1025:A *1084:B1 2.94103e-05
32 *1025:A *326:95 1.08359e-05
33 *1030:B1 *1030:A2 1.98839e-05
34 *1030:C1 *1030:A2 7.06479e-05
35 *1033:A2 *1033:A1 0.00015344
36 *1033:B1 *1033:A1 0.000133339
37 *1034:B1 *1033:A1 8.59201e-05
38 *1039:A1 *1033:A1 5.52238e-05
39 *1039:A2 *1033:A1 0.000108535
40 *1039:A2 *326:34 0.00026537
41 *1045:A1 *326:28 2.51343e-06
42 *1045:A2 *326:28 0.000115907
43 *1045:C1 *326:30 3.18676e-05
44 *1084:D1 *1084:B1 3.18676e-05
45 *1085:D *1084:B1 0.000144773
46 *1087:A2 *1026:A 0.000142856
47 *1087:A2 *326:34 0
48 *1089:A *1091:A 5.71472e-05
49 *1089:B *326:38 0
50 *1091:B *1091:A 1.32552e-05
51 *1111:A1 *1111:A2 9.41642e-05
52 *1111:A3 *1111:A2 5.33005e-05
53 *1111:B1 *1111:A2 1.24368e-05
54 *1122:D *326:34 0.000105565
55 *1125:CLK *1084:B1 0.000246064
56 *1125:CLK *326:95 0.000527807
57 *1125:D *1084:B1 0
58 *1125:D *326:95 0
59 *1200:A *1030:A2 0.00024535
60 *1216:A *326:28 0.000122494
61 *115:10 *326:34 0
62 *115:10 *326:38 0
63 *115:31 *1091:A 0.000317082
64 *139:44 *1084:B1 9.05445e-05
65 *139:48 *1084:B1 5.86416e-05
66 *147:10 *326:95 4.84853e-05
67 *148:12 *326:28 1.15281e-05
68 *148:16 *1030:A2 0.00014285
69 *149:32 *326:28 0.000219967
70 *149:32 *326:34 0
71 *150:12 *1026:A 7.77751e-05
72 *220:10 *326:16 9.60875e-05
73 *239:44 *1111:A2 8.43535e-06
74 *268:10 *326:34 0
75 *271:14 *326:10 0.000138946
76 *271:14 *326:16 0.000146474
77 *281:44 *1033:A1 2.65208e-05
78 *282:76 *326:28 0
79 *283:25 *326:34 3.34783e-05
80 *284:30 *326:28 5.75147e-05
81 *285:28 *326:91 5.52238e-05
*RES
1 *1207:X *326:10 17.1036 
2 *326:10 *326:16 10.6786 
3 *326:16 *326:18 0.535714 
4 *326:18 *326:28 22.375 
5 *326:28 *326:30 2.17857 
6 *326:30 *326:34 17.0714 
7 *326:34 *326:38 9.78571 
8 *326:38 *1091:A 12.3 
9 *326:38 *1096:A 9.3 
10 *326:34 *1026:A 15.1571 
11 *326:30 *1033:A1 28.0321 
12 *326:28 *1044:B1 9.3 
13 *326:18 *326:91 5.16071 
14 *326:91 *326:95 11.3036 
15 *326:95 *1084:B1 21.1929 
16 *326:95 *1030:A2 17.7643 
17 *326:91 *1110:C 9.3 
18 *326:16 *1024:B 9.72857 
19 *326:10 *1111:A2 14.7464 
*END

*D_NET *327 0.0111366
*CONN
*I *997:A_N I *D sky130_fd_sc_hd__and2b_1
*I *1005:C I *D sky130_fd_sc_hd__and4bb_1
*I *1007:A I *D sky130_fd_sc_hd__nor2_1
*I *1000:B_N I *D sky130_fd_sc_hd__and4bb_1
*I *1113:B1 I *D sky130_fd_sc_hd__a2111o_1
*I *1114:A1 I *D sky130_fd_sc_hd__o31ai_1
*I *1110:A I *D sky130_fd_sc_hd__and4_1
*I *1024:C I *D sky130_fd_sc_hd__and3b_1
*I *982:A I *D sky130_fd_sc_hd__inv_2
*I *1002:D_N I *D sky130_fd_sc_hd__nor4b_2
*I *1208:X O *D sky130_fd_sc_hd__clkbuf_2
*CAP
1 *997:A_N 0.000102391
2 *1005:C 2.29705e-05
3 *1007:A 0.000341745
4 *1000:B_N 0
5 *1113:B1 2.39476e-05
6 *1114:A1 0
7 *1110:A 0
8 *1024:C 6.3942e-05
9 *982:A 0.00014018
10 *1002:D_N 2.06112e-05
11 *1208:X 2.4981e-05
12 *327:101 0.000588061
13 *327:97 0.000769702
14 *327:84 0.000547898
15 *327:52 0.00011158
16 *327:37 0.00050281
17 *327:33 0.000981242
18 *327:23 0.000780625
19 *327:19 0.000314398
20 *327:6 0.000165629
21 *997:A_N *330:88 5.52302e-05
22 *1005:C *331:71 1.58163e-05
23 *1007:A *1005:A_N 5.44167e-05
24 *1007:A *330:34 0.000148196
25 *1007:A *330:45 0.000117196
26 *1007:A *330:116 4.56437e-05
27 *327:84 *1000:D 0.00022266
28 *327:97 *1000:D 0.000508078
29 *327:97 *1100:B1 0.000313241
30 *327:97 *331:93 0.000190715
31 *327:101 *330:75 0
32 *1002:C *1002:D_N 0
33 *1007:B *1007:A 4.13477e-05
34 *1024:A_N *1024:C 5.71472e-05
35 *1024:A_N *327:52 8.76257e-05
36 *1084:C1 *982:A 0.000140933
37 *1101:A2 *327:97 6.87476e-05
38 *1101:A3 *327:97 5.52302e-05
39 *1101:B2 *997:A_N 9.0143e-05
40 *1101:B2 *327:101 4.46186e-06
41 *1104:A2 *1007:A 4.46186e-06
42 *1104:B1 *1007:A 0
43 *1110:D *982:A 7.6644e-05
44 *1111:A1 *982:A 3.18676e-05
45 *1112:A *327:33 3.84385e-05
46 *1113:A2 *327:19 6.8646e-06
47 *1113:A2 *327:23 5.44074e-05
48 *1113:D1 *1113:B1 5.33005e-05
49 *1113:D1 *327:33 5.33005e-05
50 *1114:A2 *327:37 9.64602e-05
51 *1114:A3 *327:33 5.80706e-06
52 *1114:A3 *327:37 0
53 *1116:B *997:A_N 7.83366e-05
54 *1125:CLK *982:A 4.89167e-05
55 *1156:CLK *327:52 9.71197e-05
56 *1208:A *1002:D_N 3.99614e-06
57 *146:10 *982:A 5.52238e-05
58 *146:16 *982:A 0.000196269
59 *146:16 *327:37 0.00019384
60 *220:10 *327:52 2.14658e-05
61 *226:23 *982:A 2.14658e-05
62 *241:34 *327:19 0.000115474
63 *241:34 *327:23 0.000247778
64 *242:6 *1005:C 5.52302e-05
65 *242:23 *997:A_N 1.08359e-05
66 *242:23 *1005:C 1.24469e-05
67 *242:23 *1007:A 2.09897e-05
68 *242:23 *327:101 0.0002005
69 *271:6 *327:33 1.32552e-05
70 *271:12 *327:33 8.35901e-05
71 *271:14 *982:A 1.52978e-05
72 *271:14 *327:33 0
73 *271:14 *327:37 0.000148457
74 *272:25 *1007:A 0
75 *272:25 *327:101 9.39611e-05
76 *273:21 *327:23 7.90803e-05
77 *285:28 *327:52 3.9846e-05
78 *315:10 *327:19 0.000101545
79 *315:10 *327:84 5.52302e-05
80 *317:10 *327:6 3.18676e-05
81 *317:10 *327:19 7.32173e-05
82 *326:10 *327:37 0.000146474
83 *326:16 *1024:C 0.000218045
84 *326:16 *327:37 0.000146474
85 *326:16 *327:52 0.000229456
86 *326:18 *1024:C 1.24368e-05
87 *326:91 *1024:C 0.00012734
*RES
1 *1208:X *327:6 9.83571 
2 *327:6 *1002:D_N 9.72857 
3 *327:6 *327:19 7.5 
4 *327:19 *327:23 7.66071 
5 *327:23 *327:33 14.5179 
6 *327:33 *327:37 8.35714 
7 *327:37 *982:A 18.1214 
8 *327:37 *327:52 7.08929 
9 *327:52 *1024:C 12.2107 
10 *327:52 *1110:A 9.3 
11 *327:33 *1114:A1 13.8 
12 *327:23 *1113:B1 9.83571 
13 *327:19 *327:84 6.67857 
14 *327:84 *1000:B_N 9.3 
15 *327:84 *327:97 14.9286 
16 *327:97 *327:101 5.66964 
17 *327:101 *1007:A 21.0589 
18 *327:101 *1005:C 14.6125 
19 *327:97 *997:A_N 16.5857 
*END

*D_NET *328 0.0100493
*CONN
*I *993:A_N I *D sky130_fd_sc_hd__and2b_1
*I *997:B I *D sky130_fd_sc_hd__and2b_1
*I *1000:C I *D sky130_fd_sc_hd__and4bb_1
*I *983:A I *D sky130_fd_sc_hd__inv_2
*I *1005:B_N I *D sky130_fd_sc_hd__and4bb_1
*I *995:A_N I *D sky130_fd_sc_hd__nand3b_4
*I *994:A_N I *D sky130_fd_sc_hd__and3b_1
*I *1006:B I *D sky130_fd_sc_hd__or3b_1
*I *1003:C I *D sky130_fd_sc_hd__or4b_4
*I *998:C_N I *D sky130_fd_sc_hd__or4bb_4
*I *1209:X O *D sky130_fd_sc_hd__clkbuf_2
*CAP
1 *993:A_N 0.000100627
2 *997:B 1.7586e-05
3 *1000:C 0.000162884
4 *983:A 0
5 *1005:B_N 0.00013782
6 *995:A_N 1.69531e-05
7 *994:A_N 0.000311275
8 *1006:B 0.000179445
9 *1003:C 8.67695e-05
10 *998:C_N 9.2511e-05
11 *1209:X 0
12 *328:102 0.000232025
13 *328:44 0.000608611
14 *328:31 0.000291293
15 *328:20 0.000235643
16 *328:16 0.000187912
17 *328:14 0.000336804
18 *328:12 0.000146286
19 *328:10 0.000320187
20 *328:4 0.000209352
21 *993:A_N *330:88 0.000390353
22 *994:A_N *994:B 0.000123939
23 *994:A_N *994:C 0.000188586
24 *994:A_N *1006:C_N 5.52302e-05
25 *994:A_N *331:40 0.000171289
26 *1000:C *1000:A_N 0.000310286
27 *1000:C *1000:D 0.000520509
28 *1003:C *1003:D_N 2.56601e-05
29 *1003:C *331:14 7.79781e-06
30 *1003:C *331:16 2.60158e-05
31 *1005:B_N *331:71 9.71197e-05
32 *1006:B *1003:D_N 4.46186e-06
33 *1006:B *331:14 1.52978e-05
34 *1006:B *331:16 4.02462e-05
35 *328:16 *331:12 0
36 *328:16 *331:67 0
37 *328:44 *331:40 9.71197e-05
38 *328:102 *1000:A_N 9.02331e-05
39 *328:102 *330:88 0.000315158
40 *993:B *993:A_N 0.000207119
41 *993:B *997:B 2.08464e-05
42 *993:B *328:10 5.33005e-05
43 *993:B *328:102 0.000555695
44 *998:A *998:C_N 0.000117543
45 *1007:B *1006:B 8.66063e-05
46 *1047:C *1005:B_N 0.000265726
47 *1103:A2 *1005:B_N 0.000230482
48 *1103:A2 *328:14 0
49 *1103:C1 *328:10 0.000221163
50 *1103:C1 *328:12 0.000197984
51 *1103:C1 *328:14 1.02504e-05
52 *1104:B1 *1006:B 5.10822e-05
53 *1112:D_N *998:C_N 1.56e-05
54 *1112:D_N *1006:B 9.71197e-05
55 *1112:D_N *328:31 6.09804e-05
56 *1112:D_N *328:44 4.33174e-05
57 *1207:A *995:A_N 5.33005e-05
58 *169:16 *995:A_N 5.33005e-05
59 *238:8 *994:A_N 5.52302e-05
60 *239:8 *328:16 5.59013e-05
61 *239:8 *328:20 0.000114759
62 *239:14 *1003:C 5.94737e-05
63 *239:14 *328:20 3.17148e-05
64 *239:32 *998:C_N 0.000265447
65 *239:32 *328:31 5.33005e-05
66 *275:21 *328:10 0.000211205
67 *275:21 *328:12 0.000185304
68 *275:21 *328:14 0.000138946
69 *275:21 *328:16 0.000236814
70 *275:21 *328:20 0.000146474
*RES
1 *1209:X *328:4 9.3 
2 *328:4 *328:10 7.89286 
3 *328:10 *328:12 2.55357 
4 *328:12 *328:14 1.94643 
5 *328:14 *328:16 3.16071 
6 *328:16 *328:20 6.44643 
7 *328:20 *998:C_N 12.3179 
8 *328:20 *328:31 1.76786 
9 *328:31 *1003:C 20.55 
10 *328:31 *328:44 2.17857 
11 *328:44 *1006:B 21.4071 
12 *328:44 *994:A_N 16.0143 
13 *328:16 *995:A_N 14.3357 
14 *328:14 *1005:B_N 18.4429 
15 *328:12 *983:A 13.8 
16 *328:10 *1000:C 18.8536 
17 *328:4 *328:102 5.46429 
18 *328:102 *997:B 9.72857 
19 *328:102 *993:A_N 13.1214 
*END

*D_NET *329 0.000660257
*CONN
*I *1145:D I *D sky130_fd_sc_hd__dfrtp_1
*I *1244:X O *D sky130_fd_sc_hd__clkbuf_1
*CAP
1 *1145:D 0.000244317
2 *1244:X 0.000244317
3 *1143:CLK *1145:D 0.000152333
4 *1143:D *1145:D 0
5 *1244:A *1145:D 1.92905e-05
*RES
1 *1244:X *1145:D 31.9036 
*END

*D_NET *330 0.009744
*CONN
*I *1005:A_N I *D sky130_fd_sc_hd__and4bb_1
*I *995:C I *D sky130_fd_sc_hd__nand3b_4
*I *992:A I *D sky130_fd_sc_hd__and2_1
*I *1000:A_N I *D sky130_fd_sc_hd__and4bb_1
*I *1100:A1 I *D sky130_fd_sc_hd__o21ai_1
*I *1001:A I *D sky130_fd_sc_hd__nor2_1
*I *994:C I *D sky130_fd_sc_hd__and3b_1
*I *1006:C_N I *D sky130_fd_sc_hd__or3b_1
*I *1003:B I *D sky130_fd_sc_hd__or4b_4
*I *998:D_N I *D sky130_fd_sc_hd__or4bb_4
*I *1210:X O *D sky130_fd_sc_hd__buf_2
*CAP
1 *1005:A_N 0.000109626
2 *995:C 1.42796e-05
3 *992:A 0
4 *1000:A_N 0.000432426
5 *1100:A1 0
6 *1001:A 4.05809e-05
7 *994:C 0.000187157
8 *1006:C_N 1.16062e-05
9 *1003:B 0
10 *998:D_N 0.00017018
11 *1210:X 0
12 *330:116 0.00018336
13 *330:88 0.000853724
14 *330:75 0.000703813
15 *330:64 0.000512648
16 *330:51 0.00063442
17 *330:45 0.000359644
18 *330:34 0.000508232
19 *330:19 0.000640811
20 *330:4 0.000356844
21 *1000:A_N *992:B 7.60306e-05
22 *1000:A_N *1000:D 6.42095e-05
23 *1006:C_N *994:B 5.52302e-05
24 *330:34 *1003:D_N 5.52302e-05
25 *993:A_N *330:88 0.000390353
26 *994:A_N *994:C 0.000188586
27 *994:A_N *1006:C_N 5.52302e-05
28 *997:A_N *330:88 5.52302e-05
29 *1000:C *1000:A_N 0.000310286
30 *1003:A *330:19 0.000139913
31 *1007:A *1005:A_N 5.44167e-05
32 *1007:A *330:34 0.000148196
33 *1007:A *330:45 0.000117196
34 *1007:A *330:116 4.56437e-05
35 *1007:B *330:34 0.000101545
36 *1008:A *330:34 2.16719e-05
37 *1008:A *330:45 5.00869e-05
38 *1047:C *1005:A_N 5.33005e-05
39 *1101:B2 *330:75 0
40 *1101:B2 *330:88 0
41 *1103:B1 *1000:A_N 5.52302e-05
42 *1103:C1 *1000:A_N 0.000103285
43 *1104:A2 *330:34 1.92905e-05
44 *1104:B1 *1005:A_N 0.000171375
45 *1159:A *330:64 0
46 *1207:A *995:C 5.52302e-05
47 *1207:A *330:45 6.81083e-05
48 *1207:A *330:51 5.33005e-05
49 *1207:A *330:116 0.000202094
50 *1210:A *998:D_N 7.43578e-06
51 *1211:A *330:51 5.52238e-05
52 *1258:A *330:75 0
53 *169:16 *995:C 5.33005e-05
54 *169:16 *330:51 9.21719e-05
55 *169:16 *330:64 6.75007e-05
56 *169:16 *330:116 0.000181796
57 *242:23 *1005:A_N 4.46186e-06
58 *243:10 *998:D_N 3.14078e-05
59 *243:10 *330:19 4.70078e-05
60 *254:10 *998:D_N 8.59056e-05
61 *272:10 *994:C 0
62 *272:25 *330:64 0
63 *272:25 *330:75 0
64 *272:25 *330:116 6.8646e-06
65 *273:21 *998:D_N 0
66 *285:18 *330:34 2.9912e-05
67 *285:18 *330:64 0
68 *285:18 *330:75 0
69 *285:18 *330:88 0
70 *285:28 *330:19 2.49291e-05
71 *285:28 *330:34 0.000122031
72 *312:8 *1001:A 9.90367e-05
73 *327:101 *330:75 0
74 *328:102 *1000:A_N 9.02331e-05
75 *328:102 *330:88 0.000315158
*RES
1 *1210:X *330:4 9.3 
2 *330:4 *998:D_N 21.4964 
3 *330:4 *330:19 3.41071 
4 *330:19 *1003:B 9.3 
5 *330:19 *330:34 12.4643 
6 *330:34 *1006:C_N 14.3357 
7 *330:34 *330:45 1.64286 
8 *330:45 *330:51 12.4107 
9 *330:51 *994:C 16.6036 
10 *330:51 *330:64 3.46429 
11 *330:64 *1001:A 14.7464 
12 *330:64 *330:75 4.98214 
13 *330:75 *1100:A1 13.8 
14 *330:75 *330:88 13.8571 
15 *330:88 *1000:A_N 27.2821 
16 *330:88 *992:A 9.3 
17 *330:45 *330:116 7 
18 *330:116 *995:C 9.83571 
19 *330:116 *1005:A_N 21.0857 
*END

*D_NET *331 0.0104589
*CONN
*I *1100:B1 I *D sky130_fd_sc_hd__o21ai_1
*I *992:B I *D sky130_fd_sc_hd__and2_1
*I *1000:D I *D sky130_fd_sc_hd__and4bb_1
*I *1005:D I *D sky130_fd_sc_hd__and4bb_1
*I *1001:B I *D sky130_fd_sc_hd__nor2_1
*I *995:B I *D sky130_fd_sc_hd__nand3b_4
*I *1006:A I *D sky130_fd_sc_hd__or3b_1
*I *994:B I *D sky130_fd_sc_hd__and3b_1
*I *998:B I *D sky130_fd_sc_hd__or4bb_4
*I *1003:D_N I *D sky130_fd_sc_hd__or4b_4
*I *1211:X O *D sky130_fd_sc_hd__clkbuf_4
*CAP
1 *1100:B1 0.000216692
2 *992:B 0.000129822
3 *1000:D 0.000189228
4 *1005:D 0
5 *1001:B 9.67212e-05
6 *995:B 0
7 *1006:A 0
8 *994:B 0.000171886
9 *998:B 0.000538149
10 *1003:D_N 0.000103835
11 *1211:X 0.000317313
12 *331:93 0.000376749
13 *331:89 0.00048543
14 *331:71 0.000368367
15 *331:67 0.000605882
16 *331:40 0.000236604
17 *331:16 0.000675071
18 *331:14 0.000231131
19 *331:12 0.000257747
20 *331:6 0.000564933
21 *994:A_N *994:B 0.000123939
22 *994:A_N *331:40 0.000171289
23 *1000:A_N *992:B 7.60306e-05
24 *1000:A_N *1000:D 6.42095e-05
25 *1000:C *1000:D 0.000520509
26 *1003:C *1003:D_N 2.56601e-05
27 *1003:C *331:14 7.79781e-06
28 *1003:C *331:16 2.60158e-05
29 *1005:B_N *331:71 9.71197e-05
30 *1005:C *331:71 1.58163e-05
31 *1006:B *1003:D_N 4.46186e-06
32 *1006:B *331:14 1.52978e-05
33 *1006:B *331:16 4.02462e-05
34 *1006:C_N *994:B 5.52302e-05
35 *1007:B *994:B 0.000180764
36 *1007:B *331:40 4.59075e-05
37 *1047:C *331:71 4.30317e-05
38 *1101:A1 *1100:B1 1.32552e-05
39 *1101:A2 *992:B 0
40 *1101:B1 *1100:B1 1.74352e-05
41 *1101:B2 *1100:B1 0.00010096
42 *1103:A2 *331:89 0
43 *1103:B1 *1000:D 2.95641e-05
44 *1103:B1 *1100:B1 0.000174232
45 *1103:B1 *331:89 0
46 *1103:B1 *331:93 0.000186662
47 *1103:C1 *992:B 0
48 *1103:C1 *331:89 0
49 *1104:B1 *331:12 0
50 *1104:B1 *331:14 0
51 *1104:B1 *331:67 0.000100969
52 *1104:B1 *331:89 5.10822e-05
53 *1112:D_N *998:B 0.000780462
54 *1112:D_N *331:40 9.47028e-05
55 *169:16 *331:6 0.000227728
56 *169:16 *331:12 5.33433e-05
57 *239:8 *331:12 0
58 *239:8 *331:14 0
59 *239:14 *1003:D_N 0
60 *242:6 *1001:B 4.72818e-05
61 *242:6 *331:71 1.74795e-05
62 *242:23 *331:89 0
63 *285:28 *1003:D_N 2.27416e-05
64 *312:8 *1001:B 5.52302e-05
65 *315:10 *1000:D 1.98839e-05
66 *327:84 *1000:D 0.00022266
67 *327:97 *1000:D 0.000508078
68 *327:97 *1100:B1 0.000313241
69 *327:97 *331:93 0.000190715
70 *328:16 *331:12 0
71 *328:16 *331:67 0
72 *328:44 *331:40 9.71197e-05
73 *330:34 *1003:D_N 5.52302e-05
*RES
1 *1211:X *331:6 13.5321 
2 *331:6 *331:12 6.48214 
3 *331:12 *331:14 2.25 
4 *331:14 *331:16 1.03571 
5 *331:16 *1003:D_N 15.675 
6 *331:16 *998:B 21.3179 
7 *331:14 *331:40 7.08929 
8 *331:40 *994:B 13.4607 
9 *331:40 *1006:A 9.3 
10 *331:12 *995:B 13.8 
11 *331:6 *331:67 7.05357 
12 *331:67 *331:71 7.91071 
13 *331:71 *1001:B 11.3893 
14 *331:71 *1005:D 9.3 
15 *331:67 *331:89 8.26786 
16 *331:89 *331:93 2.5 
17 *331:93 *1000:D 16.8179 
18 *331:93 *992:B 20.55 
19 *331:89 *1100:B1 14.7821 
*END

*D_NET *332 0.0161524
*CONN
*I *1134:RESET_B I *D sky130_fd_sc_hd__dfrtp_1
*I *1131:RESET_B I *D sky130_fd_sc_hd__dfrtp_2
*I *1135:RESET_B I *D sky130_fd_sc_hd__dfrtp_1
*I *1132:RESET_B I *D sky130_fd_sc_hd__dfrtp_1
*I *1139:RESET_B I *D sky130_fd_sc_hd__dfrtp_1
*I *1122:RESET_B I *D sky130_fd_sc_hd__dfrtp_2
*I *1136:RESET_B I *D sky130_fd_sc_hd__dfrtp_1
*I *1138:RESET_B I *D sky130_fd_sc_hd__dfrtp_1
*I *1123:RESET_B I *D sky130_fd_sc_hd__dfrtp_1
*I *1121:RESET_B I *D sky130_fd_sc_hd__dfrtp_4
*I *1212:X O *D sky130_fd_sc_hd__clkbuf_4
*CAP
1 *1134:RESET_B 0.000588327
2 *1131:RESET_B 6.91269e-05
3 *1135:RESET_B 0.000909881
4 *1132:RESET_B 0.000909881
5 *1139:RESET_B 0.000167361
6 *1122:RESET_B 0.000741319
7 *1136:RESET_B 6.63302e-05
8 *1138:RESET_B 0.000200972
9 *1123:RESET_B 7.13342e-05
10 *1121:RESET_B 0.00095111
11 *1212:X 0.00064988
12 *332:56 0.000906601
13 *332:52 0.00070064
14 *332:44 0.000827742
15 *332:40 0.000480631
16 *332:38 0.000607855
17 *332:36 0.00100291
18 *332:24 0.000536611
19 *1134:RESET_B *334:34 0.000225616
20 *1010:B *1122:RESET_B 0
21 *1040:A1 *332:24 5.59013e-05
22 *1040:B2 *332:24 0.00012401
23 *1086:B *332:24 0.000387122
24 *1086:B *332:36 0.00012798
25 *1086:B *332:38 7.17836e-05
26 *1087:B2 *1134:RESET_B 0.000797505
27 *1089:B *1122:RESET_B 0
28 *1093:A0 *332:40 0.000115467
29 *1093:A0 *332:44 0.000152333
30 *1093:S *332:38 1.69115e-05
31 *1097:A1 *1122:RESET_B 0
32 *1121:CLK *1121:RESET_B 6.0038e-05
33 *1121:D *1121:RESET_B 6.65302e-05
34 *1122:D *1122:RESET_B 1.02504e-05
35 *1123:D *1123:RESET_B 0.000178765
36 *1123:D *332:36 0.000126572
37 *1131:CLK *1131:RESET_B 5.03772e-05
38 *1131:D *1131:RESET_B 4.42798e-05
39 *1139:CLK *332:44 7.60306e-05
40 *1139:CLK *332:52 0.000753293
41 *1251:A *332:56 0
42 *1256:A *332:44 5.03787e-05
43 *116:8 *1135:RESET_B 0
44 *150:12 *1131:RESET_B 0.000261735
45 *150:12 *332:40 0
46 *150:29 *332:24 0.000102308
47 *150:38 *332:24 2.14378e-05
48 *150:59 *332:24 4.58194e-05
49 *199:20 *1122:RESET_B 0.000180002
50 *239:46 *332:24 6.80581e-05
51 *252:14 *1121:RESET_B 0
52 *268:10 *332:36 0
53 *268:10 *332:38 0
54 *268:16 *332:38 7.71417e-05
55 *268:18 *332:38 2.94103e-05
56 *268:18 *332:40 0.000284381
57 *268:18 *332:44 4.13573e-05
58 *268:20 *332:44 6.82922e-05
59 *268:42 *1135:RESET_B 8.44261e-05
60 *268:44 *1135:RESET_B 9.2342e-05
61 *268:59 *1135:RESET_B 0.00015957
62 *281:20 *1121:RESET_B 1.56604e-06
63 *281:20 *332:24 9.82612e-05
64 *282:10 *1122:RESET_B 0
65 *283:8 *1123:RESET_B 1.24368e-05
66 *283:8 *332:36 0.000137983
67 *300:21 *1121:RESET_B 4.36599e-05
68 *310:34 *1122:RESET_B 7.50601e-05
69 *310:34 *1136:RESET_B 7.40473e-05
70 *310:58 *1122:RESET_B 0.000313407
71 *326:34 *1122:RESET_B 0
72 *326:38 *1122:RESET_B 0
*RES
1 *1212:X *1121:RESET_B 27.3982 
2 *1121:RESET_B *332:24 17.8125 
3 *332:24 *1123:RESET_B 1.70536 
4 *332:24 *332:36 9.01786 
5 *332:36 *332:38 4.98214 
6 *332:38 *332:40 6.80357 
7 *332:40 *332:44 9.17857 
8 *332:44 *1138:RESET_B 2.9375 
9 *332:44 *332:52 8.75 
10 *332:52 *332:56 6.14286 
11 *332:56 *1136:RESET_B 5.79464 
12 *332:56 *1122:RESET_B 19.9196 
13 *332:52 *1139:RESET_B 2.52679 
14 *332:40 *1132:RESET_B 4.5 
15 *1132:RESET_B *1135:RESET_B 14.4286 
16 *332:38 *1131:RESET_B 7.02679 
17 *332:36 *1134:RESET_B 17.7054 
*END

*D_NET *333 0.0112678
*CONN
*I *1155:RESET_B I *D sky130_fd_sc_hd__dfrtp_1
*I *1141:RESET_B I *D sky130_fd_sc_hd__dfrtp_1
*I *1144:RESET_B I *D sky130_fd_sc_hd__dfrtp_1
*I *1133:RESET_B I *D sky130_fd_sc_hd__dfrtp_1
*I *1146:RESET_B I *D sky130_fd_sc_hd__dfrtp_1
*I *1145:RESET_B I *D sky130_fd_sc_hd__dfrtp_1
*I *1143:RESET_B I *D sky130_fd_sc_hd__dfrtp_1
*I *1119:RESET_B I *D sky130_fd_sc_hd__dfrtp_1
*I *1120:RESET_B I *D sky130_fd_sc_hd__dfrtp_1
*I *1125:RESET_B I *D sky130_fd_sc_hd__dfrtp_1
*I *1213:X O *D sky130_fd_sc_hd__clkbuf_4
*CAP
1 *1155:RESET_B 0.000254726
2 *1141:RESET_B 0
3 *1144:RESET_B 0
4 *1133:RESET_B 0.000508099
5 *1146:RESET_B 2.57878e-05
6 *1145:RESET_B 3.99586e-06
7 *1143:RESET_B 1.8035e-05
8 *1119:RESET_B 3.28991e-05
9 *1120:RESET_B 2.57878e-05
10 *1125:RESET_B 0.00023201
11 *1213:X 0
12 *333:105 0.000805253
13 *333:80 0.00112692
14 *333:66 0.000783374
15 *333:52 0.000573977
16 *333:46 0.000828608
17 *333:44 0.0013146
18 *333:34 0.000748306
19 *333:20 0.000662473
20 *333:4 0.000458353
21 *1125:RESET_B *1213:A 1.04232e-05
22 *1125:RESET_B *334:36 0.000660917
23 *333:20 *1156:RESET_B 9.00795e-06
24 *333:20 *334:36 5.19842e-06
25 *333:34 *1016:A1 0.00014285
26 *985:A *333:105 0
27 *1015:A1 *1143:RESET_B 4.85567e-05
28 *1015:A1 *333:52 9.90431e-05
29 *1015:A1 *333:66 3.34672e-05
30 *1016:A0 *333:34 0.000139913
31 *1016:S *333:34 0.000222784
32 *1017:A1 *333:46 0
33 *1017:S *1133:RESET_B 0
34 *1018:A0 *333:34 5.33005e-05
35 *1099:A2 *1155:RESET_B 0.00015304
36 *1104:A2 *1155:RESET_B 0
37 *1119:CLK *333:20 1.97381e-05
38 *1119:D *333:34 0.000142856
39 *1125:D *1125:RESET_B 0.000125877
40 *1133:D *1133:RESET_B 0.000125877
41 *1141:D *1155:RESET_B 0
42 *1141:D *333:105 0
43 *1143:CLK *1133:RESET_B 0
44 *1144:CLK *1145:RESET_B 2.81497e-05
45 *1144:CLK *333:66 9.7659e-05
46 *1144:CLK *333:80 0.000204734
47 *1155:CLK *1155:RESET_B 0
48 *1155:D *1155:RESET_B 0
49 *140:16 *333:34 4.70078e-05
50 *239:14 *1155:RESET_B 0
51 *243:16 *333:34 0
52 *265:8 *333:34 5.01117e-05
53 *265:8 *333:105 0
54 *266:8 *333:20 5.01117e-05
55 *270:23 *333:20 4.98055e-06
56 *270:36 *1120:RESET_B 2.51837e-05
57 *270:36 *333:34 7.48091e-05
58 *270:47 *1133:RESET_B 0
59 *270:47 *333:20 0
60 *270:51 *1133:RESET_B 0
61 *270:60 *1146:RESET_B 2.51837e-05
62 *270:60 *333:80 7.77751e-05
63 *270:67 *333:80 7.49621e-05
64 *310:20 *1133:RESET_B 0.000111052
*RES
1 *1213:X *333:4 9.3 
2 *333:4 *1125:RESET_B 7.5625 
3 *333:4 *333:20 12.6071 
4 *333:20 *1120:RESET_B 0.473214 
5 *333:20 *333:34 18.9821 
6 *333:34 *1119:RESET_B 0.473214 
7 *333:34 *333:44 9.14286 
8 *333:44 *333:46 8.32143 
9 *333:46 *333:52 10.7857 
10 *333:52 *1143:RESET_B 0.473214 
11 *333:52 *333:66 12.4107 
12 *333:66 *1145:RESET_B 0.473214 
13 *333:66 *333:80 9.32143 
14 *333:80 *1146:RESET_B 0.473214 
15 *333:80 *1133:RESET_B 18.2768 
16 *333:46 *1144:RESET_B 4.5 
17 *333:44 *333:105 9.83929 
18 *333:105 *1141:RESET_B 4.5 
19 *333:105 *1155:RESET_B 9.48214 
*END

*D_NET *334 0.0138025
*CONN
*I *1212:A I *D sky130_fd_sc_hd__clkbuf_4
*I *1153:RESET_B I *D sky130_fd_sc_hd__dfrtp_1
*I *1156:RESET_B I *D sky130_fd_sc_hd__dfrtp_1
*I *1213:A I *D sky130_fd_sc_hd__clkbuf_4
*I *1137:RESET_B I *D sky130_fd_sc_hd__dfrtp_1
*I *1214:X O *D sky130_fd_sc_hd__clkbuf_2
*CAP
1 *1212:A 0.000568526
2 *1153:RESET_B 0
3 *1156:RESET_B 0.000681956
4 *1213:A 1.99857e-05
5 *1137:RESET_B 3.48198e-05
6 *1214:X 0
7 *334:58 0.000735669
8 *334:36 0.00135649
9 *334:34 0.00293967
10 *334:12 0.00320448
11 *334:6 0.00105169
12 *1212:A *1154:RESET_B 2.81497e-05
13 *1050:A1 *334:34 7.83587e-05
14 *1084:C1 *1156:RESET_B 0
15 *1084:D1 *1156:RESET_B 0
16 *1086:B *334:34 2.34204e-05
17 *1087:A1 *334:34 1.45433e-05
18 *1087:B2 *334:34 9.86015e-05
19 *1087:C1 *334:34 4.04021e-05
20 *1111:A1 *1156:RESET_B 0
21 *1125:D *334:36 3.40725e-05
22 *1125:RESET_B *1213:A 1.04232e-05
23 *1125:RESET_B *334:36 0.000660917
24 *1134:RESET_B *334:34 0.000225616
25 *1137:D *334:12 7.49566e-05
26 *1197:A *1212:A 0.000121948
27 *1214:A *1212:A 0
28 *1214:A *334:58 0.000140311
29 *1217:A *1156:RESET_B 4.87953e-05
30 *139:42 *1156:RESET_B 0.00037767
31 *140:16 *1156:RESET_B 3.69697e-05
32 *150:29 *334:34 7.70035e-05
33 *199:10 *334:34 9.41642e-05
34 *253:8 *1212:A 0.000450764
35 *268:85 *334:12 9.24395e-05
36 *268:104 *334:12 7.80929e-05
37 *270:23 *1156:RESET_B 0.000363245
38 *310:95 *1156:RESET_B 2.41224e-05
39 *333:20 *1156:RESET_B 9.00795e-06
40 *333:20 *334:36 5.19842e-06
*RES
1 *1214:X *334:6 13.8 
2 *334:6 *334:12 17.8036 
3 *334:12 *1137:RESET_B 0.669643 
4 *334:12 *334:34 45.7857 
5 *334:34 *334:36 9.16071 
6 *334:36 *1213:A 9.72857 
7 *334:36 *1156:RESET_B 22.6429 
8 *334:6 *334:58 4 
9 *334:58 *1153:RESET_B 4.5 
10 *334:58 *1212:A 25.425 
*END

*D_NET *335 0.00853201
*CONN
*I *1128:RESET_B I *D sky130_fd_sc_hd__dfrtp_2
*I *1142:RESET_B I *D sky130_fd_sc_hd__dfrtp_1
*I *1129:RESET_B I *D sky130_fd_sc_hd__dfrtp_1
*I *1149:RESET_B I *D sky130_fd_sc_hd__dfrtp_1
*I *1148:RESET_B I *D sky130_fd_sc_hd__dfrtp_1
*I *1147:RESET_B I *D sky130_fd_sc_hd__dfrtp_1
*I *1150:RESET_B I *D sky130_fd_sc_hd__dfrtp_1
*I *1151:RESET_B I *D sky130_fd_sc_hd__dfrtp_1
*I *1154:RESET_B I *D sky130_fd_sc_hd__dfrtp_1
*I *1152:RESET_B I *D sky130_fd_sc_hd__dfrtp_1
*I *1215:X O *D sky130_fd_sc_hd__clkbuf_4
*CAP
1 *1128:RESET_B 0.000399765
2 *1142:RESET_B 0.000474309
3 *1129:RESET_B 8.8395e-05
4 *1149:RESET_B 2.80259e-05
5 *1148:RESET_B 3.59957e-05
6 *1147:RESET_B 1.45729e-05
7 *1150:RESET_B 3.59957e-05
8 *1151:RESET_B 0.000115812
9 *1154:RESET_B 0.000129232
10 *1152:RESET_B 6.26071e-05
11 *1215:X 0.000176226
12 *335:84 0.000562704
13 *335:82 0.000964965
14 *335:72 0.00067605
15 *335:60 0.000328302
16 *335:50 0.000615581
17 *335:40 0.000745534
18 *335:26 0.000620695
19 *335:14 0.000316102
20 *335:6 0.000238833
21 *1142:RESET_B *347:8 0.000132341
22 *335:26 *1151:D 1.02504e-05
23 *335:40 *1151:D 0.000287301
24 *1035:A1 *335:50 2.5463e-05
25 *1042:B *335:50 0
26 *1127:CLK *1142:RESET_B 0
27 *1128:D *1129:RESET_B 0
28 *1151:CLK *335:26 0
29 *1151:CLK *335:40 3.70247e-05
30 *1212:A *1154:RESET_B 2.81497e-05
31 *1263:A *1147:RESET_B 1.66258e-05
32 *1263:A *335:50 9.34004e-05
33 *251:6 *335:6 9.68208e-05
34 *262:10 *335:50 0.000145594
35 *262:10 *335:60 0.000210525
36 *262:10 *335:72 5.33978e-05
37 *269:91 *1149:RESET_B 2.51837e-05
38 *269:91 *335:82 0.000294696
39 *269:104 *1128:RESET_B 6.79057e-05
40 *269:104 *335:82 0.000329068
41 *302:18 *1147:RESET_B 4.85567e-05
*RES
1 *1215:X *335:6 12.7107 
2 *335:6 *1152:RESET_B 0.883929 
3 *335:6 *335:14 4.5 
4 *335:14 *1154:RESET_B 6.61607 
5 *335:14 *335:26 3.46429 
6 *335:26 *1151:RESET_B 6.20536 
7 *335:26 *335:40 7.16071 
8 *335:40 *1150:RESET_B 4.97321 
9 *335:40 *335:50 8.32143 
10 *335:50 *1147:RESET_B 4.97321 
11 *335:50 *335:60 4.98214 
12 *335:60 *1148:RESET_B 4.97321 
13 *335:60 *335:72 6.14286 
14 *335:72 *1149:RESET_B 0.473214 
15 *335:72 *335:82 11.2321 
16 *335:82 *335:84 4.5 
17 *335:84 *1129:RESET_B 5.83929 
18 *335:84 *1142:RESET_B 12.9554 
19 *335:82 *1128:RESET_B 5.54464 
*END

*D_NET *336 0.00929859
*CONN
*I *1124:RESET_B I *D sky130_fd_sc_hd__dfrtp_1
*I *1127:RESET_B I *D sky130_fd_sc_hd__dfrtp_2
*I *1140:RESET_B I *D sky130_fd_sc_hd__dfrtp_1
*I *1157:RESET_B I *D sky130_fd_sc_hd__dfrtp_1
*I *1126:RESET_B I *D sky130_fd_sc_hd__dfrtp_1
*I *1158:RESET_B I *D sky130_fd_sc_hd__dfrtp_1
*I *1130:RESET_B I *D sky130_fd_sc_hd__dfrtp_1
*I *1216:X O *D sky130_fd_sc_hd__buf_2
*CAP
1 *1124:RESET_B 2.78745e-05
2 *1127:RESET_B 0.000141139
3 *1140:RESET_B 0
4 *1157:RESET_B 0.000124001
5 *1126:RESET_B 3.10605e-05
6 *1158:RESET_B 0.000390088
7 *1130:RESET_B 8.28119e-05
8 *1216:X 0.000167989
9 *336:56 0.00110397
10 *336:42 0.00145034
11 *336:34 0.00124844
12 *336:20 0.00113904
13 *336:10 0.00047909
14 *336:8 0.000511176
15 *336:56 *987:A 2.89114e-05
16 *1009:A *336:56 2.13481e-06
17 *1050:A1 *1124:RESET_B 2.26973e-05
18 *1050:A1 *336:8 0.000152919
19 *1050:A1 *336:10 1.43864e-05
20 *1061:A1 *336:42 9.71197e-05
21 *1061:S *1127:RESET_B 0
22 *1061:S *336:34 0
23 *1081:C1 *336:10 9.37018e-05
24 *1081:C1 *336:20 3.9745e-05
25 *1081:C1 *336:34 1.00375e-05
26 *1082:A2 *336:34 0.000229415
27 *1082:B1 *336:34 5.01117e-05
28 *1124:CLK *336:10 0.000372248
29 *1124:D *336:8 0
30 *1126:CLK *1126:RESET_B 7.24753e-05
31 *1126:CLK *336:42 7.57542e-05
32 *1126:CLK *336:56 0.000173543
33 *1126:D *336:42 5.52302e-05
34 *1158:CLK *336:10 0
35 *1158:CLK *336:20 0
36 *1158:CLK *336:34 0
37 *1160:A *1157:RESET_B 9.81719e-05
38 *1160:A *336:56 3.15645e-05
39 *1220:A *336:56 1.92905e-05
40 *1249:A *336:34 5.51406e-05
41 *173:14 *336:34 0
42 *174:8 *336:34 3.06406e-05
43 *174:14 *336:34 8.67783e-05
44 *176:10 *336:34 0.00012401
45 *176:14 *336:34 4.47791e-05
46 *177:19 *336:34 0
47 *264:10 *1157:RESET_B 0
48 *277:10 *1127:RESET_B 9.57064e-05
49 *277:10 *336:34 1.08359e-05
50 *277:16 *336:34 0.000179053
51 *280:6 *1130:RESET_B 0.000135163
52 *325:35 *336:34 0
*RES
1 *1216:X *336:8 17.7196 
2 *336:8 *336:10 8.16964 
3 *336:10 *1130:RESET_B 6.20536 
4 *336:10 *336:20 1.64286 
5 *336:20 *1158:RESET_B 10.3125 
6 *336:20 *336:34 15.3571 
7 *336:34 *336:42 11.75 
8 *336:42 *1126:RESET_B 1.72321 
9 *336:42 *336:56 17.4643 
10 *336:56 *1157:RESET_B 7.66071 
11 *336:56 *1140:RESET_B 4.5 
12 *336:34 *1127:RESET_B 7.66071 
13 *336:8 *1124:RESET_B 5.3125 
*END

*D_NET *337 0.000424759
*CONN
*I *1146:D I *D sky130_fd_sc_hd__dfrtp_1
*I *1245:X O *D sky130_fd_sc_hd__clkbuf_1
*CAP
1 *1146:D 0.00021238
2 *1245:X 0.00021238
3 *1253:A *1146:D 0
*RES
1 *1245:X *1146:D 31.3679 
*END

*D_NET *338 0.00172579
*CONN
*I *1151:D I *D sky130_fd_sc_hd__dfrtp_1
*I *1246:X O *D sky130_fd_sc_hd__clkbuf_1
*CAP
1 *1151:D 0.000595266
2 *1246:X 0.000595266
3 *1151:CLK *1151:D 0.000109661
4 *269:12 *1151:D 6.54675e-05
5 *269:16 *1151:D 6.25743e-05
6 *335:26 *1151:D 1.02504e-05
7 *335:40 *1151:D 0.000287301
*RES
1 *1246:X *1151:D 37.6536 
*END

*D_NET *339 0.000662322
*CONN
*I *1152:D I *D sky130_fd_sc_hd__dfrtp_1
*I *1247:X O *D sky130_fd_sc_hd__clkbuf_1
*CAP
1 *1152:D 0.000205975
2 *1247:X 0.000205975
3 *1154:CLK *1152:D 4.1331e-06
4 *1154:D *1152:D 0.000128146
5 *1247:A *1152:D 9.60337e-06
6 *269:18 *1152:D 0.000108489
*RES
1 *1247:X *1152:D 32.2071 
*END

*D_NET *340 0.000288268
*CONN
*I *1153:D I *D sky130_fd_sc_hd__dfrtp_1
*I *1248:X O *D sky130_fd_sc_hd__clkbuf_1
*CAP
1 *1153:D 0.000144134
2 *1248:X 0.000144134
3 *1214:A *1153:D 0
*RES
1 *1248:X *1153:D 29.7786 
*END

*D_NET *341 0.000611463
*CONN
*I *1018:A1 I *D sky130_fd_sc_hd__mux2_1
*I *1217:X O *D sky130_fd_sc_hd__dlygate4sd3_1
*CAP
1 *1018:A1 0.000242008
2 *1217:X 0.000242008
3 *243:16 *1018:A1 0
4 *310:95 *1018:A1 0.000127446
*RES
1 *1217:X *1018:A1 31.0107 
*END

*D_NET *342 0.000484119
*CONN
*I *1016:A1 I *D sky130_fd_sc_hd__mux2_1
*I *1218:X O *D sky130_fd_sc_hd__dlygate4sd3_1
*CAP
1 *1016:A1 0.00016879
2 *1218:X 0.00016879
3 *1218:A *1016:A1 3.69047e-06
4 *333:34 *1016:A1 0.00014285
*RES
1 *1218:X *1016:A1 20.7786 
*END

*D_NET *343 6.37568e-05
*CONN
*I *1238:A I *D sky130_fd_sc_hd__buf_1
*I *1219:X O *D sky130_fd_sc_hd__dlygate4sd3_1
*CAP
1 *1238:A 3.18784e-05
2 *1219:X 3.18784e-05
*RES
1 *1219:X *1238:A 19.1357 
*END

*D_NET *344 8.11121e-05
*CONN
*I *987:A I *D sky130_fd_sc_hd__inv_2
*I *1220:X O *D sky130_fd_sc_hd__dlygate4sd3_1
*CAP
1 *987:A 2.61003e-05
2 *1220:X 2.61003e-05
3 *336:56 *987:A 2.89114e-05
*RES
1 *1220:X *987:A 19.1357 
*END

*D_NET *345 0.000518089
*CONN
*I *1098:A1 I *D sky130_fd_sc_hd__mux2_1
*I *1221:X O *D sky130_fd_sc_hd__dlygate4sd3_1
*CAP
1 *1098:A1 0.000120939
2 *1221:X 0.000120939
3 *1221:A *1098:A1 0.000276211
*RES
1 *1221:X *1098:A1 21.1893 
*END

*D_NET *346 0.00146779
*CONN
*I *1046:A0 I *D sky130_fd_sc_hd__mux2_1
*I *1222:X O *D sky130_fd_sc_hd__dlygate4sd3_1
*CAP
1 *1046:A0 0.000719443
2 *1222:X 0.000719443
3 *1045:B2 *1046:A0 0
4 *1046:A1 *1046:A0 2.89016e-05
5 *1124:D *1046:A0 0
*RES
1 *1222:X *1046:A0 37.3679 
*END

*D_NET *347 0.00952304
*CONN
*I *988:A I *D sky130_fd_sc_hd__inv_2
*I *1117:A1 I *D sky130_fd_sc_hd__a31o_1
*I *1142:Q O *D sky130_fd_sc_hd__dfrtp_1
*CAP
1 *988:A 0
2 *1117:A1 0.000246316
3 *1142:Q 0.00164561
4 *347:16 0.00212911
5 *347:8 0.0035284
6 *1052:A1 *347:16 0.000318101
7 *1053:A1 *347:16 0.000503924
8 *1102:A1 *1117:A1 0
9 *1126:D *347:16 9.71197e-05
10 *1127:CLK *347:8 0.000639707
11 *1142:RESET_B *347:8 0.000132341
12 *1257:A *1117:A1 0.000176417
13 *1257:A *347:16 4.1331e-06
14 *236:21 *1117:A1 2.8266e-06
15 *264:10 *347:16 0
16 *277:10 *347:16 9.90431e-05
*RES
1 *1142:Q *347:8 31.2107 
2 *347:8 *347:16 43 
3 *347:16 *1117:A1 23.1571 
4 *347:16 *988:A 9.3 
*END
