*SPEF "ieee 1481-1999"
*DESIGN "bridge"
*DATE "08:40:20 Thursday May 07, 2026"
*VENDOR "The OpenROAD Project"
*PROGRAM "OpenROAD"
*VERSION "edf00dff99f6c40d67a30c0e22a8191c5d2ed9d6"
*DESIGN_FLOW "NAME_SCOPE LOCAL" "PIN_CAP NONE"
*DIVIDER /
*DELIMITER :
*BUS_DELIMITER []
*T_UNIT 1 NS
*C_UNIT 1 PF
*R_UNIT 1 OHM
*L_UNIT 1 HENRY

*NAME_MAP
*1 PADDR[0]
*2 PADDR[1]
*3 PADDR[2]
*4 PENABLE
*5 PRDATA[0]
*6 PRDATA[10]
*7 PRDATA[11]
*8 PRDATA[12]
*9 PRDATA[13]
*10 PRDATA[14]
*11 PRDATA[15]
*12 PRDATA[1]
*13 PRDATA[2]
*14 PRDATA[3]
*15 PRDATA[4]
*16 PRDATA[5]
*17 PRDATA[6]
*18 PRDATA[7]
*19 PRDATA[8]
*20 PRDATA[9]
*21 PREADY
*22 PSEL1
*23 PSEL2
*24 PSEL3
*25 PSEL4
*26 PWDATA[0]
*27 PWDATA[10]
*28 PWDATA[11]
*29 PWDATA[12]
*30 PWDATA[13]
*31 PWDATA[14]
*32 PWDATA[15]
*33 PWDATA[1]
*34 PWDATA[2]
*35 PWDATA[3]
*36 PWDATA[4]
*37 PWDATA[5]
*38 PWDATA[6]
*39 PWDATA[7]
*40 PWDATA[8]
*41 PWDATA[9]
*42 PWRITE
*45 araddr[0]
*46 araddr[1]
*47 araddr[2]
*48 araddr[3]
*49 araddr[4]
*50 arburst[0]
*51 arburst[1]
*52 arlen[0]
*53 arlen[1]
*54 arlen[2]
*55 arlen[3]
*56 arready
*57 arvalid
*58 awaddr[0]
*59 awaddr[1]
*60 awaddr[2]
*61 awaddr[3]
*62 awaddr[4]
*63 awburst[0]
*64 awburst[1]
*65 awlen[0]
*66 awlen[1]
*67 awlen[2]
*68 awlen[3]
*69 awready
*70 awvalid
*71 bready
*72 bresp
*73 bvalid
*74 clk
*75 rdata[0]
*76 rdata[10]
*77 rdata[11]
*78 rdata[12]
*79 rdata[13]
*80 rdata[14]
*81 rdata[15]
*82 rdata[1]
*83 rdata[2]
*84 rdata[3]
*85 rdata[4]
*86 rdata[5]
*87 rdata[6]
*88 rdata[7]
*89 rdata[8]
*90 rdata[9]
*91 res_n
*92 rlast
*93 rready
*94 rresp
*95 rvalid
*96 wdata[0]
*97 wdata[10]
*98 wdata[11]
*99 wdata[12]
*100 wdata[13]
*101 wdata[14]
*102 wdata[15]
*103 wdata[1]
*104 wdata[2]
*105 wdata[3]
*106 wdata[4]
*107 wdata[5]
*108 wdata[6]
*109 wdata[7]
*110 wdata[8]
*111 wdata[9]
*112 wlast
*113 wready
*114 wvalid
*115 DADDR\[0\]
*116 DADDR\[1\]
*117 DADDR\[2\]
*118 DDATA\[0\]\[0\]
*119 DDATA\[0\]\[10\]
*120 DDATA\[0\]\[11\]
*121 DDATA\[0\]\[12\]
*122 DDATA\[0\]\[13\]
*123 DDATA\[0\]\[14\]
*124 DDATA\[0\]\[15\]
*125 DDATA\[0\]\[1\]
*126 DDATA\[0\]\[2\]
*127 DDATA\[0\]\[3\]
*128 DDATA\[0\]\[4\]
*129 DDATA\[0\]\[5\]
*130 DDATA\[0\]\[6\]
*131 DDATA\[0\]\[7\]
*132 DDATA\[0\]\[8\]
*133 DDATA\[0\]\[9\]
*134 DDATA\[10\]\[0\]
*135 DDATA\[10\]\[10\]
*136 DDATA\[10\]\[11\]
*137 DDATA\[10\]\[12\]
*138 DDATA\[10\]\[13\]
*139 DDATA\[10\]\[14\]
*140 DDATA\[10\]\[15\]
*141 DDATA\[10\]\[1\]
*142 DDATA\[10\]\[2\]
*143 DDATA\[10\]\[3\]
*144 DDATA\[10\]\[4\]
*145 DDATA\[10\]\[5\]
*146 DDATA\[10\]\[6\]
*147 DDATA\[10\]\[7\]
*148 DDATA\[10\]\[8\]
*149 DDATA\[10\]\[9\]
*150 DDATA\[11\]\[0\]
*151 DDATA\[11\]\[10\]
*152 DDATA\[11\]\[11\]
*153 DDATA\[11\]\[12\]
*154 DDATA\[11\]\[13\]
*155 DDATA\[11\]\[14\]
*156 DDATA\[11\]\[15\]
*157 DDATA\[11\]\[1\]
*158 DDATA\[11\]\[2\]
*159 DDATA\[11\]\[3\]
*160 DDATA\[11\]\[4\]
*161 DDATA\[11\]\[5\]
*162 DDATA\[11\]\[6\]
*163 DDATA\[11\]\[7\]
*164 DDATA\[11\]\[8\]
*165 DDATA\[11\]\[9\]
*166 DDATA\[12\]\[0\]
*167 DDATA\[12\]\[10\]
*168 DDATA\[12\]\[11\]
*169 DDATA\[12\]\[12\]
*170 DDATA\[12\]\[13\]
*171 DDATA\[12\]\[14\]
*172 DDATA\[12\]\[15\]
*173 DDATA\[12\]\[1\]
*174 DDATA\[12\]\[2\]
*175 DDATA\[12\]\[3\]
*176 DDATA\[12\]\[4\]
*177 DDATA\[12\]\[5\]
*178 DDATA\[12\]\[6\]
*179 DDATA\[12\]\[7\]
*180 DDATA\[12\]\[8\]
*181 DDATA\[12\]\[9\]
*182 DDATA\[13\]\[0\]
*183 DDATA\[13\]\[10\]
*184 DDATA\[13\]\[11\]
*185 DDATA\[13\]\[12\]
*186 DDATA\[13\]\[13\]
*187 DDATA\[13\]\[14\]
*188 DDATA\[13\]\[15\]
*189 DDATA\[13\]\[1\]
*190 DDATA\[13\]\[2\]
*191 DDATA\[13\]\[3\]
*192 DDATA\[13\]\[4\]
*193 DDATA\[13\]\[5\]
*194 DDATA\[13\]\[6\]
*195 DDATA\[13\]\[7\]
*196 DDATA\[13\]\[8\]
*197 DDATA\[13\]\[9\]
*198 DDATA\[14\]\[0\]
*199 DDATA\[14\]\[10\]
*200 DDATA\[14\]\[11\]
*201 DDATA\[14\]\[12\]
*202 DDATA\[14\]\[13\]
*203 DDATA\[14\]\[14\]
*204 DDATA\[14\]\[15\]
*205 DDATA\[14\]\[1\]
*206 DDATA\[14\]\[2\]
*207 DDATA\[14\]\[3\]
*208 DDATA\[14\]\[4\]
*209 DDATA\[14\]\[5\]
*210 DDATA\[14\]\[6\]
*211 DDATA\[14\]\[7\]
*212 DDATA\[14\]\[8\]
*213 DDATA\[14\]\[9\]
*214 DDATA\[15\]\[0\]
*215 DDATA\[15\]\[10\]
*216 DDATA\[15\]\[11\]
*217 DDATA\[15\]\[12\]
*218 DDATA\[15\]\[13\]
*219 DDATA\[15\]\[14\]
*220 DDATA\[15\]\[15\]
*221 DDATA\[15\]\[1\]
*222 DDATA\[15\]\[2\]
*223 DDATA\[15\]\[3\]
*224 DDATA\[15\]\[4\]
*225 DDATA\[15\]\[5\]
*226 DDATA\[15\]\[6\]
*227 DDATA\[15\]\[7\]
*228 DDATA\[15\]\[8\]
*229 DDATA\[15\]\[9\]
*230 DDATA\[1\]\[0\]
*231 DDATA\[1\]\[10\]
*232 DDATA\[1\]\[11\]
*233 DDATA\[1\]\[12\]
*234 DDATA\[1\]\[13\]
*235 DDATA\[1\]\[14\]
*236 DDATA\[1\]\[15\]
*237 DDATA\[1\]\[1\]
*238 DDATA\[1\]\[2\]
*239 DDATA\[1\]\[3\]
*240 DDATA\[1\]\[4\]
*241 DDATA\[1\]\[5\]
*242 DDATA\[1\]\[6\]
*243 DDATA\[1\]\[7\]
*244 DDATA\[1\]\[8\]
*245 DDATA\[1\]\[9\]
*246 DDATA\[2\]\[0\]
*247 DDATA\[2\]\[10\]
*248 DDATA\[2\]\[11\]
*249 DDATA\[2\]\[12\]
*250 DDATA\[2\]\[13\]
*251 DDATA\[2\]\[14\]
*252 DDATA\[2\]\[15\]
*253 DDATA\[2\]\[1\]
*254 DDATA\[2\]\[2\]
*255 DDATA\[2\]\[3\]
*256 DDATA\[2\]\[4\]
*257 DDATA\[2\]\[5\]
*258 DDATA\[2\]\[6\]
*259 DDATA\[2\]\[7\]
*260 DDATA\[2\]\[8\]
*261 DDATA\[2\]\[9\]
*262 DDATA\[3\]\[0\]
*263 DDATA\[3\]\[10\]
*264 DDATA\[3\]\[11\]
*265 DDATA\[3\]\[12\]
*266 DDATA\[3\]\[13\]
*267 DDATA\[3\]\[14\]
*268 DDATA\[3\]\[15\]
*269 DDATA\[3\]\[1\]
*270 DDATA\[3\]\[2\]
*271 DDATA\[3\]\[3\]
*272 DDATA\[3\]\[4\]
*273 DDATA\[3\]\[5\]
*274 DDATA\[3\]\[6\]
*275 DDATA\[3\]\[7\]
*276 DDATA\[3\]\[8\]
*277 DDATA\[3\]\[9\]
*278 DDATA\[4\]\[0\]
*279 DDATA\[4\]\[10\]
*280 DDATA\[4\]\[11\]
*281 DDATA\[4\]\[12\]
*282 DDATA\[4\]\[13\]
*283 DDATA\[4\]\[14\]
*284 DDATA\[4\]\[15\]
*285 DDATA\[4\]\[1\]
*286 DDATA\[4\]\[2\]
*287 DDATA\[4\]\[3\]
*288 DDATA\[4\]\[4\]
*289 DDATA\[4\]\[5\]
*290 DDATA\[4\]\[6\]
*291 DDATA\[4\]\[7\]
*292 DDATA\[4\]\[8\]
*293 DDATA\[4\]\[9\]
*294 DDATA\[5\]\[0\]
*295 DDATA\[5\]\[10\]
*296 DDATA\[5\]\[11\]
*297 DDATA\[5\]\[12\]
*298 DDATA\[5\]\[13\]
*299 DDATA\[5\]\[14\]
*300 DDATA\[5\]\[15\]
*301 DDATA\[5\]\[1\]
*302 DDATA\[5\]\[2\]
*303 DDATA\[5\]\[3\]
*304 DDATA\[5\]\[4\]
*305 DDATA\[5\]\[5\]
*306 DDATA\[5\]\[6\]
*307 DDATA\[5\]\[7\]
*308 DDATA\[5\]\[8\]
*309 DDATA\[5\]\[9\]
*310 DDATA\[6\]\[0\]
*311 DDATA\[6\]\[10\]
*312 DDATA\[6\]\[11\]
*313 DDATA\[6\]\[12\]
*314 DDATA\[6\]\[13\]
*315 DDATA\[6\]\[14\]
*316 DDATA\[6\]\[15\]
*317 DDATA\[6\]\[1\]
*318 DDATA\[6\]\[2\]
*319 DDATA\[6\]\[3\]
*320 DDATA\[6\]\[4\]
*321 DDATA\[6\]\[5\]
*322 DDATA\[6\]\[6\]
*323 DDATA\[6\]\[7\]
*324 DDATA\[6\]\[8\]
*325 DDATA\[6\]\[9\]
*326 DDATA\[7\]\[0\]
*327 DDATA\[7\]\[10\]
*328 DDATA\[7\]\[11\]
*329 DDATA\[7\]\[12\]
*330 DDATA\[7\]\[13\]
*331 DDATA\[7\]\[14\]
*332 DDATA\[7\]\[15\]
*333 DDATA\[7\]\[1\]
*334 DDATA\[7\]\[2\]
*335 DDATA\[7\]\[3\]
*336 DDATA\[7\]\[4\]
*337 DDATA\[7\]\[5\]
*338 DDATA\[7\]\[6\]
*339 DDATA\[7\]\[7\]
*340 DDATA\[7\]\[8\]
*341 DDATA\[7\]\[9\]
*342 DDATA\[8\]\[0\]
*343 DDATA\[8\]\[10\]
*344 DDATA\[8\]\[11\]
*345 DDATA\[8\]\[12\]
*346 DDATA\[8\]\[13\]
*347 DDATA\[8\]\[14\]
*348 DDATA\[8\]\[15\]
*349 DDATA\[8\]\[1\]
*350 DDATA\[8\]\[2\]
*351 DDATA\[8\]\[3\]
*352 DDATA\[8\]\[4\]
*353 DDATA\[8\]\[5\]
*354 DDATA\[8\]\[6\]
*355 DDATA\[8\]\[7\]
*356 DDATA\[8\]\[8\]
*357 DDATA\[8\]\[9\]
*358 DDATA\[9\]\[0\]
*359 DDATA\[9\]\[10\]
*360 DDATA\[9\]\[11\]
*361 DDATA\[9\]\[12\]
*362 DDATA\[9\]\[13\]
*363 DDATA\[9\]\[14\]
*364 DDATA\[9\]\[15\]
*365 DDATA\[9\]\[1\]
*366 DDATA\[9\]\[2\]
*367 DDATA\[9\]\[3\]
*368 DDATA\[9\]\[4\]
*369 DDATA\[9\]\[5\]
*370 DDATA\[9\]\[6\]
*371 DDATA\[9\]\[7\]
*372 DDATA\[9\]\[8\]
*373 DDATA\[9\]\[9\]
*374 DWREQ\[0\]
*375 DWREQ\[1\]
*376 _0000_
*377 _0001_
*378 _0002_
*379 _0003_
*380 _0004_
*381 _0005_
*382 _0006_
*383 _0007_
*384 _0008_
*385 _0009_
*386 _0010_
*387 _0011_
*388 _0012_
*389 _0013_
*390 _0014_
*391 _0015_
*392 _0016_
*393 _0017_
*394 _0018_
*395 _0019_
*396 _0020_
*397 _0021_
*398 _0022_
*399 _0023_
*400 _0024_
*401 _0025_
*402 _0026_
*403 _0027_
*404 _0028_
*405 _0029_
*406 _0030_
*407 _0031_
*408 _0032_
*409 _0033_
*410 _0034_
*411 _0035_
*412 _0036_
*413 _0037_
*414 _0038_
*415 _0039_
*416 _0040_
*417 _0041_
*418 _0042_
*419 _0043_
*420 _0044_
*421 _0045_
*422 _0046_
*423 _0047_
*424 _0048_
*425 _0049_
*426 _0050_
*427 _0051_
*428 _0052_
*429 _0053_
*430 _0054_
*431 _0055_
*432 _0056_
*433 _0057_
*434 _0058_
*435 _0059_
*436 _0060_
*437 _0061_
*438 _0062_
*439 _0063_
*440 _0064_
*441 _0065_
*442 _0066_
*443 _0067_
*444 _0068_
*445 _0069_
*446 _0070_
*447 _0071_
*448 _0072_
*449 _0073_
*450 _0074_
*451 _0075_
*452 _0076_
*453 _0077_
*454 _0078_
*455 _0079_
*456 _0080_
*457 _0081_
*458 _0082_
*459 _0083_
*460 _0084_
*461 _0085_
*462 _0086_
*463 _0087_
*464 _0088_
*465 _0089_
*466 _0090_
*467 _0091_
*468 _0092_
*469 _0093_
*470 _0094_
*471 _0095_
*472 _0096_
*473 _0097_
*474 _0098_
*475 _0099_
*476 _0100_
*477 _0101_
*478 _0102_
*479 _0103_
*480 _0104_
*481 _0105_
*482 _0106_
*483 _0107_
*484 _0108_
*485 _0109_
*486 _0110_
*487 _0111_
*488 _0112_
*489 _0113_
*490 _0114_
*491 _0115_
*492 _0116_
*493 _0117_
*494 _0118_
*495 _0119_
*496 _0120_
*497 _0121_
*498 _0122_
*499 _0123_
*500 _0124_
*501 _0125_
*502 _0126_
*503 _0127_
*504 _0128_
*505 _0129_
*506 _0130_
*507 _0131_
*508 _0132_
*509 _0133_
*510 _0134_
*511 _0135_
*512 _0136_
*513 _0137_
*514 _0138_
*515 _0139_
*516 _0140_
*517 _0141_
*518 _0142_
*519 _0143_
*520 _0144_
*521 _0145_
*522 _0146_
*523 _0147_
*524 _0148_
*525 _0149_
*526 _0150_
*527 _0151_
*528 _0152_
*529 _0153_
*530 _0154_
*531 _0155_
*532 _0156_
*533 _0157_
*534 _0158_
*535 _0159_
*536 _0160_
*537 _0161_
*538 _0162_
*539 _0163_
*540 _0164_
*541 _0165_
*542 _0166_
*543 _0167_
*544 _0168_
*545 _0169_
*546 _0170_
*547 _0171_
*548 _0172_
*549 _0173_
*550 _0174_
*551 _0175_
*552 _0176_
*553 _0177_
*554 _0178_
*555 _0179_
*556 _0180_
*557 _0181_
*558 _0182_
*559 _0183_
*560 _0184_
*561 _0185_
*562 _0186_
*563 _0187_
*564 _0188_
*565 _0189_
*566 _0190_
*567 _0191_
*568 _0192_
*569 _0193_
*570 _0194_
*571 _0195_
*572 _0196_
*573 _0197_
*574 _0198_
*575 _0199_
*576 _0200_
*577 _0201_
*578 _0202_
*579 _0203_
*580 _0204_
*581 _0205_
*582 _0206_
*583 _0207_
*584 _0208_
*585 _0209_
*586 _0210_
*587 _0211_
*588 _0212_
*589 _0213_
*590 _0214_
*591 _0215_
*592 _0216_
*593 _0217_
*594 _0218_
*595 _0219_
*596 _0220_
*597 _0221_
*598 _0222_
*599 _0223_
*600 _0224_
*601 _0225_
*602 _0226_
*603 _0227_
*604 _0228_
*605 _0229_
*606 _0230_
*607 _0231_
*608 _0232_
*609 _0233_
*610 _0234_
*611 _0235_
*612 _0236_
*613 _0237_
*614 _0238_
*615 _0239_
*616 _0240_
*617 _0241_
*618 _0242_
*619 _0243_
*620 _0244_
*621 _0245_
*622 _0246_
*623 _0247_
*624 _0248_
*625 _0249_
*626 _0250_
*627 _0251_
*628 _0252_
*629 _0253_
*630 _0254_
*631 _0255_
*632 _0256_
*633 _0257_
*634 _0258_
*635 _0259_
*636 _0260_
*637 _0261_
*638 _0262_
*639 _0263_
*640 _0264_
*641 _0265_
*642 _0266_
*643 _0267_
*644 _0268_
*645 _0269_
*646 _0270_
*647 _0271_
*648 _0272_
*649 _0273_
*650 _0274_
*651 _0275_
*652 _0276_
*653 _0277_
*654 _0278_
*655 _0279_
*656 _0280_
*657 _0281_
*658 _0282_
*659 _0283_
*660 _0284_
*661 _0285_
*662 _0286_
*663 _0287_
*664 _0288_
*665 _0289_
*666 _0290_
*667 _0291_
*668 _0292_
*669 _0293_
*670 _0294_
*671 _0295_
*672 _0296_
*673 _0297_
*674 _0298_
*675 _0299_
*676 _0300_
*677 _0301_
*678 _0302_
*679 _0303_
*680 _0304_
*681 _0305_
*682 _0306_
*683 _0307_
*684 _0308_
*685 _0309_
*686 _0310_
*687 _0311_
*688 _0312_
*689 _0313_
*690 _0314_
*691 _0315_
*692 _0316_
*693 _0317_
*694 _0318_
*695 _0319_
*696 _0320_
*697 _0321_
*698 _0322_
*699 _0323_
*700 _0324_
*701 _0325_
*702 _0326_
*703 _0327_
*704 _0328_
*705 _0329_
*706 _0330_
*707 _0331_
*708 _0332_
*709 _0333_
*710 _0334_
*711 _0335_
*712 _0336_
*713 _0337_
*714 _0338_
*715 _0339_
*716 _0340_
*717 _0341_
*718 _0342_
*719 _0343_
*720 _0344_
*721 _0345_
*722 _0346_
*723 _0347_
*724 _0348_
*725 _0349_
*726 _0350_
*727 _0351_
*728 _0352_
*729 _0353_
*730 _0354_
*731 _0355_
*732 _0356_
*733 _0357_
*734 _0358_
*735 _0359_
*736 _0360_
*737 _0361_
*738 _0362_
*739 _0363_
*740 _0364_
*741 _0365_
*742 _0366_
*743 _0367_
*744 _0368_
*745 _0369_
*746 _0370_
*747 _0371_
*748 _0372_
*749 _0373_
*750 _0374_
*751 _0375_
*752 _0376_
*753 _0377_
*754 _0378_
*755 _0379_
*756 _0380_
*757 _0381_
*758 _0382_
*759 _0383_
*760 _0384_
*761 _0385_
*762 _0386_
*763 _0387_
*764 _0388_
*765 _0389_
*766 addr\[3\]
*767 addr\[4\]
*768 burst\[0\]
*769 burst\[1\]
*770 clknet_0_clk
*771 clknet_1_0__leaf_clk
*772 clknet_1_1__leaf_clk
*773 current_state\[0\]
*774 current_state\[1\]
*775 current_state\[2\]
*776 current_state\[3\]
*777 i\[0\]
*778 i\[1\]
*779 i\[2\]
*780 i\[3\]
*781 last
*782 lenM\[0\]
*783 lenM\[1\]
*784 lenM\[2\]
*785 lenM\[3\]
*786 lenS\[0\]
*787 lenS\[1\]
*788 lenS\[2\]
*789 lenS\[3\]
*790 net1
*791 net10
*792 net100
*793 net101
*794 net102
*795 net103
*796 net104
*797 net105
*798 net106
*799 net107
*800 net108
*801 net109
*802 net11
*803 net110
*804 net111
*805 net112
*806 net113
*807 net114
*808 net115
*809 net116
*810 net117
*811 net118
*812 net119
*813 net12
*814 net120
*815 net121
*816 net122
*817 net123
*818 net124
*819 net125
*820 net126
*821 net127
*822 net128
*823 net129
*824 net13
*825 net130
*826 net131
*827 net132
*828 net133
*829 net134
*830 net135
*831 net136
*832 net137
*833 net138
*834 net139
*835 net14
*836 net140
*837 net141
*838 net142
*839 net143
*840 net144
*841 net145
*842 net146
*843 net147
*844 net148
*845 net149
*846 net15
*847 net150
*848 net151
*849 net152
*850 net153
*851 net154
*852 net155
*853 net156
*854 net157
*855 net158
*856 net159
*857 net16
*858 net160
*859 net161
*860 net162
*861 net163
*862 net164
*863 net165
*864 net166
*865 net167
*866 net168
*867 net169
*868 net17
*869 net170
*870 net171
*871 net172
*872 net173
*873 net174
*874 net175
*875 net176
*876 net177
*877 net178
*878 net179
*879 net18
*880 net180
*881 net181
*882 net182
*883 net183
*884 net184
*885 net185
*886 net186
*887 net187
*888 net188
*889 net189
*890 net19
*891 net190
*892 net191
*893 net192
*894 net193
*895 net194
*896 net195
*897 net196
*898 net197
*899 net198
*900 net199
*901 net2
*902 net20
*903 net200
*904 net201
*905 net202
*906 net203
*907 net204
*908 net205
*909 net206
*910 net207
*911 net208
*912 net209
*913 net21
*914 net210
*915 net211
*916 net212
*917 net213
*918 net214
*919 net215
*920 net216
*921 net217
*922 net218
*923 net219
*924 net22
*925 net220
*926 net221
*927 net222
*928 net223
*929 net224
*930 net225
*931 net226
*932 net227
*933 net228
*934 net229
*935 net23
*936 net230
*937 net231
*938 net232
*939 net233
*940 net234
*941 net235
*942 net236
*943 net237
*944 net238
*945 net239
*946 net24
*947 net240
*948 net241
*949 net242
*950 net243
*951 net244
*952 net245
*953 net246
*954 net247
*955 net248
*956 net249
*957 net25
*958 net250
*959 net251
*960 net252
*961 net253
*962 net26
*963 net27
*964 net28
*965 net29
*966 net3
*967 net30
*968 net31
*969 net32
*970 net33
*971 net34
*972 net35
*973 net36
*974 net37
*975 net38
*976 net39
*977 net4
*978 net40
*979 net41
*980 net42
*981 net43
*982 net44
*983 net45
*984 net46
*985 net47
*986 net48
*987 net49
*988 net5
*989 net50
*990 net51
*991 net52
*992 net53
*993 net54
*994 net55
*995 net56
*996 net57
*997 net58
*998 net59
*999 net6
*1000 net60
*1001 net61
*1002 net62
*1003 net63
*1004 net64
*1005 net65
*1006 net66
*1007 net67
*1008 net68
*1009 net69
*1010 net7
*1011 net70
*1012 net71
*1013 net72
*1014 net73
*1015 net74
*1016 net75
*1017 net76
*1018 net77
*1019 net78
*1020 net79
*1021 net8
*1022 net80
*1023 net81
*1024 net82
*1025 net83
*1026 net84
*1027 net85
*1028 net86
*1029 net87
*1030 net88
*1031 net89
*1032 net9
*1033 net90
*1034 net91
*1035 net92
*1036 net93
*1037 net94
*1038 net95
*1039 net96
*1040 net97
*1041 net98
*1042 net99
*1043 ANTENNA_1
*1044 ANTENNA_2
*1045 FILLER_0_105
*1046 FILLER_0_111
*1047 FILLER_0_113
*1048 FILLER_0_118
*1049 FILLER_0_125
*1050 FILLER_0_132
*1051 FILLER_0_139
*1052 FILLER_0_141
*1053 FILLER_0_146
*1054 FILLER_0_15
*1055 FILLER_0_153
*1056 FILLER_0_160
*1057 FILLER_0_167
*1058 FILLER_0_169
*1059 FILLER_0_174
*1060 FILLER_0_181
*1061 FILLER_0_188
*1062 FILLER_0_203
*1063 FILLER_0_209
*1064 FILLER_0_216
*1065 FILLER_0_223
*1066 FILLER_0_225
*1067 FILLER_0_231
*1068 FILLER_0_238
*1069 FILLER_0_245
*1070 FILLER_0_253
*1071 FILLER_0_266
*1072 FILLER_0_27
*1073 FILLER_0_29
*1074 FILLER_0_3
*1075 FILLER_0_37
*1076 FILLER_0_47
*1077 FILLER_0_55
*1078 FILLER_0_57
*1079 FILLER_0_69
*1080 FILLER_0_81
*1081 FILLER_0_85
*1082 FILLER_0_93
*1083 FILLER_0_97
*1084 FILLER_10_112
*1085 FILLER_10_139
*1086 FILLER_10_15
*1087 FILLER_10_195
*1088 FILLER_10_204
*1089 FILLER_10_224
*1090 FILLER_10_250
*1091 FILLER_10_265
*1092 FILLER_10_27
*1093 FILLER_10_29
*1094 FILLER_10_3
*1095 FILLER_10_45
*1096 FILLER_11_106
*1097 FILLER_11_118
*1098 FILLER_11_143
*1099 FILLER_11_15
*1100 FILLER_11_167
*1101 FILLER_11_169
*1102 FILLER_11_211
*1103 FILLER_11_223
*1104 FILLER_11_225
*1105 FILLER_11_23
*1106 FILLER_11_233
*1107 FILLER_11_252
*1108 FILLER_11_260
*1109 FILLER_11_264
*1110 FILLER_11_281
*1111 FILLER_11_3
*1112 FILLER_11_50
*1113 FILLER_11_74
*1114 FILLER_12_109
*1115 FILLER_12_131
*1116 FILLER_12_141
*1117 FILLER_12_149
*1118 FILLER_12_15
*1119 FILLER_12_170
*1120 FILLER_12_182
*1121 FILLER_12_194
*1122 FILLER_12_197
*1123 FILLER_12_209
*1124 FILLER_12_221
*1125 FILLER_12_249
*1126 FILLER_12_253
*1127 FILLER_12_261
*1128 FILLER_12_265
*1129 FILLER_12_27
*1130 FILLER_12_280
*1131 FILLER_12_29
*1132 FILLER_12_3
*1133 FILLER_12_37
*1134 FILLER_12_46
*1135 FILLER_12_58
*1136 FILLER_12_70
*1137 FILLER_12_82
*1138 FILLER_12_85
*1139 FILLER_12_97
*1140 FILLER_13_105
*1141 FILLER_13_111
*1142 FILLER_13_113
*1143 FILLER_13_140
*1144 FILLER_13_148
*1145 FILLER_13_15
*1146 FILLER_13_163
*1147 FILLER_13_167
*1148 FILLER_13_169
*1149 FILLER_13_181
*1150 FILLER_13_193
*1151 FILLER_13_205
*1152 FILLER_13_221
*1153 FILLER_13_23
*1154 FILLER_13_245
*1155 FILLER_13_257
*1156 FILLER_13_266
*1157 FILLER_13_281
*1158 FILLER_13_3
*1159 FILLER_13_74
*1160 FILLER_13_82
*1161 FILLER_13_97
*1162 FILLER_14_109
*1163 FILLER_14_120
*1164 FILLER_14_124
*1165 FILLER_14_137
*1166 FILLER_14_141
*1167 FILLER_14_15
*1168 FILLER_14_180
*1169 FILLER_14_228
*1170 FILLER_14_248
*1171 FILLER_14_253
*1172 FILLER_14_257
*1173 FILLER_14_265
*1174 FILLER_14_27
*1175 FILLER_14_271
*1176 FILLER_14_279
*1177 FILLER_14_29
*1178 FILLER_14_3
*1179 FILLER_14_56
*1180 FILLER_14_64
*1181 FILLER_14_76
*1182 FILLER_14_85
*1183 FILLER_14_89
*1184 FILLER_15_137
*1185 FILLER_15_144
*1186 FILLER_15_15
*1187 FILLER_15_152
*1188 FILLER_15_183
*1189 FILLER_15_21
*1190 FILLER_15_218
*1191 FILLER_15_225
*1192 FILLER_15_240
*1193 FILLER_15_265
*1194 FILLER_15_272
*1195 FILLER_15_3
*1196 FILLER_15_54
*1197 FILLER_15_57
*1198 FILLER_15_69
*1199 FILLER_16_109
*1200 FILLER_16_121
*1201 FILLER_16_15
*1202 FILLER_16_153
*1203 FILLER_16_179
*1204 FILLER_16_209
*1205 FILLER_16_221
*1206 FILLER_16_225
*1207 FILLER_16_250
*1208 FILLER_16_263
*1209 FILLER_16_267
*1210 FILLER_16_27
*1211 FILLER_16_3
*1212 FILLER_16_48
*1213 FILLER_16_85
*1214 FILLER_17_106
*1215 FILLER_17_113
*1216 FILLER_17_125
*1217 FILLER_17_131
*1218 FILLER_17_145
*1219 FILLER_17_15
*1220 FILLER_17_153
*1221 FILLER_17_169
*1222 FILLER_17_181
*1223 FILLER_17_193
*1224 FILLER_17_198
*1225 FILLER_17_210
*1226 FILLER_17_222
*1227 FILLER_17_225
*1228 FILLER_17_256
*1229 FILLER_17_260
*1230 FILLER_17_27
*1231 FILLER_17_281
*1232 FILLER_17_3
*1233 FILLER_17_31
*1234 FILLER_17_44
*1235 FILLER_17_54
*1236 FILLER_17_76
*1237 FILLER_17_80
*1238 FILLER_18_101
*1239 FILLER_18_109
*1240 FILLER_18_121
*1241 FILLER_18_125
*1242 FILLER_18_138
*1243 FILLER_18_148
*1244 FILLER_18_15
*1245 FILLER_18_180
*1246 FILLER_18_192
*1247 FILLER_18_197
*1248 FILLER_18_203
*1249 FILLER_18_251
*1250 FILLER_18_256
*1251 FILLER_18_27
*1252 FILLER_18_280
*1253 FILLER_18_29
*1254 FILLER_18_3
*1255 FILLER_18_47
*1256 FILLER_18_65
*1257 FILLER_18_77
*1258 FILLER_18_83
*1259 FILLER_18_85
*1260 FILLER_18_97
*1261 FILLER_19_109
*1262 FILLER_19_113
*1263 FILLER_19_122
*1264 FILLER_19_15
*1265 FILLER_19_150
*1266 FILLER_19_188
*1267 FILLER_19_196
*1268 FILLER_19_23
*1269 FILLER_19_231
*1270 FILLER_19_256
*1271 FILLER_19_268
*1272 FILLER_19_281
*1273 FILLER_19_3
*1274 FILLER_19_49
*1275 FILLER_19_55
*1276 FILLER_19_57
*1277 FILLER_19_63
*1278 FILLER_19_76
*1279 FILLER_19_83
*1280 FILLER_1_106
*1281 FILLER_1_143
*1282 FILLER_1_15
*1283 FILLER_1_151
*1284 FILLER_1_167
*1285 FILLER_1_178
*1286 FILLER_1_186
*1287 FILLER_1_196
*1288 FILLER_1_209
*1289 FILLER_1_217
*1290 FILLER_1_223
*1291 FILLER_1_225
*1292 FILLER_1_233
*1293 FILLER_1_246
*1294 FILLER_1_261
*1295 FILLER_1_3
*1296 FILLER_1_51
*1297 FILLER_1_55
*1298 FILLER_1_57
*1299 FILLER_1_65
*1300 FILLER_20_119
*1301 FILLER_20_139
*1302 FILLER_20_149
*1303 FILLER_20_15
*1304 FILLER_20_153
*1305 FILLER_20_170
*1306 FILLER_20_184
*1307 FILLER_20_188
*1308 FILLER_20_249
*1309 FILLER_20_261
*1310 FILLER_20_265
*1311 FILLER_20_27
*1312 FILLER_20_29
*1313 FILLER_20_3
*1314 FILLER_20_39
*1315 FILLER_20_51
*1316 FILLER_20_57
*1317 FILLER_20_85
*1318 FILLER_21_107
*1319 FILLER_21_111
*1320 FILLER_21_121
*1321 FILLER_21_136
*1322 FILLER_21_148
*1323 FILLER_21_15
*1324 FILLER_21_160
*1325 FILLER_21_176
*1326 FILLER_21_184
*1327 FILLER_21_265
*1328 FILLER_21_27
*1329 FILLER_21_273
*1330 FILLER_21_281
*1331 FILLER_21_3
*1332 FILLER_21_50
*1333 FILLER_21_57
*1334 FILLER_21_82
*1335 FILLER_22_111
*1336 FILLER_22_115
*1337 FILLER_22_141
*1338 FILLER_22_15
*1339 FILLER_22_168
*1340 FILLER_22_180
*1341 FILLER_22_192
*1342 FILLER_22_209
*1343 FILLER_22_220
*1344 FILLER_22_239
*1345 FILLER_22_258
*1346 FILLER_22_27
*1347 FILLER_22_270
*1348 FILLER_22_278
*1349 FILLER_22_29
*1350 FILLER_22_3
*1351 FILLER_22_33
*1352 FILLER_22_53
*1353 FILLER_22_62
*1354 FILLER_22_91
*1355 FILLER_23_106
*1356 FILLER_23_11
*1357 FILLER_23_113
*1358 FILLER_23_176
*1359 FILLER_23_188
*1360 FILLER_23_200
*1361 FILLER_23_212
*1362 FILLER_23_261
*1363 FILLER_23_265
*1364 FILLER_23_281
*1365 FILLER_23_3
*1366 FILLER_23_57
*1367 FILLER_23_82
*1368 FILLER_23_94
*1369 FILLER_24_104
*1370 FILLER_24_138
*1371 FILLER_24_149
*1372 FILLER_24_165
*1373 FILLER_24_177
*1374 FILLER_24_189
*1375 FILLER_24_19
*1376 FILLER_24_195
*1377 FILLER_24_209
*1378 FILLER_24_221
*1379 FILLER_24_233
*1380 FILLER_24_250
*1381 FILLER_24_253
*1382 FILLER_24_261
*1383 FILLER_24_27
*1384 FILLER_24_279
*1385 FILLER_24_29
*1386 FILLER_24_53
*1387 FILLER_24_65
*1388 FILLER_24_7
*1389 FILLER_24_77
*1390 FILLER_24_83
*1391 FILLER_24_85
*1392 FILLER_24_96
*1393 FILLER_25_111
*1394 FILLER_25_113
*1395 FILLER_25_145
*1396 FILLER_25_15
*1397 FILLER_25_153
*1398 FILLER_25_165
*1399 FILLER_25_169
*1400 FILLER_25_181
*1401 FILLER_25_185
*1402 FILLER_25_216
*1403 FILLER_25_225
*1404 FILLER_25_233
*1405 FILLER_25_241
*1406 FILLER_25_253
*1407 FILLER_25_265
*1408 FILLER_25_27
*1409 FILLER_25_279
*1410 FILLER_25_281
*1411 FILLER_25_3
*1412 FILLER_25_43
*1413 FILLER_25_55
*1414 FILLER_25_57
*1415 FILLER_25_67
*1416 FILLER_25_79
*1417 FILLER_25_84
*1418 FILLER_26_111
*1419 FILLER_26_141
*1420 FILLER_26_15
*1421 FILLER_26_153
*1422 FILLER_26_157
*1423 FILLER_26_170
*1424 FILLER_26_178
*1425 FILLER_26_195
*1426 FILLER_26_219
*1427 FILLER_26_223
*1428 FILLER_26_243
*1429 FILLER_26_251
*1430 FILLER_26_253
*1431 FILLER_26_265
*1432 FILLER_26_27
*1433 FILLER_26_29
*1434 FILLER_26_3
*1435 FILLER_26_41
*1436 FILLER_26_71
*1437 FILLER_26_85
*1438 FILLER_27_105
*1439 FILLER_27_113
*1440 FILLER_27_138
*1441 FILLER_27_15
*1442 FILLER_27_150
*1443 FILLER_27_176
*1444 FILLER_27_182
*1445 FILLER_27_216
*1446 FILLER_27_249
*1447 FILLER_27_257
*1448 FILLER_27_269
*1449 FILLER_27_27
*1450 FILLER_27_277
*1451 FILLER_27_3
*1452 FILLER_27_43
*1453 FILLER_27_57
*1454 FILLER_27_70
*1455 FILLER_28_108
*1456 FILLER_28_116
*1457 FILLER_28_122
*1458 FILLER_28_139
*1459 FILLER_28_145
*1460 FILLER_28_15
*1461 FILLER_28_153
*1462 FILLER_28_179
*1463 FILLER_28_187
*1464 FILLER_28_201
*1465 FILLER_28_209
*1466 FILLER_28_250
*1467 FILLER_28_265
*1468 FILLER_28_27
*1469 FILLER_28_277
*1470 FILLER_28_283
*1471 FILLER_28_29
*1472 FILLER_28_3
*1473 FILLER_29_110
*1474 FILLER_29_113
*1475 FILLER_29_125
*1476 FILLER_29_136
*1477 FILLER_29_149
*1478 FILLER_29_15
*1479 FILLER_29_155
*1480 FILLER_29_189
*1481 FILLER_29_213
*1482 FILLER_29_219
*1483 FILLER_29_257
*1484 FILLER_29_27
*1485 FILLER_29_277
*1486 FILLER_29_3
*1487 FILLER_29_31
*1488 FILLER_29_92
*1489 FILLER_2_109
*1490 FILLER_2_134
*1491 FILLER_2_141
*1492 FILLER_2_15
*1493 FILLER_2_182
*1494 FILLER_2_242
*1495 FILLER_2_29
*1496 FILLER_2_3
*1497 FILLER_2_56
*1498 FILLER_30_108
*1499 FILLER_30_120
*1500 FILLER_30_149
*1501 FILLER_30_15
*1502 FILLER_30_164
*1503 FILLER_30_191
*1504 FILLER_30_195
*1505 FILLER_30_221
*1506 FILLER_30_251
*1507 FILLER_30_253
*1508 FILLER_30_27
*1509 FILLER_30_279
*1510 FILLER_30_3
*1511 FILLER_30_57
*1512 FILLER_30_61
*1513 FILLER_30_82
*1514 FILLER_30_85
*1515 FILLER_31_111
*1516 FILLER_31_113
*1517 FILLER_31_137
*1518 FILLER_31_15
*1519 FILLER_31_150
*1520 FILLER_31_167
*1521 FILLER_31_181
*1522 FILLER_31_216
*1523 FILLER_31_225
*1524 FILLER_31_249
*1525 FILLER_31_27
*1526 FILLER_31_279
*1527 FILLER_31_3
*1528 FILLER_31_51
*1529 FILLER_31_72
*1530 FILLER_31_86
*1531 FILLER_31_91
*1532 FILLER_32_119
*1533 FILLER_32_138
*1534 FILLER_32_141
*1535 FILLER_32_15
*1536 FILLER_32_161
*1537 FILLER_32_184
*1538 FILLER_32_193
*1539 FILLER_32_213
*1540 FILLER_32_225
*1541 FILLER_32_244
*1542 FILLER_32_253
*1543 FILLER_32_27
*1544 FILLER_32_281
*1545 FILLER_32_29
*1546 FILLER_32_3
*1547 FILLER_32_41
*1548 FILLER_32_53
*1549 FILLER_32_71
*1550 FILLER_32_85
*1551 FILLER_33_113
*1552 FILLER_33_121
*1553 FILLER_33_136
*1554 FILLER_33_15
*1555 FILLER_33_161
*1556 FILLER_33_167
*1557 FILLER_33_169
*1558 FILLER_33_175
*1559 FILLER_33_187
*1560 FILLER_33_199
*1561 FILLER_33_211
*1562 FILLER_33_223
*1563 FILLER_33_225
*1564 FILLER_33_237
*1565 FILLER_33_249
*1566 FILLER_33_255
*1567 FILLER_33_27
*1568 FILLER_33_279
*1569 FILLER_33_281
*1570 FILLER_33_3
*1571 FILLER_33_39
*1572 FILLER_33_51
*1573 FILLER_33_55
*1574 FILLER_33_57
*1575 FILLER_33_72
*1576 FILLER_33_84
*1577 FILLER_33_92
*1578 FILLER_33_96
*1579 FILLER_34_104
*1580 FILLER_34_116
*1581 FILLER_34_128
*1582 FILLER_34_141
*1583 FILLER_34_149
*1584 FILLER_34_15
*1585 FILLER_34_161
*1586 FILLER_34_173
*1587 FILLER_34_185
*1588 FILLER_34_191
*1589 FILLER_34_195
*1590 FILLER_34_217
*1591 FILLER_34_229
*1592 FILLER_34_239
*1593 FILLER_34_245
*1594 FILLER_34_249
*1595 FILLER_34_253
*1596 FILLER_34_261
*1597 FILLER_34_27
*1598 FILLER_34_279
*1599 FILLER_34_29
*1600 FILLER_34_3
*1601 FILLER_34_41
*1602 FILLER_34_53
*1603 FILLER_34_68
*1604 FILLER_34_76
*1605 FILLER_34_82
*1606 FILLER_34_85
*1607 FILLER_34_97
*1608 FILLER_35_110
*1609 FILLER_35_113
*1610 FILLER_35_125
*1611 FILLER_35_137
*1612 FILLER_35_149
*1613 FILLER_35_15
*1614 FILLER_35_160
*1615 FILLER_35_166
*1616 FILLER_35_169
*1617 FILLER_35_181
*1618 FILLER_35_218
*1619 FILLER_35_245
*1620 FILLER_35_257
*1621 FILLER_35_264
*1622 FILLER_35_27
*1623 FILLER_35_281
*1624 FILLER_35_3
*1625 FILLER_35_39
*1626 FILLER_35_51
*1627 FILLER_35_55
*1628 FILLER_35_57
*1629 FILLER_35_69
*1630 FILLER_35_81
*1631 FILLER_35_93
*1632 FILLER_35_98
*1633 FILLER_36_110
*1634 FILLER_36_139
*1635 FILLER_36_141
*1636 FILLER_36_149
*1637 FILLER_36_15
*1638 FILLER_36_215
*1639 FILLER_36_251
*1640 FILLER_36_256
*1641 FILLER_36_269
*1642 FILLER_36_27
*1643 FILLER_36_29
*1644 FILLER_36_3
*1645 FILLER_36_41
*1646 FILLER_36_53
*1647 FILLER_36_65
*1648 FILLER_36_77
*1649 FILLER_36_83
*1650 FILLER_36_85
*1651 FILLER_36_99
*1652 FILLER_37_113
*1653 FILLER_37_144
*1654 FILLER_37_15
*1655 FILLER_37_152
*1656 FILLER_37_157
*1657 FILLER_37_176
*1658 FILLER_37_180
*1659 FILLER_37_210
*1660 FILLER_37_225
*1661 FILLER_37_236
*1662 FILLER_37_258
*1663 FILLER_37_27
*1664 FILLER_37_277
*1665 FILLER_37_281
*1666 FILLER_37_3
*1667 FILLER_37_39
*1668 FILLER_37_51
*1669 FILLER_37_55
*1670 FILLER_37_57
*1671 FILLER_37_69
*1672 FILLER_37_81
*1673 FILLER_38_137
*1674 FILLER_38_145
*1675 FILLER_38_149
*1676 FILLER_38_15
*1677 FILLER_38_155
*1678 FILLER_38_173
*1679 FILLER_38_197
*1680 FILLER_38_246
*1681 FILLER_38_251
*1682 FILLER_38_258
*1683 FILLER_38_27
*1684 FILLER_38_272
*1685 FILLER_38_29
*1686 FILLER_38_3
*1687 FILLER_38_41
*1688 FILLER_38_53
*1689 FILLER_38_65
*1690 FILLER_38_77
*1691 FILLER_38_83
*1692 FILLER_38_85
*1693 FILLER_39_110
*1694 FILLER_39_113
*1695 FILLER_39_134
*1696 FILLER_39_146
*1697 FILLER_39_15
*1698 FILLER_39_161
*1699 FILLER_39_169
*1700 FILLER_39_178
*1701 FILLER_39_225
*1702 FILLER_39_231
*1703 FILLER_39_238
*1704 FILLER_39_250
*1705 FILLER_39_261
*1706 FILLER_39_269
*1707 FILLER_39_27
*1708 FILLER_39_3
*1709 FILLER_39_39
*1710 FILLER_39_51
*1711 FILLER_39_55
*1712 FILLER_39_57
*1713 FILLER_39_69
*1714 FILLER_39_81
*1715 FILLER_39_89
*1716 FILLER_3_102
*1717 FILLER_3_111
*1718 FILLER_3_113
*1719 FILLER_3_121
*1720 FILLER_3_143
*1721 FILLER_3_15
*1722 FILLER_3_169
*1723 FILLER_3_177
*1724 FILLER_3_231
*1725 FILLER_3_252
*1726 FILLER_3_27
*1727 FILLER_3_3
*1728 FILLER_3_45
*1729 FILLER_3_54
*1730 FILLER_3_69
*1731 FILLER_3_83
*1732 FILLER_3_89
*1733 FILLER_40_109
*1734 FILLER_40_124
*1735 FILLER_40_136
*1736 FILLER_40_141
*1737 FILLER_40_15
*1738 FILLER_40_153
*1739 FILLER_40_179
*1740 FILLER_40_187
*1741 FILLER_40_205
*1742 FILLER_40_214
*1743 FILLER_40_226
*1744 FILLER_40_246
*1745 FILLER_40_253
*1746 FILLER_40_269
*1747 FILLER_40_27
*1748 FILLER_40_29
*1749 FILLER_40_3
*1750 FILLER_40_41
*1751 FILLER_40_53
*1752 FILLER_40_65
*1753 FILLER_40_77
*1754 FILLER_40_83
*1755 FILLER_40_85
*1756 FILLER_40_97
*1757 FILLER_41_105
*1758 FILLER_41_111
*1759 FILLER_41_113
*1760 FILLER_41_125
*1761 FILLER_41_137
*1762 FILLER_41_147
*1763 FILLER_41_15
*1764 FILLER_41_162
*1765 FILLER_41_167
*1766 FILLER_41_178
*1767 FILLER_41_190
*1768 FILLER_41_198
*1769 FILLER_41_203
*1770 FILLER_41_238
*1771 FILLER_41_250
*1772 FILLER_41_27
*1773 FILLER_41_279
*1774 FILLER_41_3
*1775 FILLER_41_39
*1776 FILLER_41_51
*1777 FILLER_41_55
*1778 FILLER_41_57
*1779 FILLER_41_69
*1780 FILLER_41_81
*1781 FILLER_41_93
*1782 FILLER_42_109
*1783 FILLER_42_117
*1784 FILLER_42_138
*1785 FILLER_42_141
*1786 FILLER_42_15
*1787 FILLER_42_174
*1788 FILLER_42_186
*1789 FILLER_42_193
*1790 FILLER_42_197
*1791 FILLER_42_206
*1792 FILLER_42_212
*1793 FILLER_42_247
*1794 FILLER_42_27
*1795 FILLER_42_29
*1796 FILLER_42_3
*1797 FILLER_42_41
*1798 FILLER_42_53
*1799 FILLER_42_65
*1800 FILLER_42_77
*1801 FILLER_42_83
*1802 FILLER_42_85
*1803 FILLER_42_97
*1804 FILLER_43_105
*1805 FILLER_43_111
*1806 FILLER_43_113
*1807 FILLER_43_136
*1808 FILLER_43_15
*1809 FILLER_43_176
*1810 FILLER_43_184
*1811 FILLER_43_208
*1812 FILLER_43_255
*1813 FILLER_43_27
*1814 FILLER_43_275
*1815 FILLER_43_3
*1816 FILLER_43_39
*1817 FILLER_43_51
*1818 FILLER_43_55
*1819 FILLER_43_57
*1820 FILLER_43_69
*1821 FILLER_43_81
*1822 FILLER_43_93
*1823 FILLER_44_109
*1824 FILLER_44_137
*1825 FILLER_44_141
*1826 FILLER_44_15
*1827 FILLER_44_173
*1828 FILLER_44_194
*1829 FILLER_44_213
*1830 FILLER_44_249
*1831 FILLER_44_27
*1832 FILLER_44_29
*1833 FILLER_44_3
*1834 FILLER_44_41
*1835 FILLER_44_53
*1836 FILLER_44_65
*1837 FILLER_44_77
*1838 FILLER_44_83
*1839 FILLER_44_85
*1840 FILLER_44_97
*1841 FILLER_45_102
*1842 FILLER_45_15
*1843 FILLER_45_156
*1844 FILLER_45_167
*1845 FILLER_45_178
*1846 FILLER_45_197
*1847 FILLER_45_225
*1848 FILLER_45_247
*1849 FILLER_45_27
*1850 FILLER_45_274
*1851 FILLER_45_3
*1852 FILLER_45_39
*1853 FILLER_45_51
*1854 FILLER_45_55
*1855 FILLER_45_57
*1856 FILLER_45_69
*1857 FILLER_45_81
*1858 FILLER_45_96
*1859 FILLER_46_109
*1860 FILLER_46_124
*1861 FILLER_46_136
*1862 FILLER_46_15
*1863 FILLER_46_150
*1864 FILLER_46_162
*1865 FILLER_46_174
*1866 FILLER_46_195
*1867 FILLER_46_201
*1868 FILLER_46_209
*1869 FILLER_46_217
*1870 FILLER_46_229
*1871 FILLER_46_240
*1872 FILLER_46_253
*1873 FILLER_46_27
*1874 FILLER_46_29
*1875 FILLER_46_3
*1876 FILLER_46_41
*1877 FILLER_46_53
*1878 FILLER_46_65
*1879 FILLER_46_77
*1880 FILLER_46_83
*1881 FILLER_46_85
*1882 FILLER_46_97
*1883 FILLER_47_104
*1884 FILLER_47_111
*1885 FILLER_47_113
*1886 FILLER_47_118
*1887 FILLER_47_126
*1888 FILLER_47_132
*1889 FILLER_47_139
*1890 FILLER_47_141
*1891 FILLER_47_147
*1892 FILLER_47_15
*1893 FILLER_47_153
*1894 FILLER_47_160
*1895 FILLER_47_169
*1896 FILLER_47_175
*1897 FILLER_47_191
*1898 FILLER_47_195
*1899 FILLER_47_197
*1900 FILLER_47_202
*1901 FILLER_47_209
*1902 FILLER_47_216
*1903 FILLER_47_223
*1904 FILLER_47_225
*1905 FILLER_47_238
*1906 FILLER_47_250
*1907 FILLER_47_261
*1908 FILLER_47_27
*1909 FILLER_47_29
*1910 FILLER_47_3
*1911 FILLER_47_41
*1912 FILLER_47_53
*1913 FILLER_47_57
*1914 FILLER_47_62
*1915 FILLER_47_69
*1916 FILLER_47_76
*1917 FILLER_47_85
*1918 FILLER_47_91
*1919 FILLER_47_99
*1920 FILLER_4_111
*1921 FILLER_4_119
*1922 FILLER_4_141
*1923 FILLER_4_15
*1924 FILLER_4_164
*1925 FILLER_4_176
*1926 FILLER_4_189
*1927 FILLER_4_195
*1928 FILLER_4_217
*1929 FILLER_4_224
*1930 FILLER_4_236
*1931 FILLER_4_258
*1932 FILLER_4_262
*1933 FILLER_4_27
*1934 FILLER_4_29
*1935 FILLER_4_3
*1936 FILLER_4_41
*1937 FILLER_4_70
*1938 FILLER_4_82
*1939 FILLER_4_93
*1940 FILLER_4_99
*1941 FILLER_5_109
*1942 FILLER_5_11
*1943 FILLER_5_144
*1944 FILLER_5_150
*1945 FILLER_5_163
*1946 FILLER_5_167
*1947 FILLER_5_169
*1948 FILLER_5_205
*1949 FILLER_5_217
*1950 FILLER_5_223
*1951 FILLER_5_225
*1952 FILLER_5_229
*1953 FILLER_5_268
*1954 FILLER_5_3
*1955 FILLER_5_38
*1956 FILLER_5_47
*1957 FILLER_5_55
*1958 FILLER_5_57
*1959 FILLER_5_63
*1960 FILLER_5_81
*1961 FILLER_5_93
*1962 FILLER_6_106
*1963 FILLER_6_148
*1964 FILLER_6_15
*1965 FILLER_6_186
*1966 FILLER_6_221
*1967 FILLER_6_227
*1968 FILLER_6_253
*1969 FILLER_6_265
*1970 FILLER_6_3
*1971 FILLER_6_60
*1972 FILLER_6_92
*1973 FILLER_7_113
*1974 FILLER_7_119
*1975 FILLER_7_140
*1976 FILLER_7_148
*1977 FILLER_7_15
*1978 FILLER_7_163
*1979 FILLER_7_167
*1980 FILLER_7_169
*1981 FILLER_7_181
*1982 FILLER_7_194
*1983 FILLER_7_202
*1984 FILLER_7_21
*1985 FILLER_7_223
*1986 FILLER_7_233
*1987 FILLER_7_237
*1988 FILLER_7_245
*1989 FILLER_7_257
*1990 FILLER_7_263
*1991 FILLER_7_281
*1992 FILLER_7_3
*1993 FILLER_7_54
*1994 FILLER_7_57
*1995 FILLER_7_65
*1996 FILLER_7_86
*1997 FILLER_7_92
*1998 FILLER_8_108
*1999 FILLER_8_120
*2000 FILLER_8_126
*2001 FILLER_8_134
*2002 FILLER_8_141
*2003 FILLER_8_15
*2004 FILLER_8_168
*2005 FILLER_8_180
*2006 FILLER_8_192
*2007 FILLER_8_197
*2008 FILLER_8_205
*2009 FILLER_8_230
*2010 FILLER_8_242
*2011 FILLER_8_250
*2012 FILLER_8_253
*2013 FILLER_8_261
*2014 FILLER_8_265
*2015 FILLER_8_27
*2016 FILLER_8_280
*2017 FILLER_8_29
*2018 FILLER_8_3
*2019 FILLER_8_44
*2020 FILLER_8_56
*2021 FILLER_8_67
*2022 FILLER_8_79
*2023 FILLER_8_83
*2024 FILLER_8_85
*2025 FILLER_8_96
*2026 FILLER_9_100
*2027 FILLER_9_113
*2028 FILLER_9_121
*2029 FILLER_9_142
*2030 FILLER_9_15
*2031 FILLER_9_164
*2032 FILLER_9_169
*2033 FILLER_9_199
*2034 FILLER_9_205
*2035 FILLER_9_218
*2036 FILLER_9_225
*2037 FILLER_9_237
*2038 FILLER_9_250
*2039 FILLER_9_254
*2040 FILLER_9_258
*2041 FILLER_9_27
*2042 FILLER_9_275
*2043 FILLER_9_3
*2044 FILLER_9_42
*2045 FILLER_9_46
*2046 FILLER_9_55
*2047 PHY_EDGE_ROW_0_Left_48
*2048 PHY_EDGE_ROW_0_Right_0
*2049 PHY_EDGE_ROW_10_Left_58
*2050 PHY_EDGE_ROW_10_Right_10
*2051 PHY_EDGE_ROW_11_Left_59
*2052 PHY_EDGE_ROW_11_Right_11
*2053 PHY_EDGE_ROW_12_Left_60
*2054 PHY_EDGE_ROW_12_Right_12
*2055 PHY_EDGE_ROW_13_Left_61
*2056 PHY_EDGE_ROW_13_Right_13
*2057 PHY_EDGE_ROW_14_Left_62
*2058 PHY_EDGE_ROW_14_Right_14
*2059 PHY_EDGE_ROW_15_Left_63
*2060 PHY_EDGE_ROW_15_Right_15
*2061 PHY_EDGE_ROW_16_Left_64
*2062 PHY_EDGE_ROW_16_Right_16
*2063 PHY_EDGE_ROW_17_Left_65
*2064 PHY_EDGE_ROW_17_Right_17
*2065 PHY_EDGE_ROW_18_Left_66
*2066 PHY_EDGE_ROW_18_Right_18
*2067 PHY_EDGE_ROW_19_Left_67
*2068 PHY_EDGE_ROW_19_Right_19
*2069 PHY_EDGE_ROW_1_Left_49
*2070 PHY_EDGE_ROW_1_Right_1
*2071 PHY_EDGE_ROW_20_Left_68
*2072 PHY_EDGE_ROW_20_Right_20
*2073 PHY_EDGE_ROW_21_Left_69
*2074 PHY_EDGE_ROW_21_Right_21
*2075 PHY_EDGE_ROW_22_Left_70
*2076 PHY_EDGE_ROW_22_Right_22
*2077 PHY_EDGE_ROW_23_Left_71
*2078 PHY_EDGE_ROW_23_Right_23
*2079 PHY_EDGE_ROW_24_Left_72
*2080 PHY_EDGE_ROW_24_Right_24
*2081 PHY_EDGE_ROW_25_Left_73
*2082 PHY_EDGE_ROW_25_Right_25
*2083 PHY_EDGE_ROW_26_Left_74
*2084 PHY_EDGE_ROW_26_Right_26
*2085 PHY_EDGE_ROW_27_Left_75
*2086 PHY_EDGE_ROW_27_Right_27
*2087 PHY_EDGE_ROW_28_Left_76
*2088 PHY_EDGE_ROW_28_Right_28
*2089 PHY_EDGE_ROW_29_Left_77
*2090 PHY_EDGE_ROW_29_Right_29
*2091 PHY_EDGE_ROW_2_Left_50
*2092 PHY_EDGE_ROW_2_Right_2
*2093 PHY_EDGE_ROW_30_Left_78
*2094 PHY_EDGE_ROW_30_Right_30
*2095 PHY_EDGE_ROW_31_Left_79
*2096 PHY_EDGE_ROW_31_Right_31
*2097 PHY_EDGE_ROW_32_Left_80
*2098 PHY_EDGE_ROW_32_Right_32
*2099 PHY_EDGE_ROW_33_Left_81
*2100 PHY_EDGE_ROW_33_Right_33
*2101 PHY_EDGE_ROW_34_Left_82
*2102 PHY_EDGE_ROW_34_Right_34
*2103 PHY_EDGE_ROW_35_Left_83
*2104 PHY_EDGE_ROW_35_Right_35
*2105 PHY_EDGE_ROW_36_Left_84
*2106 PHY_EDGE_ROW_36_Right_36
*2107 PHY_EDGE_ROW_37_Left_85
*2108 PHY_EDGE_ROW_37_Right_37
*2109 PHY_EDGE_ROW_38_Left_86
*2110 PHY_EDGE_ROW_38_Right_38
*2111 PHY_EDGE_ROW_39_Left_87
*2112 PHY_EDGE_ROW_39_Right_39
*2113 PHY_EDGE_ROW_3_Left_51
*2114 PHY_EDGE_ROW_3_Right_3
*2115 PHY_EDGE_ROW_40_Left_88
*2116 PHY_EDGE_ROW_40_Right_40
*2117 PHY_EDGE_ROW_41_Left_89
*2118 PHY_EDGE_ROW_41_Right_41
*2119 PHY_EDGE_ROW_42_Left_90
*2120 PHY_EDGE_ROW_42_Right_42
*2121 PHY_EDGE_ROW_43_Left_91
*2122 PHY_EDGE_ROW_43_Right_43
*2123 PHY_EDGE_ROW_44_Left_92
*2124 PHY_EDGE_ROW_44_Right_44
*2125 PHY_EDGE_ROW_45_Left_93
*2126 PHY_EDGE_ROW_45_Right_45
*2127 PHY_EDGE_ROW_46_Left_94
*2128 PHY_EDGE_ROW_46_Right_46
*2129 PHY_EDGE_ROW_47_Left_95
*2130 PHY_EDGE_ROW_47_Right_47
*2131 PHY_EDGE_ROW_4_Left_52
*2132 PHY_EDGE_ROW_4_Right_4
*2133 PHY_EDGE_ROW_5_Left_53
*2134 PHY_EDGE_ROW_5_Right_5
*2135 PHY_EDGE_ROW_6_Left_54
*2136 PHY_EDGE_ROW_6_Right_6
*2137 PHY_EDGE_ROW_7_Left_55
*2138 PHY_EDGE_ROW_7_Right_7
*2139 PHY_EDGE_ROW_8_Left_56
*2140 PHY_EDGE_ROW_8_Right_8
*2141 PHY_EDGE_ROW_9_Left_57
*2142 PHY_EDGE_ROW_9_Right_9
*2143 TAP_TAPCELL_ROW_0_100
*2144 TAP_TAPCELL_ROW_0_101
*2145 TAP_TAPCELL_ROW_0_102
*2146 TAP_TAPCELL_ROW_0_103
*2147 TAP_TAPCELL_ROW_0_104
*2148 TAP_TAPCELL_ROW_0_105
*2149 TAP_TAPCELL_ROW_0_96
*2150 TAP_TAPCELL_ROW_0_97
*2151 TAP_TAPCELL_ROW_0_98
*2152 TAP_TAPCELL_ROW_0_99
*2153 TAP_TAPCELL_ROW_10_151
*2154 TAP_TAPCELL_ROW_10_152
*2155 TAP_TAPCELL_ROW_10_153
*2156 TAP_TAPCELL_ROW_10_154
*2157 TAP_TAPCELL_ROW_10_155
*2158 TAP_TAPCELL_ROW_11_156
*2159 TAP_TAPCELL_ROW_11_157
*2160 TAP_TAPCELL_ROW_11_158
*2161 TAP_TAPCELL_ROW_11_159
*2162 TAP_TAPCELL_ROW_11_160
*2163 TAP_TAPCELL_ROW_12_161
*2164 TAP_TAPCELL_ROW_12_162
*2165 TAP_TAPCELL_ROW_12_163
*2166 TAP_TAPCELL_ROW_12_164
*2167 TAP_TAPCELL_ROW_12_165
*2168 TAP_TAPCELL_ROW_13_166
*2169 TAP_TAPCELL_ROW_13_167
*2170 TAP_TAPCELL_ROW_13_168
*2171 TAP_TAPCELL_ROW_13_169
*2172 TAP_TAPCELL_ROW_13_170
*2173 TAP_TAPCELL_ROW_14_171
*2174 TAP_TAPCELL_ROW_14_172
*2175 TAP_TAPCELL_ROW_14_173
*2176 TAP_TAPCELL_ROW_14_174
*2177 TAP_TAPCELL_ROW_14_175
*2178 TAP_TAPCELL_ROW_15_176
*2179 TAP_TAPCELL_ROW_15_177
*2180 TAP_TAPCELL_ROW_15_178
*2181 TAP_TAPCELL_ROW_15_179
*2182 TAP_TAPCELL_ROW_15_180
*2183 TAP_TAPCELL_ROW_16_181
*2184 TAP_TAPCELL_ROW_16_182
*2185 TAP_TAPCELL_ROW_16_183
*2186 TAP_TAPCELL_ROW_16_184
*2187 TAP_TAPCELL_ROW_16_185
*2188 TAP_TAPCELL_ROW_17_186
*2189 TAP_TAPCELL_ROW_17_187
*2190 TAP_TAPCELL_ROW_17_188
*2191 TAP_TAPCELL_ROW_17_189
*2192 TAP_TAPCELL_ROW_17_190
*2193 TAP_TAPCELL_ROW_18_191
*2194 TAP_TAPCELL_ROW_18_192
*2195 TAP_TAPCELL_ROW_18_193
*2196 TAP_TAPCELL_ROW_18_194
*2197 TAP_TAPCELL_ROW_18_195
*2198 TAP_TAPCELL_ROW_19_196
*2199 TAP_TAPCELL_ROW_19_197
*2200 TAP_TAPCELL_ROW_19_198
*2201 TAP_TAPCELL_ROW_19_199
*2202 TAP_TAPCELL_ROW_19_200
*2203 TAP_TAPCELL_ROW_1_106
*2204 TAP_TAPCELL_ROW_1_107
*2205 TAP_TAPCELL_ROW_1_108
*2206 TAP_TAPCELL_ROW_1_109
*2207 TAP_TAPCELL_ROW_1_110
*2208 TAP_TAPCELL_ROW_20_201
*2209 TAP_TAPCELL_ROW_20_202
*2210 TAP_TAPCELL_ROW_20_203
*2211 TAP_TAPCELL_ROW_20_204
*2212 TAP_TAPCELL_ROW_20_205
*2213 TAP_TAPCELL_ROW_21_206
*2214 TAP_TAPCELL_ROW_21_207
*2215 TAP_TAPCELL_ROW_21_208
*2216 TAP_TAPCELL_ROW_21_209
*2217 TAP_TAPCELL_ROW_21_210
*2218 TAP_TAPCELL_ROW_22_211
*2219 TAP_TAPCELL_ROW_22_212
*2220 TAP_TAPCELL_ROW_22_213
*2221 TAP_TAPCELL_ROW_22_214
*2222 TAP_TAPCELL_ROW_22_215
*2223 TAP_TAPCELL_ROW_23_216
*2224 TAP_TAPCELL_ROW_23_217
*2225 TAP_TAPCELL_ROW_23_218
*2226 TAP_TAPCELL_ROW_23_219
*2227 TAP_TAPCELL_ROW_23_220
*2228 TAP_TAPCELL_ROW_24_221
*2229 TAP_TAPCELL_ROW_24_222
*2230 TAP_TAPCELL_ROW_24_223
*2231 TAP_TAPCELL_ROW_24_224
*2232 TAP_TAPCELL_ROW_24_225
*2233 TAP_TAPCELL_ROW_25_226
*2234 TAP_TAPCELL_ROW_25_227
*2235 TAP_TAPCELL_ROW_25_228
*2236 TAP_TAPCELL_ROW_25_229
*2237 TAP_TAPCELL_ROW_25_230
*2238 TAP_TAPCELL_ROW_26_231
*2239 TAP_TAPCELL_ROW_26_232
*2240 TAP_TAPCELL_ROW_26_233
*2241 TAP_TAPCELL_ROW_26_234
*2242 TAP_TAPCELL_ROW_26_235
*2243 TAP_TAPCELL_ROW_27_236
*2244 TAP_TAPCELL_ROW_27_237
*2245 TAP_TAPCELL_ROW_27_238
*2246 TAP_TAPCELL_ROW_27_239
*2247 TAP_TAPCELL_ROW_27_240
*2248 TAP_TAPCELL_ROW_28_241
*2249 TAP_TAPCELL_ROW_28_242
*2250 TAP_TAPCELL_ROW_28_243
*2251 TAP_TAPCELL_ROW_28_244
*2252 TAP_TAPCELL_ROW_28_245
*2253 TAP_TAPCELL_ROW_29_246
*2254 TAP_TAPCELL_ROW_29_247
*2255 TAP_TAPCELL_ROW_29_248
*2256 TAP_TAPCELL_ROW_29_249
*2257 TAP_TAPCELL_ROW_29_250
*2258 TAP_TAPCELL_ROW_2_111
*2259 TAP_TAPCELL_ROW_2_112
*2260 TAP_TAPCELL_ROW_2_113
*2261 TAP_TAPCELL_ROW_2_114
*2262 TAP_TAPCELL_ROW_2_115
*2263 TAP_TAPCELL_ROW_30_251
*2264 TAP_TAPCELL_ROW_30_252
*2265 TAP_TAPCELL_ROW_30_253
*2266 TAP_TAPCELL_ROW_30_254
*2267 TAP_TAPCELL_ROW_30_255
*2268 TAP_TAPCELL_ROW_31_256
*2269 TAP_TAPCELL_ROW_31_257
*2270 TAP_TAPCELL_ROW_31_258
*2271 TAP_TAPCELL_ROW_31_259
*2272 TAP_TAPCELL_ROW_31_260
*2273 TAP_TAPCELL_ROW_32_261
*2274 TAP_TAPCELL_ROW_32_262
*2275 TAP_TAPCELL_ROW_32_263
*2276 TAP_TAPCELL_ROW_32_264
*2277 TAP_TAPCELL_ROW_32_265
*2278 TAP_TAPCELL_ROW_33_266
*2279 TAP_TAPCELL_ROW_33_267
*2280 TAP_TAPCELL_ROW_33_268
*2281 TAP_TAPCELL_ROW_33_269
*2282 TAP_TAPCELL_ROW_33_270
*2283 TAP_TAPCELL_ROW_34_271
*2284 TAP_TAPCELL_ROW_34_272
*2285 TAP_TAPCELL_ROW_34_273
*2286 TAP_TAPCELL_ROW_34_274
*2287 TAP_TAPCELL_ROW_34_275
*2288 TAP_TAPCELL_ROW_35_276
*2289 TAP_TAPCELL_ROW_35_277
*2290 TAP_TAPCELL_ROW_35_278
*2291 TAP_TAPCELL_ROW_35_279
*2292 TAP_TAPCELL_ROW_35_280
*2293 TAP_TAPCELL_ROW_36_281
*2294 TAP_TAPCELL_ROW_36_282
*2295 TAP_TAPCELL_ROW_36_283
*2296 TAP_TAPCELL_ROW_36_284
*2297 TAP_TAPCELL_ROW_36_285
*2298 TAP_TAPCELL_ROW_37_286
*2299 TAP_TAPCELL_ROW_37_287
*2300 TAP_TAPCELL_ROW_37_288
*2301 TAP_TAPCELL_ROW_37_289
*2302 TAP_TAPCELL_ROW_37_290
*2303 TAP_TAPCELL_ROW_38_291
*2304 TAP_TAPCELL_ROW_38_292
*2305 TAP_TAPCELL_ROW_38_293
*2306 TAP_TAPCELL_ROW_38_294
*2307 TAP_TAPCELL_ROW_38_295
*2308 TAP_TAPCELL_ROW_39_296
*2309 TAP_TAPCELL_ROW_39_297
*2310 TAP_TAPCELL_ROW_39_298
*2311 TAP_TAPCELL_ROW_39_299
*2312 TAP_TAPCELL_ROW_39_300
*2313 TAP_TAPCELL_ROW_3_116
*2314 TAP_TAPCELL_ROW_3_117
*2315 TAP_TAPCELL_ROW_3_118
*2316 TAP_TAPCELL_ROW_3_119
*2317 TAP_TAPCELL_ROW_3_120
*2318 TAP_TAPCELL_ROW_40_301
*2319 TAP_TAPCELL_ROW_40_302
*2320 TAP_TAPCELL_ROW_40_303
*2321 TAP_TAPCELL_ROW_40_304
*2322 TAP_TAPCELL_ROW_40_305
*2323 TAP_TAPCELL_ROW_41_306
*2324 TAP_TAPCELL_ROW_41_307
*2325 TAP_TAPCELL_ROW_41_308
*2326 TAP_TAPCELL_ROW_41_309
*2327 TAP_TAPCELL_ROW_41_310
*2328 TAP_TAPCELL_ROW_42_311
*2329 TAP_TAPCELL_ROW_42_312
*2330 TAP_TAPCELL_ROW_42_313
*2331 TAP_TAPCELL_ROW_42_314
*2332 TAP_TAPCELL_ROW_42_315
*2333 TAP_TAPCELL_ROW_43_316
*2334 TAP_TAPCELL_ROW_43_317
*2335 TAP_TAPCELL_ROW_43_318
*2336 TAP_TAPCELL_ROW_43_319
*2337 TAP_TAPCELL_ROW_43_320
*2338 TAP_TAPCELL_ROW_44_321
*2339 TAP_TAPCELL_ROW_44_322
*2340 TAP_TAPCELL_ROW_44_323
*2341 TAP_TAPCELL_ROW_44_324
*2342 TAP_TAPCELL_ROW_44_325
*2343 TAP_TAPCELL_ROW_45_326
*2344 TAP_TAPCELL_ROW_45_327
*2345 TAP_TAPCELL_ROW_45_328
*2346 TAP_TAPCELL_ROW_45_329
*2347 TAP_TAPCELL_ROW_45_330
*2348 TAP_TAPCELL_ROW_46_331
*2349 TAP_TAPCELL_ROW_46_332
*2350 TAP_TAPCELL_ROW_46_333
*2351 TAP_TAPCELL_ROW_46_334
*2352 TAP_TAPCELL_ROW_46_335
*2353 TAP_TAPCELL_ROW_47_336
*2354 TAP_TAPCELL_ROW_47_337
*2355 TAP_TAPCELL_ROW_47_338
*2356 TAP_TAPCELL_ROW_47_339
*2357 TAP_TAPCELL_ROW_47_340
*2358 TAP_TAPCELL_ROW_47_341
*2359 TAP_TAPCELL_ROW_47_342
*2360 TAP_TAPCELL_ROW_47_343
*2361 TAP_TAPCELL_ROW_47_344
*2362 TAP_TAPCELL_ROW_47_345
*2363 TAP_TAPCELL_ROW_4_121
*2364 TAP_TAPCELL_ROW_4_122
*2365 TAP_TAPCELL_ROW_4_123
*2366 TAP_TAPCELL_ROW_4_124
*2367 TAP_TAPCELL_ROW_4_125
*2368 TAP_TAPCELL_ROW_5_126
*2369 TAP_TAPCELL_ROW_5_127
*2370 TAP_TAPCELL_ROW_5_128
*2371 TAP_TAPCELL_ROW_5_129
*2372 TAP_TAPCELL_ROW_5_130
*2373 TAP_TAPCELL_ROW_6_131
*2374 TAP_TAPCELL_ROW_6_132
*2375 TAP_TAPCELL_ROW_6_133
*2376 TAP_TAPCELL_ROW_6_134
*2377 TAP_TAPCELL_ROW_6_135
*2378 TAP_TAPCELL_ROW_7_136
*2379 TAP_TAPCELL_ROW_7_137
*2380 TAP_TAPCELL_ROW_7_138
*2381 TAP_TAPCELL_ROW_7_139
*2382 TAP_TAPCELL_ROW_7_140
*2383 TAP_TAPCELL_ROW_8_141
*2384 TAP_TAPCELL_ROW_8_142
*2385 TAP_TAPCELL_ROW_8_143
*2386 TAP_TAPCELL_ROW_8_144
*2387 TAP_TAPCELL_ROW_8_145
*2388 TAP_TAPCELL_ROW_9_146
*2389 TAP_TAPCELL_ROW_9_147
*2390 TAP_TAPCELL_ROW_9_148
*2391 TAP_TAPCELL_ROW_9_149
*2392 TAP_TAPCELL_ROW_9_150
*2393 _0390_
*2394 _0391_
*2395 _0392_
*2396 _0393_
*2397 _0394_
*2398 _0395_
*2399 _0396_
*2400 _0397_
*2401 _0398_
*2402 _0399_
*2403 _0400_
*2404 _0401_
*2405 _0402_
*2406 _0403_
*2407 _0404_
*2408 _0405_
*2409 _0406_
*2410 _0407_
*2411 _0408_
*2412 _0409_
*2413 _0410_
*2414 _0411_
*2415 _0412_
*2416 _0413_
*2417 _0414_
*2418 _0415_
*2419 _0416_
*2420 _0417_
*2421 _0418_
*2422 _0419_
*2423 _0420_
*2424 _0421_
*2425 _0422_
*2426 _0423_
*2427 _0424_
*2428 _0425_
*2429 _0426_
*2430 _0427_
*2431 _0428_
*2432 _0429_
*2433 _0430_
*2434 _0431_
*2435 _0432_
*2436 _0433_
*2437 _0434_
*2438 _0435_
*2439 _0436_
*2440 _0437_
*2441 _0438_
*2442 _0439_
*2443 _0440_
*2444 _0441_
*2445 _0442_
*2446 _0443_
*2447 _0444_
*2448 _0445_
*2449 _0446_
*2450 _0447_
*2451 _0448_
*2452 _0449_
*2453 _0450_
*2454 _0451_
*2455 _0452_
*2456 _0453_
*2457 _0454_
*2458 _0455_
*2459 _0456_
*2460 _0457_
*2461 _0458_
*2462 _0459_
*2463 _0460_
*2464 _0461_
*2465 _0462_
*2466 _0463_
*2467 _0464_
*2468 _0465_
*2469 _0466_
*2470 _0467_
*2471 _0468_
*2472 _0469_
*2473 _0470_
*2474 _0471_
*2475 _0472_
*2476 _0473_
*2477 _0474_
*2478 _0475_
*2479 _0476_
*2480 _0477_
*2481 _0478_
*2482 _0479_
*2483 _0480_
*2484 _0481_
*2485 _0482_
*2486 _0483_
*2487 _0484_
*2488 _0485_
*2489 _0486_
*2490 _0487_
*2491 _0488_
*2492 _0489_
*2493 _0490_
*2494 _0491_
*2495 _0492_
*2496 _0493_
*2497 _0494_
*2498 _0495_
*2499 _0496_
*2500 _0497_
*2501 _0498_
*2502 _0499_
*2503 _0500_
*2504 _0501_
*2505 _0502_
*2506 _0503_
*2507 _0504_
*2508 _0505_
*2509 _0506_
*2510 _0507_
*2511 _0508_
*2512 _0509_
*2513 _0510_
*2514 _0511_
*2515 _0512_
*2516 _0513_
*2517 _0514_
*2518 _0515_
*2519 _0516_
*2520 _0517_
*2521 _0518_
*2522 _0519_
*2523 _0520_
*2524 _0521_
*2525 _0522_
*2526 _0523_
*2527 _0524_
*2528 _0525_
*2529 _0526_
*2530 _0527_
*2531 _0528_
*2532 _0529_
*2533 _0530_
*2534 _0531_
*2535 _0532_
*2536 _0533_
*2537 _0534_
*2538 _0535_
*2539 _0536_
*2540 _0537_
*2541 _0538_
*2542 _0539_
*2543 _0540_
*2544 _0541_
*2545 _0542_
*2546 _0543_
*2547 _0544_
*2548 _0545_
*2549 _0546_
*2550 _0547_
*2551 _0548_
*2552 _0549_
*2553 _0550_
*2554 _0551_
*2555 _0552_
*2556 _0553_
*2557 _0554_
*2558 _0555_
*2559 _0556_
*2560 _0557_
*2561 _0558_
*2562 _0559_
*2563 _0560_
*2564 _0561_
*2565 _0562_
*2566 _0563_
*2567 _0564_
*2568 _0565_
*2569 _0566_
*2570 _0567_
*2571 _0568_
*2572 _0569_
*2573 _0570_
*2574 _0571_
*2575 _0572_
*2576 _0573_
*2577 _0574_
*2578 _0575_
*2579 _0576_
*2580 _0577_
*2581 _0578_
*2582 _0579_
*2583 _0580_
*2584 _0581_
*2585 _0582_
*2586 _0583_
*2587 _0584_
*2588 _0585_
*2589 _0586_
*2590 _0587_
*2591 _0588_
*2592 _0589_
*2593 _0590_
*2594 _0591_
*2595 _0592_
*2596 _0593_
*2597 _0594_
*2598 _0595_
*2599 _0596_
*2600 _0597_
*2601 _0598_
*2602 _0599_
*2603 _0600_
*2604 _0601_
*2605 _0602_
*2606 _0603_
*2607 _0604_
*2608 _0605_
*2609 _0606_
*2610 _0607_
*2611 _0608_
*2612 _0609_
*2613 _0610_
*2614 _0611_
*2615 _0612_
*2616 _0613_
*2617 _0614_
*2618 _0615_
*2619 _0616_
*2620 _0617_
*2621 _0618_
*2622 _0619_
*2623 _0620_
*2624 _0621_
*2625 _0622_
*2626 _0623_
*2627 _0624_
*2628 _0625_
*2629 _0626_
*2630 _0627_
*2631 _0628_
*2632 _0629_
*2633 _0630_
*2634 _0631_
*2635 _0632_
*2636 _0633_
*2637 _0634_
*2638 _0635_
*2639 _0636_
*2640 _0637_
*2641 _0638_
*2642 _0639_
*2643 _0640_
*2644 _0641_
*2645 _0642_
*2646 _0643_
*2647 _0644_
*2648 _0645_
*2649 _0646_
*2650 _0647_
*2651 _0648_
*2652 _0649_
*2653 _0650_
*2654 _0651_
*2655 _0652_
*2656 _0653_
*2657 _0654_
*2658 _0655_
*2659 _0656_
*2660 _0657_
*2661 _0658_
*2662 _0659_
*2663 _0660_
*2664 _0661_
*2665 _0662_
*2666 _0663_
*2667 _0664_
*2668 _0665_
*2669 _0666_
*2670 _0667_
*2671 _0668_
*2672 _0669_
*2673 _0670_
*2674 _0671_
*2675 _0672_
*2676 _0673_
*2677 _0674_
*2678 _0675_
*2679 _0676_
*2680 _0677_
*2681 _0678_
*2682 _0679_
*2683 _0680_
*2684 _0681_
*2685 _0682_
*2686 _0683_
*2687 _0684_
*2688 _0685_
*2689 _0686_
*2690 _0687_
*2691 _0688_
*2692 _0689_
*2693 _0690_
*2694 _0691_
*2695 _0692_
*2696 _0693_
*2697 _0694_
*2698 _0695_
*2699 _0696_
*2700 _0697_
*2701 _0698_
*2702 _0699_
*2703 _0700_
*2704 _0701_
*2705 _0702_
*2706 _0703_
*2707 _0704_
*2708 _0705_
*2709 _0706_
*2710 _0707_
*2711 _0708_
*2712 _0709_
*2713 _0710_
*2714 _0711_
*2715 _0712_
*2716 _0713_
*2717 _0714_
*2718 _0715_
*2719 _0716_
*2720 _0717_
*2721 _0718_
*2722 _0719_
*2723 _0720_
*2724 _0721_
*2725 _0722_
*2726 _0723_
*2727 _0724_
*2728 _0725_
*2729 _0726_
*2730 _0727_
*2731 _0728_
*2732 _0729_
*2733 _0730_
*2734 _0731_
*2735 _0732_
*2736 _0733_
*2737 _0734_
*2738 _0735_
*2739 _0736_
*2740 _0737_
*2741 _0738_
*2742 _0739_
*2743 _0740_
*2744 _0741_
*2745 _0742_
*2746 _0743_
*2747 _0744_
*2748 _0745_
*2749 _0746_
*2750 _0747_
*2751 _0748_
*2752 _0749_
*2753 _0750_
*2754 _0751_
*2755 _0752_
*2756 _0753_
*2757 _0754_
*2758 _0755_
*2759 _0756_
*2760 _0757_
*2761 _0758_
*2762 _0759_
*2763 _0760_
*2764 _0761_
*2765 _0762_
*2766 _0763_
*2767 _0764_
*2768 _0765_
*2769 _0766_
*2770 _0767_
*2771 _0768_
*2772 _0769_
*2773 _0770_
*2774 _0771_
*2775 _0772_
*2776 _0773_
*2777 _0774_
*2778 _0775_
*2779 _0776_
*2780 _0777_
*2781 _0778_
*2782 _0779_
*2783 _0780_
*2784 _0781_
*2785 _0782_
*2786 _0783_
*2787 _0784_
*2788 _0785_
*2789 _0786_
*2790 _0787_
*2791 _0788_
*2792 _0789_
*2793 _0790_
*2794 _0791_
*2795 _0792_
*2796 _0793_
*2797 _0794_
*2798 _0795_
*2799 _0796_
*2800 _0797_
*2801 _0798_
*2802 _0799_
*2803 _0800_
*2804 _0801_
*2805 _0802_
*2806 _0803_
*2807 _0804_
*2808 _0805_
*2809 _0806_
*2810 _0807_
*2811 _0808_
*2812 _0809_
*2813 _0810_
*2814 _0811_
*2815 _0812_
*2816 _0813_
*2817 _0814_
*2818 _0815_
*2819 _0816_
*2820 _0817_
*2821 _0818_
*2822 _0819_
*2823 _0820_
*2824 _0821_
*2825 _0822_
*2826 _0823_
*2827 _0824_
*2828 _0825_
*2829 _0826_
*2830 _0827_
*2831 _0828_
*2832 _0829_
*2833 _0830_
*2834 _0831_
*2835 _0832_
*2836 _0833_
*2837 _0834_
*2838 _0835_
*2839 _0836_
*2840 _0837_
*2841 _0838_
*2842 _0839_
*2843 _0840_
*2844 _0841_
*2845 _0842_
*2846 _0843_
*2847 _0844_
*2848 _0845_
*2849 _0846_
*2850 _0847_
*2851 _0848_
*2852 _0849_
*2853 _0850_
*2854 _0851_
*2855 _0852_
*2856 _0853_
*2857 _0854_
*2858 _0855_
*2859 _0856_
*2860 _0857_
*2861 _0858_
*2862 _0859_
*2863 _0860_
*2864 _0861_
*2865 _0862_
*2866 _0863_
*2867 _0864_
*2868 _0865_
*2869 _0866_
*2870 _0867_
*2871 _0868_
*2872 _0869_
*2873 _0870_
*2874 _0871_
*2875 _0872_
*2876 _0873_
*2877 _0874_
*2878 _0875_
*2879 _0876_
*2880 _0877_
*2881 _0878_
*2882 _0879_
*2883 _0880_
*2884 _0881_
*2885 _0882_
*2886 _0883_
*2887 _0884_
*2888 _0885_
*2889 _0886_
*2890 _0887_
*2891 _0888_
*2892 _0889_
*2893 _0890_
*2894 _0891_
*2895 _0892_
*2896 _0893_
*2897 _0894_
*2898 _0895_
*2899 _0896_
*2900 _0897_
*2901 _0898_
*2902 _0899_
*2903 _0900_
*2904 _0901_
*2905 _0902_
*2906 _0903_
*2907 _0904_
*2908 _0905_
*2909 _0906_
*2910 _0907_
*2911 _0908_
*2912 _0909_
*2913 _0910_
*2914 _0911_
*2915 _0912_
*2916 _0913_
*2917 _0914_
*2918 _0915_
*2919 _0916_
*2920 _0917_
*2921 _0918_
*2922 _0919_
*2923 _0920_
*2924 _0921_
*2925 _0922_
*2926 _0923_
*2927 _0924_
*2928 _0925_
*2929 _0926_
*2930 _0927_
*2931 _0928_
*2932 _0929_
*2933 _0930_
*2934 _0931_
*2935 _0932_
*2936 _0933_
*2937 _0934_
*2938 _0935_
*2939 _0936_
*2940 _0937_
*2941 _0938_
*2942 _0939_
*2943 _0940_
*2944 _0941_
*2945 _0942_
*2946 _0943_
*2947 _0944_
*2948 _0945_
*2949 _0946_
*2950 _0947_
*2951 _0948_
*2952 _0949_
*2953 _0950_
*2954 _0951_
*2955 _0952_
*2956 _0953_
*2957 _0954_
*2958 _0955_
*2959 _0956_
*2960 _0957_
*2961 _0958_
*2962 _0959_
*2963 _0960_
*2964 _0961_
*2965 _0962_
*2966 _0963_
*2967 _0964_
*2968 _0965_
*2969 _0966_
*2970 _0967_
*2971 _0968_
*2972 _0969_
*2973 _0970_
*2974 _0971_
*2975 _0972_
*2976 _0973_
*2977 _0974_
*2978 _0975_
*2979 _0976_
*2980 _0977_
*2981 _0978_
*2982 _0979_
*2983 _0980_
*2984 _0981_
*2985 _0982_
*2986 _0983_
*2987 _0984_
*2988 _0985_
*2989 _0986_
*2990 _0987_
*2991 _0988_
*2992 _0989_
*2993 _0990_
*2994 _0991_
*2995 _0992_
*2996 _0993_
*2997 _0994_
*2998 _0995_
*2999 _0996_
*3000 _0997_
*3001 _0998_
*3002 _0999_
*3003 _1000_
*3004 _1001_
*3005 _1002_
*3006 _1003_
*3007 _1004_
*3008 _1005_
*3009 _1006_
*3010 _1007_
*3011 _1008_
*3012 _1009_
*3013 _1010_
*3014 _1011_
*3015 _1012_
*3016 _1013_
*3017 _1014_
*3018 _1015_
*3019 _1016_
*3020 _1017_
*3021 _1018_
*3022 _1019_
*3023 _1020_
*3024 _1021_
*3025 _1022_
*3026 _1023_
*3027 _1024_
*3028 _1025_
*3029 _1026_
*3030 _1027_
*3031 _1028_
*3032 _1029_
*3033 _1030_
*3034 _1031_
*3035 _1032_
*3036 _1033_
*3037 _1034_
*3038 _1035_
*3039 _1036_
*3040 _1037_
*3041 _1038_
*3042 _1039_
*3043 _1040_
*3044 _1041_
*3045 _1042_
*3046 _1043_
*3047 _1044_
*3048 _1045_
*3049 _1046_
*3050 _1047_
*3051 _1048_
*3052 _1049_
*3053 _1050_
*3054 _1051_
*3055 _1052_
*3056 _1053_
*3057 _1054_
*3058 _1055_
*3059 _1056_
*3060 _1057_
*3061 _1058_
*3062 _1059_
*3063 _1060_
*3064 _1061_
*3065 _1062_
*3066 _1063_
*3067 _1064_
*3068 _1065_
*3069 _1066_
*3070 _1067_
*3071 _1068_
*3072 _1069_
*3073 _1070_
*3074 _1071_
*3075 _1072_
*3076 _1073_
*3077 _1074_
*3078 _1075_
*3079 _1076_
*3080 _1077_
*3081 _1078_
*3082 _1079_
*3083 _1080_
*3084 _1081_
*3085 _1082_
*3086 _1083_
*3087 _1084_
*3088 _1085_
*3089 _1086_
*3090 _1087_
*3091 _1088_
*3092 _1089_
*3093 _1090_
*3094 _1091_
*3095 _1092_
*3096 _1093_
*3097 _1094_
*3098 _1095_
*3099 _1096_
*3100 _1097_
*3101 _1098_
*3102 _1099_
*3103 _1100_
*3104 _1101_
*3105 _1102_
*3106 _1103_
*3107 _1104_
*3108 _1105_
*3109 _1106_
*3110 _1107_
*3111 _1108_
*3112 _1109_
*3113 _1110_
*3114 clkbuf_0_clk
*3115 clkbuf_1_0__f_clk
*3116 clkbuf_1_1__f_clk
*3117 clkload0
*3118 fanout112
*3119 fanout113
*3120 fanout114
*3121 fanout115
*3122 fanout116
*3123 fanout117
*3124 fanout118
*3125 fanout119
*3126 fanout120
*3127 fanout121
*3128 fanout122
*3129 fanout123
*3130 fanout124
*3131 fanout125
*3132 fanout126
*3133 fanout127
*3134 fanout128
*3135 fanout129
*3136 fanout130
*3137 fanout131
*3138 fanout132
*3139 fanout133
*3140 fanout134
*3141 fanout135
*3142 fanout136
*3143 fanout137
*3144 fanout138
*3145 fanout139
*3146 fanout140
*3147 fanout141
*3148 fanout142
*3149 fanout143
*3150 fanout144
*3151 fanout145
*3152 fanout146
*3153 fanout147
*3154 fanout148
*3155 fanout149
*3156 fanout150
*3157 fanout151
*3158 fanout152
*3159 fanout153
*3160 fanout154
*3161 fanout155
*3162 fanout156
*3163 fanout157
*3164 fanout158
*3165 fanout159
*3166 fanout160
*3167 fanout161
*3168 fanout162
*3169 fanout163
*3170 fanout164
*3171 fanout165
*3172 fanout166
*3173 fanout167
*3174 fanout168
*3175 fanout169
*3176 fanout170
*3177 fanout171
*3178 fanout172
*3179 fanout173
*3180 fanout174
*3181 fanout175
*3182 fanout176
*3183 fanout177
*3184 fanout178
*3185 fanout179
*3186 fanout180
*3187 fanout181
*3188 fanout182
*3189 fanout183
*3190 fanout184
*3191 fanout185
*3192 fanout186
*3193 fanout187
*3194 fanout188
*3195 fanout189
*3196 fanout190
*3197 fanout191
*3198 fanout192
*3199 fanout193
*3200 fanout194
*3201 fanout195
*3202 fanout196
*3203 fanout197
*3204 fanout198
*3205 fanout199
*3206 fanout200
*3207 fanout201
*3208 fanout202
*3209 fanout203
*3210 fanout204
*3211 fanout206
*3212 fanout207
*3213 fanout208
*3214 fanout209
*3215 fanout210
*3216 fanout211
*3217 fanout212
*3218 fanout213
*3219 fanout216
*3220 fanout217
*3221 fanout218
*3222 fanout219
*3223 fanout221
*3224 fanout222
*3225 fanout225
*3226 fanout226
*3227 fanout227
*3228 fanout228
*3229 fanout230
*3230 fanout231
*3231 fanout232
*3232 fanout233
*3233 fanout234
*3234 fanout235
*3235 fanout236
*3236 fanout237
*3237 fanout238
*3238 fanout239
*3239 fanout240
*3240 fanout241
*3241 fanout242
*3242 fanout243
*3243 fanout244
*3244 fanout245
*3245 fanout246
*3246 hold1
*3247 hold2
*3248 hold3
*3249 hold4
*3250 hold5
*3251 hold6
*3252 hold7
*3253 input1
*3254 input10
*3255 input11
*3256 input12
*3257 input13
*3258 input14
*3259 input15
*3260 input16
*3261 input17
*3262 input18
*3263 input19
*3264 input2
*3265 input20
*3266 input21
*3267 input22
*3268 input23
*3269 input24
*3270 input25
*3271 input26
*3272 input27
*3273 input28
*3274 input29
*3275 input3
*3276 input30
*3277 input31
*3278 input32
*3279 input33
*3280 input34
*3281 input35
*3282 input36
*3283 input37
*3284 input38
*3285 input39
*3286 input4
*3287 input40
*3288 input41
*3289 input42
*3290 input43
*3291 input44
*3292 input45
*3293 input46
*3294 input47
*3295 input48
*3296 input49
*3297 input5
*3298 input50
*3299 input51
*3300 input52
*3301 input53
*3302 input54
*3303 input55
*3304 input56
*3305 input57
*3306 input58
*3307 input59
*3308 input6
*3309 input60
*3310 input61
*3311 input62
*3312 input7
*3313 input8
*3314 input9
*3315 max_cap205
*3316 max_cap214
*3317 max_cap220
*3318 max_cap223
*3319 max_cap224
*3320 max_cap229
*3321 output100
*3322 output101
*3323 output102
*3324 output103
*3325 output104
*3326 output105
*3327 output106
*3328 output107
*3329 output108
*3330 output109
*3331 output110
*3332 output111
*3333 output63
*3334 output64
*3335 output65
*3336 output66
*3337 output67
*3338 output68
*3339 output69
*3340 output70
*3341 output71
*3342 output72
*3343 output73
*3344 output74
*3345 output75
*3346 output76
*3347 output77
*3348 output78
*3349 output79
*3350 output80
*3351 output81
*3352 output82
*3353 output83
*3354 output84
*3355 output85
*3356 output86
*3357 output87
*3358 output88
*3359 output89
*3360 output90
*3361 output91
*3362 output92
*3363 output93
*3364 output94
*3365 output95
*3366 output96
*3367 output97
*3368 output98
*3369 output99
*3370 wire215

*PORTS
PADDR[0] O
PADDR[1] O
PADDR[2] O
PENABLE O
PRDATA[0] I
PRDATA[10] I
PRDATA[11] I
PRDATA[12] I
PRDATA[13] I
PRDATA[14] I
PRDATA[15] I
PRDATA[1] I
PRDATA[2] I
PRDATA[3] I
PRDATA[4] I
PRDATA[5] I
PRDATA[6] I
PRDATA[7] I
PRDATA[8] I
PRDATA[9] I
PREADY I
PSEL1 O
PSEL2 O
PSEL3 O
PSEL4 O
PWDATA[0] O
PWDATA[10] O
PWDATA[11] O
PWDATA[12] O
PWDATA[13] O
PWDATA[14] O
PWDATA[15] O
PWDATA[1] O
PWDATA[2] O
PWDATA[3] O
PWDATA[4] O
PWDATA[5] O
PWDATA[6] O
PWDATA[7] O
PWDATA[8] O
PWDATA[9] O
PWRITE O
araddr[0] I
araddr[1] I
araddr[2] I
araddr[3] I
araddr[4] I
arburst[0] I
arburst[1] I
arlen[0] I
arlen[1] I
arlen[2] I
arlen[3] I
arready O
arvalid I
awaddr[0] I
awaddr[1] I
awaddr[2] I
awaddr[3] I
awaddr[4] I
awburst[0] I
awburst[1] I
awlen[0] I
awlen[1] I
awlen[2] I
awlen[3] I
awready O
awvalid I
bready I
bresp O
bvalid O
clk I
rdata[0] O
rdata[10] O
rdata[11] O
rdata[12] O
rdata[13] O
rdata[14] O
rdata[15] O
rdata[1] O
rdata[2] O
rdata[3] O
rdata[4] O
rdata[5] O
rdata[6] O
rdata[7] O
rdata[8] O
rdata[9] O
res_n I
rlast O
rready I
rresp O
rvalid O
wdata[0] I
wdata[10] I
wdata[11] I
wdata[12] I
wdata[13] I
wdata[14] I
wdata[15] I
wdata[1] I
wdata[2] I
wdata[3] I
wdata[4] I
wdata[5] I
wdata[6] I
wdata[7] I
wdata[8] I
wdata[9] I
wlast I
wready O
wvalid I

*D_NET *1 0.00164045
*CONN
*P PADDR[0] O
*I *3333:X O *D sky130_fd_sc_hd__buf_2
*CAP
1 PADDR[0] 0.000516642
2 *3333:X 0.000516642
3 PADDR[0] *2461:B 0
4 PADDR[0] *2674:A0 2.56694e-05
5 PADDR[0] *2674:A1 5.94884e-05
6 PADDR[0] *3263:A 8.48112e-05
7 PADDR[0] *3276:A 0
8 PADDR[0] *3280:A 8.97596e-05
9 PADDR[0] *374:10 0
10 PADDR[0] *1009:22 0.00034744
*RES
1 *3333:X PADDR[0] 22.8773 
*END

*D_NET *2 0.00199306
*CONN
*P PADDR[1] O
*I *3334:X O *D sky130_fd_sc_hd__buf_2
*CAP
1 PADDR[1] 0.00057737
2 *3334:X 0.00057737
3 PADDR[1] arready 9.1249e-05
4 PADDR[1] *2766:B1 6.92434e-05
5 PADDR[1] *2766:B2 0.000223592
6 PADDR[1] *2766:C1 0.000225307
7 PADDR[1] *2774:A1 1.07719e-05
8 PADDR[1] *3262:A 0
9 PADDR[1] *3278:A 0.000128967
10 PADDR[1] *3289:A 8.91857e-05
11 PADDR[1] *1007:22 0
*RES
1 *3334:X PADDR[1] 23.9481 
*END

*D_NET *3 0.00109749
*CONN
*P PADDR[2] O
*I *3335:X O *D sky130_fd_sc_hd__buf_2
*CAP
1 PADDR[2] 0.000347961
2 *3335:X 0.000347961
3 PADDR[2] PENABLE 9.20909e-05
4 PADDR[2] *2449:A1 7.07702e-05
5 PADDR[2] *3274:A 0
6 PADDR[2] *3277:A 9.23325e-05
7 PADDR[2] *880:37 8.74324e-05
8 PADDR[2] *1009:22 5.89448e-05
*RES
1 *3335:X PADDR[2] 20.3767 
*END

*D_NET *4 0.0013967
*CONN
*P PENABLE O
*I *3336:X O *D sky130_fd_sc_hd__buf_2
*CAP
1 PENABLE 0.000313096
2 *3336:X 0.000313096
3 PENABLE PSEL2 1.90936e-05
4 PENABLE *2676:A0 0.000407396
5 PENABLE *2678:A0 4.3564e-05
6 PENABLE *3274:A 9.89235e-05
7 PENABLE *973:12 0.000109442
8 PADDR[2] PENABLE 9.20909e-05
*RES
1 *3336:X PENABLE 23.1241 
*END

*D_NET *5 0.000859103
*CONN
*P PRDATA[0] I
*I *3253:A I *D sky130_fd_sc_hd__clkbuf_1
*CAP
1 PRDATA[0] 0.000429551
2 *3253:A 0.000429551
3 *3253:A rdata[12] 0
*RES
1 PRDATA[0] *3253:A 21.8357 
*END

*D_NET *6 0.000915331
*CONN
*P PRDATA[10] I
*I *3264:A I *D sky130_fd_sc_hd__clkbuf_1
*CAP
1 PRDATA[10] 0.000402435
2 *3264:A 0.000402435
3 *3264:A *3293:A 0
4 *3264:A *3298:A 0
5 *3264:A *790:12 5.52302e-05
6 *3264:A *1038:12 5.52302e-05
*RES
1 PRDATA[10] *3264:A 21.8357 
*END

*D_NET *7 0.000915331
*CONN
*P PRDATA[11] I
*I *3275:A I *D sky130_fd_sc_hd__clkbuf_1
*CAP
1 PRDATA[11] 0.000402435
2 *3275:A 0.000402435
3 *3275:A *3293:A 0
4 *3275:A *3302:A 0
5 *3275:A *790:12 5.52302e-05
6 *3275:A *1038:12 5.52302e-05
*RES
1 PRDATA[11] *3275:A 21.8357 
*END

*D_NET *8 0.000586036
*CONN
*P PRDATA[12] I
*I *3286:A I *D sky130_fd_sc_hd__clkbuf_1
*CAP
1 PRDATA[12] 0.000164939
2 *3286:A 0.000164939
3 *3286:A PWDATA[10] 9.23325e-05
4 *3286:A PWDATA[12] 8.97596e-05
5 *3286:A *970:10 3.69406e-05
6 *3286:A *1040:18 3.71247e-05
*RES
1 PRDATA[12] *3286:A 18.8021 
*END

*D_NET *9 0.000990337
*CONN
*P PRDATA[13] I
*I *3297:A I *D sky130_fd_sc_hd__clkbuf_1
*CAP
1 PRDATA[13] 0.000495168
2 *3297:A 0.000495168
3 *3297:A *3311:A 0
*RES
1 PRDATA[13] *3297:A 23.6571 
*END

*D_NET *10 0.00212053
*CONN
*P PRDATA[14] I
*I *3308:A I *D sky130_fd_sc_hd__buf_1
*CAP
1 PRDATA[14] 0.000661748
2 *3308:A 0.000661748
3 *3308:A PWDATA[11] 0.000143
4 *3308:A PWDATA[2] 9.94734e-05
5 *3308:A PWDATA[5] 0
6 *3308:A rdata[10] 4.75152e-06
7 *3308:A *2476:B 5.52238e-05
8 *3308:A *2824:D 0.000122946
9 *3308:A *2833:D 8.32171e-05
10 *3308:A *3364:A 8.77022e-05
11 *3308:A *431:57 6.78511e-05
12 *3308:A *431:61 7.76497e-05
13 *3308:A *813:30 0
14 *3308:A *884:47 5.52238e-05
*RES
1 PRDATA[14] *3308:A 24.0769 
*END

*D_NET *11 0.000512364
*CONN
*P PRDATA[15] I
*I *3312:A I *D sky130_fd_sc_hd__clkbuf_1
*CAP
1 PRDATA[15] 0.000163456
2 *3312:A 0.000163456
3 *3312:A PWDATA[12] 8.54999e-05
4 *3312:A PWDATA[15] 8.97596e-05
5 *3312:A *970:10 1.01912e-05
*RES
1 PRDATA[15] *3312:A 18.1949 
*END

*D_NET *12 0.00102703
*CONN
*P PRDATA[1] I
*I *3313:A I *D sky130_fd_sc_hd__clkbuf_1
*CAP
1 PRDATA[1] 0.000513515
2 *3313:A 0.000513515
3 *3313:A wready 0
4 *3313:A *3290:A 0
*RES
1 PRDATA[1] *3313:A 23.6571 
*END

*D_NET *13 0.000915331
*CONN
*P PRDATA[2] I
*I *3314:A I *D sky130_fd_sc_hd__clkbuf_1
*CAP
1 PRDATA[2] 0.000402435
2 *3314:A 0.000402435
3 *3314:A *3298:A 0
4 *3314:A *3301:A 0
5 *3314:A *790:12 5.52302e-05
6 *3314:A *1038:12 5.52302e-05
*RES
1 PRDATA[2] *3314:A 21.8357 
*END

*D_NET *14 0.00194205
*CONN
*P PRDATA[3] I
*I *3254:A I *D sky130_fd_sc_hd__buf_1
*CAP
1 PRDATA[3] 0.000627027
2 *3254:A 0.000627027
3 *3254:A rdata[11] 0
4 *3254:A *3256:A 0.000688
*RES
1 PRDATA[3] *3254:A 28.98 
*END

*D_NET *15 0.000990337
*CONN
*P PRDATA[4] I
*I *3255:A I *D sky130_fd_sc_hd__clkbuf_1
*CAP
1 PRDATA[4] 0.000495168
2 *3255:A 0.000495168
3 *3255:A *3270:A 0
4 *3255:A *3311:A 0
*RES
1 PRDATA[4] *3255:A 23.6571 
*END

*D_NET *16 0.00233821
*CONN
*P PRDATA[5] I
*I *3256:A I *D sky130_fd_sc_hd__buf_1
*CAP
1 PRDATA[5] 0.000369245
2 *3256:A 0.000369245
3 *3256:A PWDATA[0] 9.23325e-05
4 *3256:A rdata[11] 0
5 *3256:A rdata[14] 0.000819387
6 *3254:A *3256:A 0.000688
*RES
1 PRDATA[5] *3256:A 28.2128 
*END

*D_NET *17 0.000669314
*CONN
*P PRDATA[6] I
*I *3257:A I *D sky130_fd_sc_hd__clkbuf_1
*CAP
1 PRDATA[6] 0.000216223
2 *3257:A 0.000216223
3 *3257:A PWDATA[6] 8.48112e-05
4 *3257:A PWDATA[7] 9.23325e-05
5 *3257:A *3354:A 0
6 *3257:A *970:10 5.97254e-05
*RES
1 PRDATA[6] *3257:A 19.4092 
*END

*D_NET *18 0.000919047
*CONN
*P PRDATA[7] I
*I *3258:A I *D sky130_fd_sc_hd__clkbuf_1
*CAP
1 PRDATA[7] 0.000396644
2 *3258:A 0.000396644
3 *3258:A *3292:A 0
4 *3258:A *3306:A 0
5 *3258:A *790:12 7.0528e-05
6 *3258:A *1038:12 5.52302e-05
*RES
1 PRDATA[7] *3258:A 21.8357 
*END

*D_NET *19 0.00199856
*CONN
*P PRDATA[8] I
*I *3259:A I *D sky130_fd_sc_hd__clkbuf_1
*CAP
1 PRDATA[8] 0.000731709
2 *3259:A 0.000731709
3 *3259:A PWDATA[0] 0.000141254
4 *3259:A PWDATA[5] 0.000265326
5 *3259:A rdata[3] 0
6 *3259:A rdata[7] 8.26015e-05
7 *3259:A *3325:A 0
8 *3259:A *3326:A 9.25014e-06
9 *3259:A *791:8 3.67142e-05
*RES
1 PRDATA[8] *3259:A 21.797 
*END

*D_NET *20 0.000880855
*CONN
*P PRDATA[9] I
*I *3260:A I *D sky130_fd_sc_hd__clkbuf_1
*CAP
1 PRDATA[9] 0.000412812
2 *3260:A 0.000412812
3 *3260:A *2665:A1 0
4 *3260:A *3292:A 0
5 *3260:A *3295:A 0
6 *3260:A *1038:12 5.52302e-05
*RES
1 PRDATA[9] *3260:A 21.8357 
*END

*D_NET *21 0.00096063
*CONN
*P PREADY I
*I *3261:A I *D sky130_fd_sc_hd__clkbuf_2
*CAP
1 PREADY 0.000480315
2 *3261:A 0.000480315
3 *3261:A rdata[5] 0
4 *3261:A *3273:A 0
*RES
1 PREADY *3261:A 23.3536 
*END

*D_NET *22 0.00293333
*CONN
*P PSEL1 O
*I *3337:X O *D sky130_fd_sc_hd__buf_2
*CAP
1 PSEL1 0.00101912
2 *3337:X 0.00101912
3 PSEL1 *3265:A 8.66437e-05
4 PSEL1 *3282:A 0.000736234
5 PSEL1 *3289:A 0
6 PSEL1 *962:6 4.33058e-05
7 PSEL1 *1007:22 2.89016e-05
*RES
1 *3337:X PSEL1 32.0948 
*END

*D_NET *23 0.00168552
*CONN
*P PSEL2 O
*I *3338:X O *D sky130_fd_sc_hd__buf_2
*CAP
1 PSEL2 0.000346278
2 *3338:X 0.000346278
3 PSEL2 PWRITE 0.000209754
4 PSEL2 *2676:A0 0.000156269
5 PSEL2 *2678:A0 0.000496369
6 PSEL2 *3274:A 9.23325e-05
7 PSEL2 *3357:A 1.91512e-05
8 PSEL2 *880:43 0
9 PENABLE PSEL2 1.90936e-05
*RES
1 *3338:X PSEL2 24.8021 
*END

*D_NET *24 0.00278697
*CONN
*P PSEL3 O
*I *3339:X O *D sky130_fd_sc_hd__buf_2
*CAP
1 PSEL3 0.000552486
2 *3339:X 0.000552486
3 PSEL3 *3265:A 0.000911775
4 PSEL3 *3271:A 0
5 PSEL3 *3278:A 7.69299e-05
6 PSEL3 *3281:A 0.000184529
7 PSEL3 *3289:A 4.93931e-05
8 PSEL3 *973:12 0.00045937
*RES
1 *3339:X PSEL3 31.2121 
*END

*D_NET *25 0.000729767
*CONN
*P PSEL4 O
*I *3340:X O *D sky130_fd_sc_hd__buf_2
*CAP
1 PSEL4 0.000207643
2 *3340:X 0.000207643
3 PSEL4 PWRITE 9.13905e-05
4 PSEL4 *2676:A1 6.76337e-05
5 PSEL4 *3266:A 0.000155457
*RES
1 *3340:X PSEL4 18.8741 
*END

*D_NET *26 0.0050974
*CONN
*P PWDATA[0] O
*I *3341:X O *D sky130_fd_sc_hd__buf_2
*CAP
1 PWDATA[0] 0.00172293
2 *3341:X 0.00172293
3 PWDATA[0] rdata[10] 0.000204218
4 PWDATA[0] rdata[14] 0
5 PWDATA[0] *2653:A 1.21258e-05
6 PWDATA[0] *2653:B 8.25843e-06
7 PWDATA[0] *2814:GATE_N 9.41642e-05
8 PWDATA[0] *2817:D 4.30382e-05
9 PWDATA[0] *2822:GATE_N 0.000222666
10 PWDATA[0] *3362:A 9.65217e-05
11 PWDATA[0] *3364:A 0.000148867
12 PWDATA[0] *631:38 0.000588092
13 PWDATA[0] *1040:18 0
14 *3256:A PWDATA[0] 9.23325e-05
15 *3259:A PWDATA[0] 0.000141254
*RES
1 *3341:X PWDATA[0] 42.163 
*END

*D_NET *27 0.00097818
*CONN
*P PWDATA[10] O
*I *3342:X O *D sky130_fd_sc_hd__buf_2
*CAP
1 PWDATA[10] 0.00032974
2 *3342:X 0.00032974
3 PWDATA[10] PWDATA[12] 0
4 PWDATA[10] PWDATA[9] 0.00014181
5 PWDATA[10] *3342:A 4.15914e-05
6 PWDATA[10] *884:47 4.29654e-05
7 PWDATA[10] *1040:18 0
8 *3286:A PWDATA[10] 9.23325e-05
*RES
1 *3342:X PWDATA[10] 19.8416 
*END

*D_NET *28 0.00109192
*CONN
*P PWDATA[11] O
*I *3343:X O *D sky130_fd_sc_hd__buf_2
*CAP
1 PWDATA[11] 0.000361625
2 *3343:X 0.000361625
3 PWDATA[11] PWDATA[9] 0
4 PWDATA[11] *2476:B 6.76337e-05
5 PWDATA[11] *3279:A 9.23325e-05
6 PWDATA[11] *3362:A 6.57026e-05
7 *3308:A PWDATA[11] 0.000143
*RES
1 *3343:X PWDATA[11] 19.2345 
*END

*D_NET *29 0.000680527
*CONN
*P PWDATA[12] O
*I *3344:X O *D sky130_fd_sc_hd__buf_2
*CAP
1 PWDATA[12] 0.000208835
2 *3344:X 0.000208835
3 PWDATA[12] PWDATA[15] 0
4 PWDATA[12] *970:10 1.99644e-05
5 PWDATA[12] *1040:18 6.76337e-05
6 PWDATA[10] PWDATA[12] 0
7 *3286:A PWDATA[12] 8.97596e-05
8 *3312:A PWDATA[12] 8.54999e-05
*RES
1 *3344:X PWDATA[12] 18.8741 
*END

*D_NET *30 0.00054621
*CONN
*P PWDATA[13] O
*I *3345:X O *D sky130_fd_sc_hd__buf_2
*CAP
1 PWDATA[13] 0.000163361
2 *3345:X 0.000163361
3 PWDATA[13] PWDATA[1] 0.000102046
4 PWDATA[13] PWDATA[4] 9.94734e-05
5 PWDATA[13] *3345:A 1.21859e-05
6 PWDATA[13] *970:10 5.7836e-06
*RES
1 *3345:X PWDATA[13] 18.267 
*END

*D_NET *31 0.000934318
*CONN
*P PWDATA[14] O
*I *3346:X O *D sky130_fd_sc_hd__buf_2
*CAP
1 PWDATA[14] 0.000339975
2 *3346:X 0.000339975
3 PWDATA[14] PWDATA[3] 0.000102046
4 PWDATA[14] PWDATA[6] 9.94734e-05
5 PWDATA[14] PWDATA[8] 0
6 PWDATA[14] *3346:A 4.15914e-05
7 PWDATA[14] *3350:A 1.12577e-05
8 PWDATA[14] *878:85 0
*RES
1 *3346:X PWDATA[14] 19.8416 
*END

*D_NET *32 0.000724747
*CONN
*P PWDATA[15] O
*I *3347:X O *D sky130_fd_sc_hd__buf_2
*CAP
1 PWDATA[15] 0.000216801
2 *3347:X 0.000216801
3 PWDATA[15] PWDATA[7] 9.94734e-05
4 PWDATA[15] *3347:A 6.27457e-05
5 PWDATA[15] *970:10 3.91668e-05
6 PWDATA[12] PWDATA[15] 0
7 *3312:A PWDATA[15] 8.97596e-05
*RES
1 *3347:X PWDATA[15] 19.4813 
*END

*D_NET *33 0.0019939
*CONN
*P PWDATA[1] O
*I *3348:X O *D sky130_fd_sc_hd__buf_2
*CAP
1 PWDATA[1] 0.000749809
2 *3348:X 0.000749809
3 PWDATA[1] PWDATA[8] 0
4 PWDATA[1] *3268:A 8.97596e-05
5 PWDATA[1] *431:166 7.20729e-05
6 PWDATA[1] *878:85 0
7 PWDATA[1] *935:14 0.00013624
8 PWDATA[1] *1024:12 9.41642e-05
9 PWDATA[13] PWDATA[1] 0.000102046
*RES
1 *3348:X PWDATA[1] 24.6834 
*END

*D_NET *34 0.00063643
*CONN
*P PWDATA[2] O
*I *3349:X O *D sky130_fd_sc_hd__buf_2
*CAP
1 PWDATA[2] 0.000200125
2 *3349:X 0.000200125
3 PWDATA[2] PWDATA[5] 8.91165e-05
4 PWDATA[2] rdata[11] 0
5 PWDATA[2] *1040:18 4.75911e-05
6 *3308:A PWDATA[2] 9.94734e-05
*RES
1 *3349:X PWDATA[2] 18.5706 
*END

*D_NET *35 0.000627687
*CONN
*P PWDATA[3] O
*I *3350:X O *D sky130_fd_sc_hd__buf_2
*CAP
1 PWDATA[3] 0.00018454
2 *3350:X 0.00018454
3 PWDATA[3] PWDATA[8] 0.000102046
4 PWDATA[3] *3350:A 3.454e-05
5 PWDATA[3] *970:10 1.99737e-05
6 PWDATA[14] PWDATA[3] 0.000102046
*RES
1 *3350:X PWDATA[3] 18.8741 
*END

*D_NET *36 0.000566757
*CONN
*P PWDATA[4] O
*I *3351:X O *D sky130_fd_sc_hd__buf_2
*CAP
1 PWDATA[4] 0.000187996
2 *3351:X 0.000187996
3 PWDATA[4] *2827:D 0
4 PWDATA[4] *3269:A 8.54999e-05
5 PWDATA[4] *970:10 5.7903e-06
6 PWDATA[13] PWDATA[4] 9.94734e-05
*RES
1 *3351:X PWDATA[4] 18.267 
*END

*D_NET *37 0.00425291
*CONN
*P PWDATA[5] O
*I *3352:X O *D sky130_fd_sc_hd__buf_2
*CAP
1 PWDATA[5] 0.00130678
2 *3352:X 0.00130678
3 PWDATA[5] *2654:B 0.000197977
4 PWDATA[5] *2813:D 0
5 PWDATA[5] *2814:D 4.43299e-05
6 PWDATA[5] *2824:D 5.03616e-05
7 PWDATA[5] *3326:A 0
8 PWDATA[5] *426:10 0
9 PWDATA[5] *813:30 0.000310999
10 PWDATA[5] *846:28 0.000280681
11 PWDATA[5] *877:64 3.17067e-05
12 PWDATA[5] *877:86 9.77158e-05
13 PWDATA[5] *877:130 4.96531e-05
14 PWDATA[5] *884:53 4.80729e-05
15 PWDATA[5] *884:59 0.000147474
16 PWDATA[5] *1024:18 2.59355e-05
17 PWDATA[2] PWDATA[5] 8.91165e-05
18 *3259:A PWDATA[5] 0.000265326
19 *3308:A PWDATA[5] 0
*RES
1 *3352:X PWDATA[5] 30.531 
*END

*D_NET *38 0.000705024
*CONN
*P PWDATA[6] O
*I *3353:X O *D sky130_fd_sc_hd__buf_2
*CAP
1 PWDATA[6] 0.000240791
2 *3353:X 0.000240791
3 PWDATA[6] PWDATA[7] 0
4 PWDATA[6] *2664:A1 0
5 PWDATA[6] *970:10 3.91575e-05
6 PWDATA[14] PWDATA[6] 9.94734e-05
7 *3257:A PWDATA[6] 8.48112e-05
*RES
1 *3353:X PWDATA[6] 19.4813 
*END

*D_NET *39 0.000894419
*CONN
*P PWDATA[7] O
*I *3354:X O *D sky130_fd_sc_hd__buf_2
*CAP
1 PWDATA[7] 0.000335542
2 *3354:X 0.000335542
3 PWDATA[7] *3354:A 3.15282e-05
4 PWDATA[7] *878:85 0
5 PWDATA[15] PWDATA[7] 9.94734e-05
6 PWDATA[6] PWDATA[7] 0
7 *3257:A PWDATA[7] 9.23325e-05
*RES
1 *3354:X PWDATA[7] 19.2345 
*END

*D_NET *40 0.000989714
*CONN
*P PWDATA[8] O
*I *3355:X O *D sky130_fd_sc_hd__buf_2
*CAP
1 PWDATA[8] 0.000375554
2 *3355:X 0.000375554
3 PWDATA[8] *3268:A 8.54999e-05
4 PWDATA[8] *3355:A 5.10602e-05
5 PWDATA[8] *878:85 0
6 PWDATA[8] *970:10 0
7 PWDATA[14] PWDATA[8] 0
8 PWDATA[1] PWDATA[8] 0
9 PWDATA[3] PWDATA[8] 0.000102046
*RES
1 *3355:X PWDATA[8] 20.1452 
*END

*D_NET *41 0.000886635
*CONN
*P PWDATA[9] O
*I *3356:X O *D sky130_fd_sc_hd__buf_2
*CAP
1 PWDATA[9] 0.000320335
2 *3356:X 0.000320335
3 PWDATA[9] *3279:A 8.48112e-05
4 PWDATA[9] *3356:A 1.01912e-05
5 PWDATA[9] *884:47 9.15186e-06
6 PWDATA[10] PWDATA[9] 0.00014181
7 PWDATA[11] PWDATA[9] 0
*RES
1 *3356:X PWDATA[9] 18.6273 
*END

*D_NET *42 0.00132106
*CONN
*P PWRITE O
*I *3357:X O *D sky130_fd_sc_hd__buf_2
*CAP
1 PWRITE 0.00026457
2 *3357:X 0.00026457
3 PWRITE *2676:A1 0.000359786
4 PWRITE *2678:A0 0.000130985
5 PWRITE *3274:A 0
6 PSEL2 PWRITE 0.000209754
7 PSEL4 PWRITE 9.13905e-05
*RES
1 *3357:X PWRITE 22.517 
*END

*D_NET *45 0.0032314
*CONN
*P araddr[0] I
*I *3262:A I *D sky130_fd_sc_hd__clkbuf_1
*CAP
1 araddr[0] 0.00136135
2 *3262:A 0.00136135
3 *3262:A arready 9.89235e-05
4 *3262:A *2767:A1 2.74588e-05
5 *3262:A *2774:A1 6.75281e-05
6 *3262:A *3276:A 0.000122376
7 *3262:A *788:14 0.000142315
8 *3262:A *1033:60 5.00863e-05
9 PADDR[1] *3262:A 0
*RES
1 araddr[0] *3262:A 22.2351 
*END

*D_NET *46 0.000876259
*CONN
*P araddr[1] I
*I *3263:A I *D sky130_fd_sc_hd__clkbuf_1
*CAP
1 araddr[1] 0.000249181
2 *3263:A 0.000249181
3 *3263:A *2460:A 2.26973e-05
4 *3263:A *3276:A 9.23325e-05
5 *3263:A *3334:A 5.03801e-05
6 *3263:A *973:12 0.000127676
7 *3263:A *1009:22 0
8 PADDR[0] *3263:A 8.48112e-05
*RES
1 araddr[1] *3263:A 20.9271 
*END

*D_NET *47 0.00274194
*CONN
*P araddr[2] I
*I *3265:A I *D sky130_fd_sc_hd__clkbuf_1
*CAP
1 araddr[2] 0.000541797
2 *3265:A 0.000541797
3 *3265:A arready 2.06178e-05
4 *3265:A rdata[4] 0.000452766
5 *3265:A *3281:A 9.65674e-05
6 *3265:A *3289:A 8.99757e-05
7 PSEL1 *3265:A 8.66437e-05
8 PSEL3 *3265:A 0.000911775
*RES
1 araddr[2] *3265:A 31.5521 
*END

*D_NET *48 0.00120673
*CONN
*P araddr[3] I
*I *3266:A I *D sky130_fd_sc_hd__clkbuf_1
*CAP
1 araddr[3] 0.000270783
2 *3266:A 0.000270783
3 *3266:A *2676:A1 0.000138816
4 *3266:A *2678:A0 0.000249344
5 *3266:A *3267:A 9.23325e-05
6 *3266:A *970:10 2.92126e-05
7 PSEL4 *3266:A 0.000155457
*RES
1 araddr[3] *3266:A 22.1413 
*END

*D_NET *49 0.000750442
*CONN
*P araddr[4] I
*I *3267:A I *D sky130_fd_sc_hd__clkbuf_1
*CAP
1 araddr[4] 0.000232121
2 *3267:A 0.000232121
3 *3267:A *3269:A 9.23325e-05
4 *3267:A *935:14 0
5 *3267:A *970:10 0.000101535
6 *3266:A *3267:A 9.23325e-05
*RES
1 araddr[4] *3267:A 20.3199 
*END

*D_NET *50 0.000512364
*CONN
*P arburst[0] I
*I *3268:A I *D sky130_fd_sc_hd__clkbuf_1
*CAP
1 arburst[0] 0.000163456
2 *3268:A 0.000163456
3 *3268:A *970:10 1.01912e-05
4 PWDATA[1] *3268:A 8.97596e-05
5 PWDATA[8] *3268:A 8.54999e-05
*RES
1 arburst[0] *3268:A 18.1949 
*END

*D_NET *51 0.000541106
*CONN
*P arburst[1] I
*I *3269:A I *D sky130_fd_sc_hd__clkbuf_1
*CAP
1 arburst[1] 0.000169916
2 *3269:A 0.000169916
3 *3269:A *2827:D 0
4 *3269:A *935:14 0
5 *3269:A *970:10 2.34423e-05
6 PWDATA[4] *3269:A 8.54999e-05
7 *3267:A *3269:A 9.23325e-05
*RES
1 arburst[1] *3269:A 18.4985 
*END

*D_NET *52 0.00104203
*CONN
*P arlen[0] I
*I *3270:A I *D sky130_fd_sc_hd__clkbuf_2
*CAP
1 arlen[0] 0.000480973
2 *3270:A 0.000480973
3 *3270:A rvalid 0
4 *3270:A *957:10 8.00806e-05
5 *3255:A *3270:A 0
*RES
1 arlen[0] *3270:A 23.7643 
*END

*D_NET *53 0.00202199
*CONN
*P arlen[1] I
*I *3271:A I *D sky130_fd_sc_hd__dlymetal6s2s_1
*CAP
1 arlen[1] 0.000875539
2 *3271:A 0.000875539
3 *3271:A *3281:A 0
4 *3271:A *3282:A 0.00018077
5 *3271:A *973:12 9.0145e-05
6 PSEL3 *3271:A 0
*RES
1 arlen[1] *3271:A 30.6571 
*END

*D_NET *54 0.00230587
*CONN
*P arlen[2] I
*I *3272:A I *D sky130_fd_sc_hd__buf_1
*CAP
1 arlen[2] 0.000756887
2 *3272:A 0.000756887
3 *3272:A rdata[13] 0
4 *3272:A rdata[5] 0
5 *3272:A *2725:A2 4.02462e-05
6 *3272:A *2725:B1 9.54385e-05
7 *3272:A *2733:A1 3.34295e-05
8 *3272:A *2733:B1 0.000122446
9 *3272:A *2774:B2 0
10 *3272:A *880:10 4.66203e-05
11 *3272:A *881:97 9.58126e-05
12 *3272:A *881:105 4.58976e-05
13 *3272:A *963:6 0.000312209
*RES
1 arlen[2] *3272:A 30.7464 
*END

*D_NET *55 0.00107072
*CONN
*P arlen[3] I
*I *3273:A I *D sky130_fd_sc_hd__buf_1
*CAP
1 arlen[3] 0.00053536
2 *3273:A 0.00053536
3 *3273:A *706:26 0
4 *3261:A *3273:A 0
*RES
1 arlen[3] *3273:A 24.4786 
*END

*D_NET *56 0.000586123
*CONN
*P arready O
*I *3358:X O *D sky130_fd_sc_hd__buf_2
*CAP
1 arready 0.000181569
2 *3358:X 0.000181569
3 arready *3289:A 1.21955e-05
4 PADDR[1] arready 9.1249e-05
5 *3262:A arready 9.89235e-05
6 *3265:A arready 2.06178e-05
*RES
1 *3358:X arready 18.267 
*END

*D_NET *57 0.00102877
*CONN
*P arvalid I
*I *3274:A I *D sky130_fd_sc_hd__dlymetal6s2s_1
*CAP
1 arvalid 0.000302747
2 *3274:A 0.000302747
3 *3274:A *3338:A 0.000115096
4 *3274:A *880:37 0.000116921
5 PADDR[2] *3274:A 0
6 PENABLE *3274:A 9.89235e-05
7 PSEL2 *3274:A 9.23325e-05
8 PWRITE *3274:A 0
*RES
1 arvalid *3274:A 19.6975 
*END

*D_NET *58 0.000814076
*CONN
*P awaddr[0] I
*I *3276:A I *D sky130_fd_sc_hd__clkbuf_1
*CAP
1 awaddr[0] 0.000278279
2 *3276:A 0.000278279
3 *3276:A *3334:A 2.06112e-05
4 *3276:A *1009:22 2.21972e-05
5 PADDR[0] *3276:A 0
6 *3262:A *3276:A 0.000122376
7 *3263:A *3276:A 9.23325e-05
*RES
1 awaddr[0] *3276:A 18.4832 
*END

*D_NET *59 0.000789589
*CONN
*P awaddr[1] I
*I *3277:A I *D sky130_fd_sc_hd__clkbuf_1
*CAP
1 awaddr[1] 0.000200454
2 *3277:A 0.000200454
3 *3277:A *2676:A0 0.000105054
4 *3277:A *3280:A 8.97596e-05
5 *3277:A *973:12 0.000101535
6 PADDR[2] *3277:A 9.23325e-05
*RES
1 awaddr[1] *3277:A 20.3199 
*END

*D_NET *60 0.00327067
*CONN
*P awaddr[2] I
*I *3278:A I *D sky130_fd_sc_hd__clkbuf_1
*CAP
1 awaddr[2] 0.00120356
2 *3278:A 0.00120356
3 *3278:A bresp 0
4 *3278:A bvalid 0.000165494
5 *3278:A *2774:A1 0
6 *3278:A *2774:B2 9.90367e-05
7 *3278:A *3281:A 0.000332786
8 *3278:A *3360:A 0
9 *3278:A *3361:A 0
10 *3278:A *881:105 3.14193e-05
11 *3278:A *972:10 2.89114e-05
12 PADDR[1] *3278:A 0.000128967
13 PSEL3 *3278:A 7.69299e-05
*RES
1 awaddr[2] *3278:A 26.9252 
*END

*D_NET *61 0.000820194
*CONN
*P awaddr[3] I
*I *3279:A I *D sky130_fd_sc_hd__buf_1
*CAP
1 awaddr[3] 0.000277448
2 *3279:A 0.000277448
3 *3279:A *970:10 2.86754e-05
4 *3279:A *1040:18 5.94788e-05
5 PWDATA[11] *3279:A 9.23325e-05
6 PWDATA[9] *3279:A 8.48112e-05
*RES
1 awaddr[3] *3279:A 19.4092 
*END

*D_NET *62 0.00116132
*CONN
*P awaddr[4] I
*I *3280:A I *D sky130_fd_sc_hd__clkbuf_1
*CAP
1 awaddr[4] 0.000264402
2 *3280:A 0.000264402
3 *3280:A *2460:A 0.000226158
4 *3280:A *2676:A0 5.20383e-05
5 *3280:A *973:12 0.000174801
6 PADDR[0] *3280:A 8.97596e-05
7 *3277:A *3280:A 8.97596e-05
*RES
1 awaddr[4] *3280:A 22.1413 
*END

*D_NET *63 0.00378715
*CONN
*P awburst[0] I
*I *3281:A I *D sky130_fd_sc_hd__clkbuf_1
*CAP
1 awburst[0] 0.00158151
2 *3281:A 0.00158151
3 *3281:A rdata[4] 0
4 *3281:A *505:44 0
5 *3281:A *794:14 1.02504e-05
6 PSEL3 *3281:A 0.000184529
7 *3265:A *3281:A 9.65674e-05
8 *3271:A *3281:A 0
9 *3278:A *3281:A 0.000332786
*RES
1 awburst[0] *3281:A 47.55 
*END

*D_NET *64 0.00241289
*CONN
*P awburst[1] I
*I *3282:A I *D sky130_fd_sc_hd__clkbuf_1
*CAP
1 awburst[1] 0.000628077
2 *3282:A 0.000628077
3 *3282:A bresp 0
4 *3282:A *3289:A 0
5 *3282:A *962:6 0.000230482
6 *3282:A *1007:22 9.25014e-06
7 PSEL1 *3282:A 0.000736234
8 *3271:A *3282:A 0.00018077
*RES
1 awburst[1] *3282:A 29.5321 
*END

*D_NET *65 0.00107626
*CONN
*P awlen[0] I
*I *3283:A I *D sky130_fd_sc_hd__dlymetal6s2s_1
*CAP
1 awlen[0] 0.000474057
2 *3283:A 0.000474057
3 *3283:A rlast 0
4 *3283:A *3114:A 0
5 *3283:A *3310:A 0
6 *3283:A *957:16 0.000128146
*RES
1 awlen[0] *3283:A 23.6571 
*END

*D_NET *66 0.00101873
*CONN
*P awlen[1] I
*I *3284:A I *D sky130_fd_sc_hd__clkbuf_1
*CAP
1 awlen[1] 0.000509364
2 *3284:A 0.000509364
3 *3284:A *3290:A 0
4 *3284:A *74:11 0
*RES
1 awlen[1] *3284:A 23.6571 
*END

*D_NET *67 0.00107525
*CONN
*P awlen[2] I
*I *3285:A I *D sky130_fd_sc_hd__clkbuf_1
*CAP
1 awlen[2] 0.000537625
2 *3285:A 0.000537625
3 *3285:A *3287:A 0
4 *3285:A *3310:A 0
*RES
1 awlen[2] *3285:A 24.4786 
*END

*D_NET *68 0.00107072
*CONN
*P awlen[3] I
*I *3287:A I *D sky130_fd_sc_hd__clkbuf_1
*CAP
1 awlen[3] 0.00053536
2 *3287:A 0.00053536
3 *3287:A *3304:A 0
4 *3285:A *3287:A 0
*RES
1 awlen[3] *3287:A 24.4786 
*END

*D_NET *69 0.000996853
*CONN
*P awready O
*I *3359:X O *D sky130_fd_sc_hd__buf_2
*CAP
1 awready 0.000498427
2 *3359:X 0.000498427
3 awready rlast 0
4 awready *3296:A 0
*RES
1 *3359:X awready 23.4607 
*END

*D_NET *70 0.00124636
*CONN
*P awvalid I
*I *3288:A I *D sky130_fd_sc_hd__buf_1
*CAP
1 awvalid 0.000570599
2 *3288:A 0.000570599
3 *3288:A *3304:A 0
4 *3288:A *964:10 0.000105163
*RES
1 awvalid *3288:A 25.425 
*END

*D_NET *71 0.00515038
*CONN
*P bready I
*I *3289:A I *D sky130_fd_sc_hd__buf_1
*CAP
1 bready 0.00136813
2 *3289:A 0.00136813
3 *3289:A rdata[4] 0.000893484
4 *3289:A *2674:A1 5.45771e-05
5 *3289:A *2766:C1 0.000142826
6 *3289:A *2767:S 8.41815e-05
7 *3289:A *2770:B1 0.000431857
8 *3289:A *2775:A1 5.52238e-05
9 *3289:A *2775:B2 9.28316e-05
10 *3289:A *3334:A 0.000363754
11 *3289:A *739:18 5.4633e-05
12 *3289:A *973:12 0
13 PADDR[1] *3289:A 8.91857e-05
14 PSEL1 *3289:A 0
15 PSEL3 *3289:A 4.93931e-05
16 arready *3289:A 1.21955e-05
17 *3265:A *3289:A 8.99757e-05
18 *3282:A *3289:A 0
*RES
1 bready *3289:A 45.3714 
*END

*D_NET *72 0.000999712
*CONN
*P bresp O
*I *3360:X O *D sky130_fd_sc_hd__buf_2
*CAP
1 bresp 0.000499856
2 *3360:X 0.000499856
3 bresp bvalid 0
4 *3278:A bresp 0
5 *3282:A bresp 0
*RES
1 *3360:X bresp 23.4607 
*END

*D_NET *73 0.0013524
*CONN
*P bvalid O
*I *3361:X O *D sky130_fd_sc_hd__buf_2
*CAP
1 bvalid 0.000545407
2 *3361:X 0.000545407
3 bvalid rdata[13] 0
4 bvalid *3360:A 9.60875e-05
5 bresp bvalid 0
6 *3278:A bvalid 0.000165494
*RES
1 *3361:X bvalid 24.8179 
*END

*D_NET *74 0.00797963
*CONN
*P clk I
*I *3114:A I *D sky130_fd_sc_hd__clkbuf_16
*CAP
1 clk 0.00227303
2 *3114:A 0.00108328
3 *74:11 0.00335631
4 *3114:A *2729:A 9.39323e-05
5 *3114:A *2729:B 9.71108e-05
6 *3114:A *2755:A3 5.50225e-05
7 *3114:A *2759:B 0.000107035
8 *3114:A *3310:A 0.000279034
9 *3114:A *730:24 6.19181e-05
10 *3114:A *737:16 0.00018374
11 *3114:A *957:16 0
12 *3114:A *974:10 0
13 *3114:A *976:12 0
14 *3114:A *1001:8 0.000389205
15 *74:11 rvalid 0
16 *3283:A *3114:A 0
17 *3284:A *74:11 0
*RES
1 clk *74:11 45.7857 
2 *74:11 *3114:A 43.6214 
*END

*D_NET *75 0.00295611
*CONN
*P rdata[0] O
*I *3362:X O *D sky130_fd_sc_hd__buf_2
*CAP
1 rdata[0] 0.00147806
2 *3362:X 0.00147806
3 rdata[0] rdata[11] 0
*RES
1 *3362:X rdata[0] 41.1393 
*END

*D_NET *76 0.00312553
*CONN
*P rdata[10] O
*I *3363:X O *D sky130_fd_sc_hd__buf_2
*CAP
1 rdata[10] 0.000973793
2 *3363:X 0.000973793
3 rdata[10] rdata[14] 0
4 rdata[10] rdata[3] 0
5 rdata[10] *2817:D 0.000106153
6 rdata[10] *2822:GATE_N 0.00010096
7 rdata[10] *2824:D 9.97669e-05
8 rdata[10] *3364:A 0.000662099
9 rdata[10] *431:61 0
10 PWDATA[0] rdata[10] 0.000204218
11 *3308:A rdata[10] 4.75152e-06
*RES
1 *3363:X rdata[10] 34.4786 
*END

*D_NET *77 0.00317585
*CONN
*P rdata[11] O
*I *3364:X O *D sky130_fd_sc_hd__buf_2
*CAP
1 rdata[11] 0.00149107
2 *3364:X 0.00149107
3 rdata[11] rdata[14] 0
4 rdata[11] *2476:B 0.0001399
5 rdata[11] *970:8 5.38072e-05
6 rdata[11] *1040:18 0
7 PWDATA[2] rdata[11] 0
8 rdata[0] rdata[11] 0
9 *3254:A rdata[11] 0
10 *3256:A rdata[11] 0
*RES
1 *3364:X rdata[11] 39.8357 
*END

*D_NET *78 0.000935777
*CONN
*P rdata[12] O
*I *3365:X O *D sky130_fd_sc_hd__buf_2
*CAP
1 rdata[12] 0.000418367
2 *3365:X 0.000418367
3 rdata[12] *3301:A 0
4 rdata[12] *790:12 9.90431e-05
5 *3253:A rdata[12] 0
*RES
1 *3365:X rdata[12] 21.6393 
*END

*D_NET *79 0.00152313
*CONN
*P rdata[13] O
*I *3366:X O *D sky130_fd_sc_hd__buf_2
*CAP
1 rdata[13] 0.000660438
2 *3366:X 0.000660438
3 rdata[13] *3360:A 0.000186669
4 rdata[13] *962:6 1.55885e-05
5 bvalid rdata[13] 0
6 *3272:A rdata[13] 0
*RES
1 *3366:X rdata[13] 26.05 
*END

*D_NET *80 0.00481303
*CONN
*P rdata[14] O
*I *3367:X O *D sky130_fd_sc_hd__buf_2
*CAP
1 rdata[14] 0.00142159
2 *3367:X 0.00142159
3 rdata[14] *2806:D 7.77652e-05
4 rdata[14] *2806:GATE_N 3.14193e-05
5 rdata[14] *3327:A 7.6644e-05
6 rdata[14] *3341:A 5.52238e-05
7 rdata[14] *3362:A 5.71472e-05
8 rdata[14] *3367:A 4.15914e-05
9 rdata[14] *813:30 5.52238e-05
10 rdata[14] *877:58 0.000524959
11 rdata[14] *877:64 5.91452e-05
12 rdata[14] *1040:18 0.000171341
13 PWDATA[0] rdata[14] 0
14 rdata[10] rdata[14] 0
15 rdata[11] rdata[14] 0
16 *3256:A rdata[14] 0.000819387
*RES
1 *3367:X rdata[14] 48.7286 
*END

*D_NET *81 0.000940345
*CONN
*P rdata[15] O
*I *3368:X O *D sky130_fd_sc_hd__buf_2
*CAP
1 rdata[15] 0.000420651
2 *3368:X 0.000420651
3 rdata[15] rdata[2] 0
4 rdata[15] rdata[9] 0
5 rdata[15] *986:12 9.90431e-05
*RES
1 *3368:X rdata[15] 21.6393 
*END

*D_NET *82 0.000619382
*CONN
*P rdata[1] O
*I *3369:X O *D sky130_fd_sc_hd__buf_2
*CAP
1 rdata[1] 0.000280077
2 *3369:X 0.000280077
3 rdata[1] *3369:A 5.92267e-05
*RES
1 *3369:X rdata[1] 19.4092 
*END

*D_NET *83 0.000940345
*CONN
*P rdata[2] O
*I *3321:X O *D sky130_fd_sc_hd__buf_2
*CAP
1 rdata[2] 0.000420651
2 *3321:X 0.000420651
3 rdata[2] rdata[8] 0
4 rdata[2] *986:12 9.90431e-05
5 rdata[15] rdata[2] 0
*RES
1 *3321:X rdata[2] 21.6393 
*END

*D_NET *84 0.00140017
*CONN
*P rdata[3] O
*I *3322:X O *D sky130_fd_sc_hd__buf_2
*CAP
1 rdata[3] 0.000578416
2 *3322:X 0.000578416
3 rdata[3] rdata[7] 0
4 rdata[3] *2817:D 4.55863e-05
5 rdata[3] *2817:GATE_N 5.78451e-05
6 rdata[3] *3326:A 0
7 rdata[3] *3367:A 0.000139907
8 rdata[10] rdata[3] 0
9 *3259:A rdata[3] 0
*RES
1 *3322:X rdata[3] 24.4786 
*END

*D_NET *85 0.00393055
*CONN
*P rdata[4] O
*I *3323:X O *D sky130_fd_sc_hd__buf_2
*CAP
1 rdata[4] 0.000872832
2 *3323:X 0.000872832
3 rdata[4] *3358:A 0.000611103
4 rdata[4] *881:105 0.000227532
5 *3265:A rdata[4] 0.000452766
6 *3281:A rdata[4] 0
7 *3289:A rdata[4] 0.000893484
*RES
1 *3323:X rdata[4] 33.8179 
*END

*D_NET *86 0.00207735
*CONN
*P rdata[5] O
*I *3324:X O *D sky130_fd_sc_hd__buf_2
*CAP
1 rdata[5] 0.00086564
2 *3324:X 0.00086564
3 rdata[5] *2725:B1 0.000271339
4 rdata[5] *962:6 7.47337e-05
5 *3261:A rdata[5] 0
6 *3272:A rdata[5] 0
*RES
1 *3324:X rdata[5] 28.925 
*END

*D_NET *87 0.000883595
*CONN
*P rdata[6] O
*I *3325:X O *D sky130_fd_sc_hd__buf_2
*CAP
1 rdata[6] 0.000428149
2 *3325:X 0.000428149
3 rdata[6] rdata[7] 0
4 rdata[6] rdata[8] 0
5 rdata[6] *791:16 2.72967e-05
*RES
1 *3325:X rdata[6] 21.6393 
*END

*D_NET *88 0.000917493
*CONN
*P rdata[7] O
*I *3326:X O *D sky130_fd_sc_hd__buf_2
*CAP
1 rdata[7] 0.000417446
2 *3326:X 0.000417446
3 rdata[3] rdata[7] 0
4 rdata[6] rdata[7] 0
5 *3259:A rdata[7] 8.26015e-05
*RES
1 *3326:X rdata[7] 21.6393 
*END

*D_NET *89 0.000890299
*CONN
*P rdata[8] O
*I *3327:X O *D sky130_fd_sc_hd__buf_2
*CAP
1 rdata[8] 0.000426539
2 *3327:X 0.000426539
3 rdata[8] *791:16 2.47833e-05
4 rdata[8] *986:12 1.24368e-05
5 rdata[2] rdata[8] 0
6 rdata[6] rdata[8] 0
*RES
1 *3327:X rdata[8] 21.6393 
*END

*D_NET *90 0.000935777
*CONN
*P rdata[9] O
*I *3328:X O *D sky130_fd_sc_hd__buf_2
*CAP
1 rdata[9] 0.000418367
2 *3328:X 0.000418367
3 rdata[9] *3305:A 0
4 rdata[9] *986:12 9.90431e-05
5 rdata[15] rdata[9] 0
*RES
1 *3328:X rdata[9] 21.6393 
*END

*D_NET *91 0.00115758
*CONN
*P res_n I
*I *3290:A I *D sky130_fd_sc_hd__buf_1
*CAP
1 res_n 0.000550642
2 *3290:A 0.000550642
3 *3290:A *2662:A1 5.62995e-05
4 *3284:A *3290:A 0
5 *3313:A *3290:A 0
*RES
1 res_n *3290:A 24.6036 
*END

*D_NET *92 0.000996853
*CONN
*P rlast O
*I *3329:X O *D sky130_fd_sc_hd__buf_2
*CAP
1 rlast 0.000498427
2 *3329:X 0.000498427
3 rlast *957:16 0
4 awready rlast 0
5 *3283:A rlast 0
*RES
1 *3329:X rlast 23.4607 
*END

*D_NET *93 0.00102893
*CONN
*P rready I
*I *3291:A I *D sky130_fd_sc_hd__clkbuf_1
*CAP
1 rready 0.000514463
2 *3291:A 0.000514463
3 *3291:A rresp 0
4 *3291:A *3300:A 0
5 *3291:A *981:14 0
*RES
1 rready *3291:A 23.6571 
*END

*D_NET *94 0.000996853
*CONN
*P rresp O
*I *3330:X O *D sky130_fd_sc_hd__buf_2
*CAP
1 rresp 0.000498427
2 *3330:X 0.000498427
3 rresp *3303:A 0
4 *3291:A rresp 0
*RES
1 *3330:X rresp 23.4607 
*END

*D_NET *95 0.000982126
*CONN
*P rvalid O
*I *3331:X O *D sky130_fd_sc_hd__buf_2
*CAP
1 rvalid 0.000491063
2 *3331:X 0.000491063
3 rvalid *957:10 0
4 *3270:A rvalid 0
5 *74:11 rvalid 0
*RES
1 *3331:X rvalid 23.4607 
*END

*D_NET *96 0.00107721
*CONN
*P wdata[0] I
*I *3292:A I *D sky130_fd_sc_hd__clkbuf_1
*CAP
1 wdata[0] 0.000427376
2 *3292:A 0.000427376
3 *3292:A *2665:A1 8.25512e-05
4 *3292:A *790:12 0
5 *3292:A *1038:12 0.000139907
6 *3258:A *3292:A 0
7 *3260:A *3292:A 0
*RES
1 wdata[0] *3292:A 22.6571 
*END

*D_NET *97 0.000915331
*CONN
*P wdata[10] I
*I *3293:A I *D sky130_fd_sc_hd__clkbuf_1
*CAP
1 wdata[10] 0.000402435
2 *3293:A 0.000402435
3 *3293:A *790:12 5.52302e-05
4 *3293:A *1038:12 5.52302e-05
5 *3264:A *3293:A 0
6 *3275:A *3293:A 0
*RES
1 wdata[10] *3293:A 21.8357 
*END

*D_NET *98 0.00110989
*CONN
*P wdata[11] I
*I *3294:A I *D sky130_fd_sc_hd__clkbuf_1
*CAP
1 wdata[11] 0.000412087
2 *3294:A 0.000412087
3 *3294:A *3302:A 0
4 *3294:A *3306:A 0
5 *3294:A *790:12 0.000142856
6 *3294:A *1038:12 0.000142856
*RES
1 wdata[11] *3294:A 22.6571 
*END

*D_NET *99 0.00130809
*CONN
*P wdata[12] I
*I *3295:A I *D sky130_fd_sc_hd__clkbuf_1
*CAP
1 wdata[12] 0.000468853
2 *3295:A 0.000468853
3 *3295:A *3182:A 9.90367e-05
4 *3295:A *3309:A 0
5 *3295:A *1038:12 0.000271352
6 *3260:A *3295:A 0
*RES
1 wdata[12] *3295:A 23.8893 
*END

*D_NET *100 0.00109646
*CONN
*P wdata[13] I
*I *3296:A I *D sky130_fd_sc_hd__clkbuf_1
*CAP
1 wdata[13] 0.000548229
2 *3296:A 0.000548229
3 *3296:A *3303:A 0
4 awready *3296:A 0
*RES
1 wdata[13] *3296:A 24.4786 
*END

*D_NET *101 0.00110989
*CONN
*P wdata[14] I
*I *3298:A I *D sky130_fd_sc_hd__clkbuf_1
*CAP
1 wdata[14] 0.000412087
2 *3298:A 0.000412087
3 *3298:A *790:12 0.000142856
4 *3298:A *1038:12 0.000142856
5 *3264:A *3298:A 0
6 *3314:A *3298:A 0
*RES
1 wdata[14] *3298:A 22.6571 
*END

*D_NET *102 0.000915331
*CONN
*P wdata[15] I
*I *3299:A I *D sky130_fd_sc_hd__clkbuf_1
*CAP
1 wdata[15] 0.000402435
2 *3299:A 0.000402435
3 *3299:A *3305:A 0
4 *3299:A *3307:A 0
5 *3299:A *986:12 5.52302e-05
6 *3299:A *1038:12 5.52302e-05
*RES
1 wdata[15] *3299:A 21.8357 
*END

*D_NET *103 0.00111386
*CONN
*P wdata[1] I
*I *3300:A I *D sky130_fd_sc_hd__clkbuf_1
*CAP
1 wdata[1] 0.000556929
2 *3300:A 0.000556929
3 *3300:A wready 0
4 *3291:A *3300:A 0
*RES
1 wdata[1] *3300:A 24.4786 
*END

*D_NET *104 0.000924505
*CONN
*P wdata[2] I
*I *3301:A I *D sky130_fd_sc_hd__clkbuf_1
*CAP
1 wdata[2] 0.000407022
2 *3301:A 0.000407022
3 *3301:A *790:12 5.52302e-05
4 *3301:A *1038:12 5.52302e-05
5 rdata[12] *3301:A 0
6 *3314:A *3301:A 0
*RES
1 wdata[2] *3301:A 21.8357 
*END

*D_NET *105 0.000915331
*CONN
*P wdata[3] I
*I *3302:A I *D sky130_fd_sc_hd__clkbuf_1
*CAP
1 wdata[3] 0.000402435
2 *3302:A 0.000402435
3 *3302:A *790:12 5.52302e-05
4 *3302:A *1038:12 5.52302e-05
5 *3275:A *3302:A 0
6 *3294:A *3302:A 0
*RES
1 wdata[3] *3302:A 21.8357 
*END

*D_NET *106 0.00110101
*CONN
*P wdata[4] I
*I *3303:A I *D sky130_fd_sc_hd__clkbuf_1
*CAP
1 wdata[4] 0.000550504
2 *3303:A 0.000550504
3 *3303:A *3330:A 0
4 *3303:A *981:14 0
5 rresp *3303:A 0
6 *3296:A *3303:A 0
*RES
1 wdata[4] *3303:A 24.4786 
*END

*D_NET *107 0.000990337
*CONN
*P wdata[5] I
*I *3304:A I *D sky130_fd_sc_hd__buf_1
*CAP
1 wdata[5] 0.000495168
2 *3304:A 0.000495168
3 *3287:A *3304:A 0
4 *3288:A *3304:A 0
*RES
1 wdata[5] *3304:A 23.6571 
*END

*D_NET *108 0.000915331
*CONN
*P wdata[6] I
*I *3305:A I *D sky130_fd_sc_hd__clkbuf_1
*CAP
1 wdata[6] 0.000402435
2 *3305:A 0.000402435
3 *3305:A *986:12 5.52302e-05
4 *3305:A *1038:12 5.52302e-05
5 rdata[9] *3305:A 0
6 *3299:A *3305:A 0
*RES
1 wdata[6] *3305:A 21.8357 
*END

*D_NET *109 0.000915331
*CONN
*P wdata[7] I
*I *3306:A I *D sky130_fd_sc_hd__clkbuf_1
*CAP
1 wdata[7] 0.000402435
2 *3306:A 0.000402435
3 *3306:A *790:12 5.52302e-05
4 *3306:A *1038:12 5.52302e-05
5 *3258:A *3306:A 0
6 *3294:A *3306:A 0
*RES
1 wdata[7] *3306:A 21.8357 
*END

*D_NET *110 0.000908887
*CONN
*P wdata[8] I
*I *3307:A I *D sky130_fd_sc_hd__clkbuf_1
*CAP
1 wdata[8] 0.000399213
2 *3307:A 0.000399213
3 *3307:A *3309:A 0
4 *3307:A *986:12 5.52302e-05
5 *3307:A *1038:12 5.52302e-05
6 *3299:A *3307:A 0
*RES
1 wdata[8] *3307:A 21.8357 
*END

*D_NET *111 0.0012117
*CONN
*P wdata[9] I
*I *3309:A I *D sky130_fd_sc_hd__clkbuf_1
*CAP
1 wdata[9] 0.000432481
2 *3309:A 0.000432481
3 *3309:A *3182:A 1.52978e-05
4 *3309:A *986:12 0.000144773
5 *3309:A *1038:12 0.000186669
6 *3295:A *3309:A 0
7 *3307:A *3309:A 0
*RES
1 wdata[9] *3309:A 23.0679 
*END

*D_NET *112 0.00135829
*CONN
*P wlast I
*I *3310:A I *D sky130_fd_sc_hd__clkbuf_1
*CAP
1 wlast 0.000499263
2 *3310:A 0.000499263
3 *3310:A *976:12 8.07313e-05
4 *3114:A *3310:A 0.000279034
5 *3283:A *3310:A 0
6 *3285:A *3310:A 0
*RES
1 wlast *3310:A 25.8357 
*END

*D_NET *113 0.00109149
*CONN
*P wready O
*I *3332:X O *D sky130_fd_sc_hd__buf_2
*CAP
1 wready 0.000517171
2 *3332:X 0.000517171
3 wready *981:14 5.71472e-05
4 *3300:A wready 0
5 *3313:A wready 0
*RES
1 *3332:X wready 23.5857 
*END

*D_NET *114 0.000990337
*CONN
*P wvalid I
*I *3311:A I *D sky130_fd_sc_hd__buf_1
*CAP
1 wvalid 0.000495168
2 *3311:A 0.000495168
3 *3255:A *3311:A 0
4 *3297:A *3311:A 0
*RES
1 wvalid *3311:A 23.6571 
*END

*D_NET *115 0.00492001
*CONN
*I *2773:C I *D sky130_fd_sc_hd__and4b_1
*I *2767:A0 I *D sky130_fd_sc_hd__mux2_1
*I *2765:A I *D sky130_fd_sc_hd__nor2_1
*I *2770:B1 I *D sky130_fd_sc_hd__o2bb2a_1
*I *2459:B I *D sky130_fd_sc_hd__and2_1
*I *2768:A1 I *D sky130_fd_sc_hd__a21o_1
*I *3105:Q O *D sky130_fd_sc_hd__dfrtp_1
*CAP
1 *2773:C 0
2 *2767:A0 0
3 *2765:A 9.75557e-05
4 *2770:B1 0.000159236
5 *2459:B 0.000226138
6 *2768:A1 0
7 *3105:Q 0.000200503
8 *115:53 0.000195761
9 *115:51 0.000111206
10 *115:18 0.000358106
11 *115:12 0.00036607
12 *115:10 0.00028837
13 *2459:B *2460:A 7.07952e-05
14 *2459:B *2460:B 2.59355e-05
15 *2459:B *2676:A0 5.85558e-05
16 *2459:B *116:23 1.55885e-05
17 *2459:B *374:25 9.60875e-05
18 *2459:B *880:102 8.50152e-05
19 *2459:B *1009:22 0.000341632
20 *2765:A *2766:C1 0.000226513
21 *2765:A *2773:B 6.05161e-06
22 *2770:B1 *2674:A1 1.58163e-05
23 *2770:B1 *2767:S 0.000136951
24 *2770:B1 *2770:B2 1.39726e-05
25 *115:10 *2766:A2 6.29573e-05
26 *115:10 *2766:B2 0.000143188
27 *115:10 *2774:A1 9.33978e-07
28 *115:12 *2766:A2 7.91281e-05
29 *115:12 *2766:B2 0.000125724
30 *115:12 *1009:22 2.26424e-05
31 *115:18 *2674:A1 0.000197977
32 *115:18 *2766:A2 4.00025e-05
33 *115:18 *116:23 1.92905e-05
34 *115:18 *1009:22 0.000143288
35 *115:51 *2773:A_N 5.52238e-05
36 *115:51 *2773:B 2.14658e-05
37 *115:53 *2766:C1 8.30271e-05
38 *115:53 *2767:A1 4.87953e-05
39 *115:53 *2773:A_N 9.60939e-05
40 *115:53 *2773:B 8.18631e-05
41 *115:53 *2773:D 0.000170692
42 *3289:A *2770:B1 0.000431857
*RES
1 *3105:Q *115:10 17.1036 
2 *115:10 *115:12 2.25 
3 *115:12 *115:18 8.5 
4 *115:18 *2768:A1 9.3 
5 *115:18 *2459:B 24.5679 
6 *115:12 *2770:B1 18.0321 
7 *115:10 *115:51 5.03571 
8 *115:51 *115:53 3.41071 
9 *115:53 *2765:A 11.4786 
10 *115:53 *2767:A0 9.3 
11 *115:51 *2773:C 9.3 
*END

*D_NET *116 0.00324993
*CONN
*I *2773:D I *D sky130_fd_sc_hd__and4b_1
*I *2770:B2 I *D sky130_fd_sc_hd__o2bb2a_1
*I *2460:B I *D sky130_fd_sc_hd__and2_1
*I *2768:A2 I *D sky130_fd_sc_hd__a21o_1
*I *3249:A I *D sky130_fd_sc_hd__dlygate4sd3_1
*I *3106:Q O *D sky130_fd_sc_hd__dfrtp_1
*CAP
1 *2773:D 0.000130397
2 *2770:B2 0.00017073
3 *2460:B 6.6718e-05
4 *2768:A2 0
5 *3249:A 0.000234043
6 *3106:Q 0
7 *116:37 0.000364682
8 *116:23 0.000241263
9 *116:17 0.000343862
10 *116:4 0.000339805
11 *2460:B *3334:A 2.27416e-05
12 *2770:B2 *2767:S 9.60771e-05
13 *2773:D *2767:S 0.000170661
14 *2773:D *2773:A_N 5.21676e-05
15 *2773:D *2773:B 0.000170692
16 *2773:D *117:19 2.19778e-05
17 *2773:D *1007:22 2.04866e-05
18 *3249:A *2772:A1 3.18676e-05
19 *116:17 *2461:B 2.56601e-05
20 *116:17 *117:19 2.37761e-05
21 *116:17 *1007:22 8.06331e-05
22 *116:23 *2768:B1 0.00022266
23 *116:23 *742:6 7.48091e-05
24 *116:37 *117:19 4.03318e-05
25 *116:37 *1007:22 5.84075e-05
26 *2459:B *2460:B 2.59355e-05
27 *2459:B *116:23 1.55885e-05
28 *2770:B1 *2770:B2 1.39726e-05
29 *115:18 *116:23 1.92905e-05
30 *115:53 *2773:D 0.000170692
*RES
1 *3106:Q *116:4 9.3 
2 *116:4 *3249:A 13.0321 
3 *116:4 *116:17 6.44643 
4 *116:17 *116:23 8.33929 
5 *116:23 *2768:A2 9.3 
6 *116:23 *2460:B 10.6571 
7 *116:17 *116:37 1.64286 
8 *116:37 *2770:B2 15.9786 
9 *116:37 *2773:D 18.3134 
*END

*D_NET *117 0.00279997
*CONN
*I *2773:A_N I *D sky130_fd_sc_hd__and4b_1
*I *3246:A I *D sky130_fd_sc_hd__dlygate4sd3_1
*I *2461:B I *D sky130_fd_sc_hd__and2_1
*I *3107:Q O *D sky130_fd_sc_hd__dfrtp_1
*CAP
1 *2773:A_N 0.000188901
2 *3246:A 0
3 *2461:B 0.000243742
4 *3107:Q 4.16687e-05
5 *117:19 0.000289765
6 *117:8 0.000386274
7 *2461:B *2674:A0 8.00806e-05
8 *2461:B *2674:A1 1.41029e-05
9 *2461:B *2766:A2 0.00029513
10 *2461:B *374:10 1.02504e-05
11 *2461:B *374:25 0.000150625
12 *2461:B *965:33 0
13 *2461:B *1007:22 0
14 *2773:A_N *2766:A2 0.000215583
15 *2773:A_N *2766:C1 0.000265453
16 *2773:A_N *2767:S 0
17 *2773:A_N *1009:22 2.89114e-05
18 *117:8 *2768:B1 2.89016e-05
19 *117:19 *2766:A2 0.000245349
20 PADDR[0] *2461:B 0
21 *2773:D *2773:A_N 5.21676e-05
22 *2773:D *117:19 2.19778e-05
23 *115:51 *2773:A_N 5.52238e-05
24 *115:53 *2773:A_N 9.60939e-05
25 *116:17 *2461:B 2.56601e-05
26 *116:17 *117:19 2.37761e-05
27 *116:37 *117:19 4.03318e-05
*RES
1 *3107:Q *117:8 14.3357 
2 *117:8 *2461:B 20.3 
3 *117:8 *117:19 3.16071 
4 *117:19 *3246:A 13.8 
5 *117:19 *2773:A_N 19.2464 
*END

*D_NET *118 0.00125171
*CONN
*I *2475:A1 I *D sky130_fd_sc_hd__o22ai_2
*I *2845:Q O *D sky130_fd_sc_hd__dlxtn_1
*CAP
1 *2475:A1 0.000358359
2 *2845:Q 0.000358359
3 *2475:A1 *2467:A1 0.00015234
4 *2475:A1 *2467:A2 7.92829e-05
5 *2475:A1 *2467:B2 7.6021e-05
6 *2475:A1 *2596:A1 5.97411e-05
7 *2475:A1 *2596:A2 5.52302e-05
8 *2475:A1 *2845:D 0
9 *2475:A1 *631:28 5.52302e-05
10 *2475:A1 *856:38 5.71472e-05
*RES
1 *2845:Q *2475:A1 35.1714 
*END

*D_NET *119 0.000464334
*CONN
*I *2585:A1 I *D sky130_fd_sc_hd__o22ai_1
*I *2855:Q O *D sky130_fd_sc_hd__dlxtn_1
*CAP
1 *2585:A1 0.000151014
2 *2855:Q 0.000151014
3 *2585:A1 *2673:A1 9.90431e-05
4 *2585:A1 *620:18 6.32633e-05
5 *2585:A1 *809:35 0
*RES
1 *2855:Q *2585:A1 30.1893 
*END

*D_NET *120 0.000457994
*CONN
*I *2596:A1 I *D sky130_fd_sc_hd__o22ai_2
*I *2856:Q O *D sky130_fd_sc_hd__dlxtn_1
*CAP
1 *2596:A1 0.000127348
2 *2856:Q 0.000127348
3 *2596:A1 *2845:D 4.25974e-05
4 *2596:A1 *894:73 0.00010096
5 *2475:A1 *2596:A1 5.97411e-05
*RES
1 *2856:Q *2596:A1 30.1893 
*END

*D_NET *121 0.00100234
*CONN
*I *2607:A1 I *D sky130_fd_sc_hd__o22ai_2
*I *2857:Q O *D sky130_fd_sc_hd__dlxtn_1
*CAP
1 *2607:A1 0.000314468
2 *2857:Q 0.000314468
3 *2607:A1 *2509:A 0
4 *2607:A1 *2607:A2 1.04232e-05
5 *2607:A1 *2630:B 9.30251e-06
6 *2607:A1 *661:12 0.000353683
*RES
1 *2857:Q *2607:A1 23.1536 
*END

*D_NET *122 0.000269158
*CONN
*I *2618:A1 I *D sky130_fd_sc_hd__o22ai_2
*I *2858:Q O *D sky130_fd_sc_hd__dlxtn_1
*CAP
1 *2618:A1 0.00010923
2 *2858:Q 0.00010923
3 *2618:A1 *2618:B1 5.06983e-05
*RES
1 *2858:Q *2618:A1 20.6893 
*END

*D_NET *123 0.000943137
*CONN
*I *2629:A1 I *D sky130_fd_sc_hd__o22ai_2
*I *2859:Q O *D sky130_fd_sc_hd__dlxtn_1
*CAP
1 *2629:A1 0.000361525
2 *2859:Q 0.000361525
3 *2629:A1 *882:20 0.000220086
4 *2629:A1 *891:34 0
*RES
1 *2859:Q *2629:A1 33.8679 
*END

*D_NET *124 0.000843866
*CONN
*I *2640:A1 I *D sky130_fd_sc_hd__o22ai_2
*I *2860:Q O *D sky130_fd_sc_hd__dlxtn_1
*CAP
1 *2640:A1 0.00016035
2 *2860:Q 0.00016035
3 *2640:A1 *2860:GATE_N 0.00038907
4 *2640:A1 *882:20 0.000134095
*RES
1 *2860:Q *2640:A1 23.1536 
*END

*D_NET *125 0.000418583
*CONN
*I *2486:A1 I *D sky130_fd_sc_hd__o22ai_2
*I *2846:Q O *D sky130_fd_sc_hd__dlxtn_1
*CAP
1 *2486:A1 0.000121172
2 *2846:Q 0.000121172
3 *2486:A1 *2486:A2 5.52238e-05
4 *2486:A1 *2643:A 0
5 *2486:A1 *2807:GATE_N 6.21521e-06
6 *2486:A1 *531:10 0.0001148
*RES
1 *2846:Q *2486:A1 30.0821 
*END

*D_NET *126 0.000714753
*CONN
*I *2497:A1 I *D sky130_fd_sc_hd__o22ai_1
*I *2847:Q O *D sky130_fd_sc_hd__dlxtn_1
*CAP
1 *2497:A1 9.70754e-05
2 *2847:Q 9.70754e-05
3 *2497:A1 *2497:A2 0.000197727
4 *2497:A1 *2498:B 6.42696e-05
5 *2497:A1 *2644:B 0.000182875
6 *2497:A1 *521:26 7.57312e-05
*RES
1 *2847:Q *2497:A1 22.8679 
*END

*D_NET *127 0.000934135
*CONN
*I *2508:A1 I *D sky130_fd_sc_hd__o22ai_2
*I *2848:Q O *D sky130_fd_sc_hd__dlxtn_1
*CAP
1 *2508:A1 0.000165325
2 *2848:Q 0.000165325
3 *2508:A1 *2508:A2 9.60875e-05
4 *2508:A1 *551:12 4.72917e-05
5 *2508:A1 *861:58 6.12902e-05
6 *2508:A1 *894:130 0.000398815
*RES
1 *2848:Q *2508:A1 23.8857 
*END

*D_NET *128 0.000887599
*CONN
*I *2519:A1 I *D sky130_fd_sc_hd__o22ai_2
*I *2849:Q O *D sky130_fd_sc_hd__dlxtn_1
*CAP
1 *2519:A1 0.000129463
2 *2849:Q 0.000129463
3 *2519:A1 *2519:B2 6.09658e-05
4 *2519:A1 *561:20 0.000150072
5 *2519:A1 *839:43 0.000396886
6 *2519:A1 *931:48 2.07491e-05
*RES
1 *2849:Q *2519:A1 23.1536 
*END

*D_NET *129 0.000410472
*CONN
*I *2530:A1 I *D sky130_fd_sc_hd__o22ai_1
*I *2850:Q O *D sky130_fd_sc_hd__dlxtn_1
*CAP
1 *2530:A1 0.000131473
2 *2850:Q 0.000131473
3 *2530:A1 *2530:B1 2.44318e-05
4 *2530:A1 *561:20 1.33343e-05
5 *2530:A1 *571:8 7.90597e-05
6 *2530:A1 *865:10 3.07012e-05
*RES
1 *2850:Q *2530:A1 21.5107 
*END

*D_NET *130 0.0005479
*CONN
*I *2541:A1 I *D sky130_fd_sc_hd__o22ai_1
*I *2851:Q O *D sky130_fd_sc_hd__dlxtn_1
*CAP
1 *2541:A1 0.000194669
2 *2851:Q 0.000194669
3 *2541:A1 *531:37 7.77751e-05
4 *2541:A1 *581:12 8.07879e-05
5 *2541:A1 *885:118 0
6 *2541:A1 *931:87 0
*RES
1 *2851:Q *2541:A1 30.9036 
*END

*D_NET *131 0.00102067
*CONN
*I *2552:A1 I *D sky130_fd_sc_hd__o22ai_1
*I *2852:Q O *D sky130_fd_sc_hd__dlxtn_1
*CAP
1 *2552:A1 0.000193519
2 *2852:Q 0.000193519
3 *2552:A1 *2959:GATE_N 4.26495e-05
4 *2552:A1 *426:10 0.000342495
5 *2552:A1 *809:35 0.000248493
*RES
1 *2852:Q *2552:A1 32.9214 
*END

*D_NET *132 0.000997943
*CONN
*I *2563:A1 I *D sky130_fd_sc_hd__o22ai_1
*I *2853:Q O *D sky130_fd_sc_hd__dlxtn_1
*CAP
1 *2563:A1 0.000293193
2 *2853:Q 0.000293193
3 *2563:A1 *2562:A1 2.46318e-05
4 *2563:A1 *2562:C1 0.000216101
5 *2563:A1 *2563:A2 7.88765e-05
6 *2563:A1 *2650:B 6.05161e-06
7 *2563:A1 *581:12 0
8 *2563:A1 *809:35 8.5896e-05
*RES
1 *2853:Q *2563:A1 33.3321 
*END

*D_NET *133 0.00077061
*CONN
*I *2574:A1 I *D sky130_fd_sc_hd__o22ai_1
*I *2854:Q O *D sky130_fd_sc_hd__dlxtn_1
*CAP
1 *2574:A1 0.000178886
2 *2854:Q 0.000178886
3 *2574:A1 *2489:B1 2.44318e-05
4 *2574:A1 *631:28 0.000262682
5 *2574:A1 *882:28 0.000125724
*RES
1 *2854:Q *2574:A1 31.0107 
*END

*D_NET *134 0.000653708
*CONN
*I *2470:A1 I *D sky130_fd_sc_hd__a22o_1
*I *3005:Q O *D sky130_fd_sc_hd__dlxtn_1
*CAP
1 *2470:A1 0.000267442
2 *3005:Q 0.000267442
3 *2470:A1 *2470:B2 4.70193e-05
4 *2470:A1 *2471:C1 2.16315e-05
5 *2470:A1 *3007:D 1.83053e-05
6 *2470:A1 *3007:GATE_N 3.18676e-05
*RES
1 *3005:Q *2470:A1 31.725 
*END

*D_NET *135 0.000614774
*CONN
*I *2583:A1 I *D sky130_fd_sc_hd__a211o_1
*I *3015:Q O *D sky130_fd_sc_hd__dlxtn_1
*CAP
1 *2583:A1 0.000174832
2 *3015:Q 0.000174832
3 *2583:A1 *820:27 0.000128154
4 *2583:A1 *853:33 0.000136958
5 *2583:A1 *926:39 0
*RES
1 *3015:Q *2583:A1 30.6 
*END

*D_NET *136 0.000183555
*CONN
*I *2593:B2 I *D sky130_fd_sc_hd__a22o_1
*I *3016:Q O *D sky130_fd_sc_hd__dlxtn_1
*CAP
1 *2593:B2 3.49467e-05
2 *3016:Q 3.49467e-05
3 *2593:B2 *2593:B1 5.65145e-05
4 *2593:B2 *875:43 5.71472e-05
*RES
1 *3016:Q *2593:B2 19.8679 
*END

*D_NET *137 0.0009046
*CONN
*I *2604:B2 I *D sky130_fd_sc_hd__a22o_1
*I *3017:Q O *D sky130_fd_sc_hd__dlxtn_1
*CAP
1 *2604:B2 0.000219157
2 *3017:Q 0.000219157
3 *2604:B2 *2873:GATE_N 0.000219711
4 *2604:B2 *816:31 0.000123288
5 *2604:B2 *932:29 0.000123288
*RES
1 *3017:Q *2604:B2 31.4214 
*END

*D_NET *138 0.000685717
*CONN
*I *2614:A1 I *D sky130_fd_sc_hd__a211o_1
*I *3018:Q O *D sky130_fd_sc_hd__dlxtn_1
*CAP
1 *2614:A1 0.000149607
2 *3018:Q 0.000149607
3 *2614:A1 *2529:A 0.000139913
4 *2614:A1 *903:14 0.000123295
5 *2614:A1 *933:101 0.000123295
*RES
1 *3018:Q *2614:A1 30.6 
*END

*D_NET *139 0.000931627
*CONN
*I *2625:B2 I *D sky130_fd_sc_hd__a221o_1
*I *3019:Q O *D sky130_fd_sc_hd__dlxtn_1
*CAP
1 *2625:B2 0.000296845
2 *3019:Q 0.000296845
3 *2625:B2 *2625:A2 1.28809e-05
4 *2625:B2 *2625:B1 5.33882e-05
5 *2625:B2 *2626:A1 0.000126439
6 *2625:B2 *2875:D 7.61932e-05
7 *2625:B2 *2875:GATE_N 5.71472e-05
8 *2625:B2 *844:8 1.18881e-05
9 *2625:B2 *898:127 0
*RES
1 *3019:Q *2625:B2 32.3723 
*END

*D_NET *140 0.00174645
*CONN
*I *2635:B2 I *D sky130_fd_sc_hd__a22o_1
*I *3020:Q O *D sky130_fd_sc_hd__dlxtn_1
*CAP
1 *2635:B2 0.000343545
2 *3020:Q 0.000343545
3 *2635:B2 *2635:A1 6.05161e-06
4 *2635:B2 *2892:GATE_N 0.000493822
5 *2635:B2 *837:85 8.71847e-05
6 *2635:B2 *859:44 3.69047e-06
7 *2635:B2 *889:28 0.000184476
8 *2635:B2 *904:14 7.48091e-05
9 *2635:B2 *904:36 6.57032e-05
10 *2635:B2 *934:20 0.000143625
*RES
1 *3020:Q *2635:B2 37.5107 
*END

*D_NET *141 0.00179212
*CONN
*I *2477:A1 I *D sky130_fd_sc_hd__a22o_1
*I *3006:Q O *D sky130_fd_sc_hd__dlxtn_1
*CAP
1 *2477:A1 0.000417536
2 *3006:Q 0.000417536
3 *2477:A1 *837:39 0.00033763
4 *2477:A1 *874:25 0.000177815
5 *2477:A1 *874:38 0.000103977
6 *2477:A1 *908:12 0.00033763
*RES
1 *3006:Q *2477:A1 35.7964 
*END

*D_NET *142 0.00118389
*CONN
*I *2494:B2 I *D sky130_fd_sc_hd__a22o_1
*I *3007:Q O *D sky130_fd_sc_hd__dlxtn_1
*CAP
1 *2494:B2 0.000261798
2 *3007:Q 0.000261798
3 *2494:B2 *2471:A1 0.000148911
4 *2494:B2 *2471:A2 0
5 *2494:B2 *2471:B1 0.000175519
6 *2494:B2 *2494:B1 0.000165038
7 *2494:B2 *3007:D 5.87803e-05
8 *2494:B2 *871:10 2.16719e-05
9 *2494:B2 *871:12 9.03735e-05
*RES
1 *3007:Q *2494:B2 34.6357 
*END

*D_NET *143 0.000896252
*CONN
*I *2506:A1 I *D sky130_fd_sc_hd__a211o_1
*I *3008:Q O *D sky130_fd_sc_hd__dlxtn_1
*CAP
1 *2506:A1 0.000279932
2 *3008:Q 0.000279932
3 *2506:A1 *2504:B1 0
4 *2506:A1 *2504:B2 5.16396e-05
5 *2506:A1 *2504:C1 6.74911e-05
6 *2506:A1 *2506:B1 7.24849e-05
7 *2506:A1 *860:39 0.000144773
8 *2506:A1 *904:142 0
*RES
1 *3008:Q *2506:A1 33.3321 
*END

*D_NET *144 0.00127283
*CONN
*I *2515:B2 I *D sky130_fd_sc_hd__a22o_1
*I *3009:Q O *D sky130_fd_sc_hd__dlxtn_1
*CAP
1 *2515:B2 0.000148999
2 *3009:Q 0.000148999
3 *2515:B2 *2978:GATE_N 1.17968e-05
4 *2515:B2 *821:57 0.000177821
5 *2515:B2 *840:26 0.000152333
6 *2515:B2 *840:72 0.000161976
7 *2515:B2 *907:56 0.000470906
*RES
1 *3009:Q *2515:B2 33.4393 
*END

*D_NET *145 0.000375526
*CONN
*I *2525:B2 I *D sky130_fd_sc_hd__a22o_1
*I *3010:Q O *D sky130_fd_sc_hd__dlxtn_1
*CAP
1 *2525:B2 9.34367e-05
2 *3010:Q 9.34367e-05
3 *2525:B2 *2525:B1 5.33882e-05
4 *2525:B2 *3143:A 0
5 *2525:B2 *3144:A 0.000129868
6 *2525:B2 *821:26 5.39629e-06
*RES
1 *3010:Q *2525:B2 29.7786 
*END

*D_NET *146 0.000379272
*CONN
*I *2539:A1 I *D sky130_fd_sc_hd__a211o_1
*I *3011:Q O *D sky130_fd_sc_hd__dlxtn_1
*CAP
1 *2539:A1 0.00016064
2 *3011:Q 0.00016064
3 *2539:A1 *2539:C1 5.79914e-05
*RES
1 *3011:Q *2539:A1 21.225 
*END

*D_NET *147 0.000395012
*CONN
*I *2550:A1 I *D sky130_fd_sc_hd__a211o_1
*I *3012:Q O *D sky130_fd_sc_hd__dlxtn_1
*CAP
1 *2550:A1 0.000130813
2 *3012:Q 0.000130813
3 *2550:A1 *860:39 0.000133386
*RES
1 *3012:Q *2550:A1 21.225 
*END

*D_NET *148 0.0016829
*CONN
*I *2557:B2 I *D sky130_fd_sc_hd__a22o_1
*I *3013:Q O *D sky130_fd_sc_hd__dlxtn_1
*CAP
1 *2557:B2 0.000436387
2 *3013:Q 0.000436387
3 *2557:B2 *2557:A1 0.000127578
4 *2557:B2 *2997:GATE_N 0.00067567
5 *2557:B2 *816:14 6.87975e-06
6 *2557:B2 *906:12 0
7 *2557:B2 *906:112 0
*RES
1 *3013:Q *2557:B2 36.8321 
*END

*D_NET *149 0.000791764
*CONN
*I *2569:A1 I *D sky130_fd_sc_hd__a22o_1
*I *3014:Q O *D sky130_fd_sc_hd__dlxtn_1
*CAP
1 *2569:A1 0.000239461
2 *3014:Q 0.000239461
3 *2569:A1 *2570:C1 7.83587e-05
4 *2569:A1 *3030:D 0
5 *2569:A1 *855:20 4.58976e-05
6 *2569:A1 *855:24 0.000188586
*RES
1 *3014:Q *2569:A1 31.5286 
*END

*D_NET *150 0.00167379
*CONN
*I *2470:B2 I *D sky130_fd_sc_hd__a22o_1
*I *3021:Q O *D sky130_fd_sc_hd__dlxtn_1
*CAP
1 *2470:B2 0.000633259
2 *3021:Q 0.000633259
3 *2470:B2 *3021:D 0.000173959
4 *2470:B2 *816:53 5.10822e-05
5 *2470:B2 *875:77 0.000112855
6 *2470:B2 *875:79 2.23592e-05
7 *2470:A1 *2470:B2 4.70193e-05
*RES
1 *3021:Q *2470:B2 37.4393 
*END

*D_NET *151 0.00147131
*CONN
*I *2580:B2 I *D sky130_fd_sc_hd__a22o_1
*I *3031:Q O *D sky130_fd_sc_hd__dlxtn_1
*CAP
1 *2580:B2 0.000439721
2 *3031:Q 0.000439721
3 *2580:B2 *2580:A1 7.58079e-05
4 *2580:B2 *2985:D 9.11048e-06
5 *2580:B2 *3031:D 9.77423e-05
6 *2580:B2 *833:20 9.97164e-05
7 *2580:B2 *836:43 8.58981e-05
8 *2580:B2 *853:76 0.000223592
9 *2580:B2 *904:56 0
*RES
1 *3031:Q *2580:B2 37.1357 
*END

*D_NET *152 0.000983176
*CONN
*I *2591:B2 I *D sky130_fd_sc_hd__a22o_1
*I *3032:Q O *D sky130_fd_sc_hd__dlxtn_1
*CAP
1 *2591:B2 0.00039213
2 *3032:Q 0.00039213
3 *2591:B2 *2872:D 2.28598e-05
4 *2591:B2 *2902:GATE_N 7.6644e-05
5 *2591:B2 *2904:D 0
6 *2591:B2 *3030:GATE_N 2.46032e-05
7 *2591:B2 *3032:D 7.48091e-05
8 *2591:B2 *900:51 0
*RES
1 *3032:Q *2591:B2 33.0643 
*END

*D_NET *153 0.000373595
*CONN
*I *2605:A1 I *D sky130_fd_sc_hd__a211o_1
*I *3033:Q O *D sky130_fd_sc_hd__dlxtn_1
*CAP
1 *2605:A1 7.31671e-05
2 *3033:Q 7.31671e-05
3 *2605:A1 *2605:C1 2.89016e-05
4 *2605:A1 *2606:A 0
5 *2605:A1 *2606:B 0.000142482
6 *2605:A1 *898:22 5.58776e-05
*RES
1 *3033:Q *2605:A1 20.8991 
*END

*D_NET *154 0.000882346
*CONN
*I *2612:B2 I *D sky130_fd_sc_hd__a22o_1
*I *3034:Q O *D sky130_fd_sc_hd__dlxtn_1
*CAP
1 *2612:B2 0.000139042
2 *3034:Q 0.000139042
3 *2612:B2 *3318:A 0
4 *2612:B2 *905:16 0.00010326
5 *2612:B2 *905:97 0.000168939
6 *2612:B2 *928:12 0.000332064
*RES
1 *3034:Q *2612:B2 31.975 
*END

*D_NET *155 0.000387578
*CONN
*I *2627:A1 I *D sky130_fd_sc_hd__a211o_1
*I *3035:Q O *D sky130_fd_sc_hd__dlxtn_1
*CAP
1 *2627:A1 0.000166174
2 *3035:Q 0.000166174
3 *2627:A1 *2627:C1 5.52302e-05
*RES
1 *3035:Q *2627:A1 21.225 
*END

*D_NET *156 0.00101235
*CONN
*I *2637:B2 I *D sky130_fd_sc_hd__a22o_1
*I *3036:Q O *D sky130_fd_sc_hd__dlxtn_1
*CAP
1 *2637:B2 0.000274761
2 *3036:Q 0.000274761
3 *2637:B2 *2637:A1 7.35585e-05
4 *2637:B2 *3036:D 0.000140933
5 *2637:B2 *833:91 3.92757e-05
6 *2637:B2 *842:58 0.00012401
7 *2637:B2 *904:113 8.5048e-05
*RES
1 *3036:Q *2637:B2 33.3321 
*END

*D_NET *157 0.0016461
*CONN
*I *2477:B2 I *D sky130_fd_sc_hd__a22o_1
*I *3022:Q O *D sky130_fd_sc_hd__dlxtn_1
*CAP
1 *2477:B2 0.000387923
2 *3022:Q 0.000387923
3 *2477:B2 *3098:GATE_N 0.000104586
4 *2477:B2 *496:24 0.000229979
5 *2477:B2 *864:77 1.65169e-05
6 *2477:B2 *899:10 0.000519177
*RES
1 *3022:Q *2477:B2 36.1714 
*END

*D_NET *158 0.000441604
*CONN
*I *2495:A1 I *D sky130_fd_sc_hd__a211o_1
*I *3023:Q O *D sky130_fd_sc_hd__dlxtn_1
*CAP
1 *2495:A1 0.000165861
2 *3023:Q 0.000165861
3 *2495:A1 *2471:A2 0
4 *2495:A1 *2474:B 0
5 *2495:A1 *831:67 2.8266e-06
6 *2495:A1 *871:38 5.62995e-05
7 *2495:A1 *898:34 1.37861e-05
8 *2495:A1 *898:47 3.69697e-05
*RES
1 *3023:Q *2495:A1 30.1893 
*END

*D_NET *159 0.000903466
*CONN
*I *2504:B2 I *D sky130_fd_sc_hd__a221o_1
*I *3024:Q O *D sky130_fd_sc_hd__dlxtn_1
*CAP
1 *2504:B2 0.000298465
2 *3024:Q 0.000298465
3 *2504:B2 *2504:A1 7.70134e-06
4 *2504:B2 *2504:B1 0.000151333
5 *2504:B2 *2504:C1 1.02504e-05
6 *2504:B2 *2507:C 3.69047e-06
7 *2504:B2 *2551:A 2.87555e-06
8 *2504:B2 *2625:B1 1.32552e-05
9 *2504:B2 *900:116 4.3049e-05
10 *2504:B2 *932:132 2.27416e-05
11 *2506:A1 *2504:B2 5.16396e-05
*RES
1 *3024:Q *2504:B2 32.6759 
*END

*D_NET *160 0.000375665
*CONN
*I *2517:A1 I *D sky130_fd_sc_hd__a211o_1
*I *3025:Q O *D sky130_fd_sc_hd__dlxtn_1
*CAP
1 *2517:A1 0.000105832
2 *3025:Q 0.000105832
3 *2517:A1 *2517:A2 1.02504e-05
4 *2517:A1 *2517:B1 5.80706e-06
5 *2517:A1 *2517:C1 3.52562e-05
6 *2517:A1 *446:20 5.74562e-05
7 *2517:A1 *927:60 5.52302e-05
*RES
1 *3025:Q *2517:A1 29.7786 
*END

*D_NET *161 0.000389588
*CONN
*I *2527:B2 I *D sky130_fd_sc_hd__a22o_1
*I *3026:Q O *D sky130_fd_sc_hd__dlxtn_1
*CAP
1 *2527:B2 0.000186084
2 *3026:Q 0.000186084
3 *2527:B2 *2527:A2 0
4 *2527:B2 *2527:B1 4.6025e-06
5 *2527:B2 *2994:D 0
6 *2527:B2 *834:16 1.28171e-05
*RES
1 *3026:Q *2527:B2 30.0821 
*END

*D_NET *162 0.00242872
*CONN
*I *2536:B2 I *D sky130_fd_sc_hd__a22o_1
*I *3027:Q O *D sky130_fd_sc_hd__dlxtn_1
*CAP
1 *2536:B2 0.00105245
2 *3027:Q 0.00105245
3 *2536:B2 *2536:B1 5.38444e-06
4 *2536:B2 *2538:B2 5.65955e-05
5 *2536:B2 *2979:D 9.83388e-05
6 *2536:B2 *2979:GATE_N 2.59355e-05
7 *2536:B2 *818:10 0
8 *2536:B2 *862:40 0.000137561
*RES
1 *3027:Q *2536:B2 44.2429 
*END

*D_NET *163 0.000790972
*CONN
*I *2548:B2 I *D sky130_fd_sc_hd__a221o_1
*I *3028:Q O *D sky130_fd_sc_hd__dlxtn_1
*CAP
1 *2548:B2 0.00018371
2 *3028:Q 0.00018371
3 *2548:B2 *2548:A1 0.000103253
4 *2548:B2 *2548:C1 0.000128146
5 *2548:B2 *2582:B1 1.18064e-05
6 *2548:B2 *860:56 0.000180348
*RES
1 *3028:Q *2548:B2 31.1402 
*END

*D_NET *164 0.00122433
*CONN
*I *2559:A1 I *D sky130_fd_sc_hd__a211o_1
*I *3029:Q O *D sky130_fd_sc_hd__dlxtn_1
*CAP
1 *2559:A1 0.000226976
2 *3029:Q 0.000226976
3 *2559:A1 *2557:A2 6.69937e-05
4 *2559:A1 *2559:A2 0.000311406
5 *2559:A1 *575:20 0.00014183
6 *2559:A1 *906:112 0.000250145
*RES
1 *3029:Q *2559:A1 33.0286 
*END

*D_NET *165 0.000175678
*CONN
*I *2569:B2 I *D sky130_fd_sc_hd__a22o_1
*I *3030:Q O *D sky130_fd_sc_hd__dlxtn_1
*CAP
1 *2569:B2 5.04167e-05
2 *3030:Q 5.04167e-05
3 *2569:B2 *2569:B1 7.48444e-05
*RES
1 *3030:Q *2569:B2 19.8679 
*END

*D_NET *166 0.000477983
*CONN
*I *2469:A1 I *D sky130_fd_sc_hd__a221o_1
*I *3037:Q O *D sky130_fd_sc_hd__dlxtn_1
*CAP
1 *2469:A1 9.46736e-05
2 *3037:Q 9.46736e-05
3 *2469:A1 *2469:A2 1.02504e-05
4 *2469:A1 *2590:B1 7.25296e-05
5 *2469:A1 *2590:B2 5.52302e-05
6 *2469:A1 *914:32 0.000150625
*RES
1 *3037:Q *2469:A1 30.0821 
*END

*D_NET *167 0.000335661
*CONN
*I *2579:A1 I *D sky130_fd_sc_hd__a221o_1
*I *3047:Q O *D sky130_fd_sc_hd__dlxtn_1
*CAP
1 *2579:A1 0.00011255
2 *3047:Q 0.00011255
3 *2579:A1 *2579:A2 3.33238e-05
4 *2579:A1 *853:133 7.72379e-05
*RES
1 *3047:Q *2579:A1 20.7964 
*END

*D_NET *168 0.000834612
*CONN
*I *2587:A1 I *D sky130_fd_sc_hd__a22o_1
*I *3048:Q O *D sky130_fd_sc_hd__dlxtn_1
*CAP
1 *2587:A1 0.000140794
2 *3048:Q 0.000140794
3 *2587:A1 *2968:GATE_N 0
4 *2587:A1 *852:57 0.000218272
5 *2587:A1 *875:30 0.000334753
*RES
1 *3048:Q *2587:A1 31.975 
*END

*D_NET *169 0.0015383
*CONN
*I *2600:B2 I *D sky130_fd_sc_hd__a22o_1
*I *3049:Q O *D sky130_fd_sc_hd__dlxtn_1
*CAP
1 *2600:B2 0.000419631
2 *3049:Q 0.000419631
3 *2600:B2 *3155:A 0.000358977
4 *2600:B2 *3215:A 0
5 *2600:B2 *896:16 0.000340066
*RES
1 *3049:Q *2600:B2 35.3857 
*END

*D_NET *170 0.00132378
*CONN
*I *2611:B2 I *D sky130_fd_sc_hd__a22o_1
*I *3050:Q O *D sky130_fd_sc_hd__dlxtn_1
*CAP
1 *2611:B2 0.000430631
2 *3050:Q 0.000430631
3 *2611:B2 *2609:B2 6.34252e-05
4 *2611:B2 *834:76 0.00026353
5 *2611:B2 *847:27 9.99644e-06
6 *2611:B2 *887:47 0.000125567
*RES
1 *3050:Q *2611:B2 33.8857 
*END

*D_NET *171 0.000750884
*CONN
*I *2620:B2 I *D sky130_fd_sc_hd__a22o_1
*I *3051:Q O *D sky130_fd_sc_hd__dlxtn_1
*CAP
1 *2620:B2 0.000215018
2 *3051:Q 0.000215018
3 *2620:B2 *2620:A1 3.5707e-05
4 *2620:B2 *2620:A2 0
5 *2620:B2 *2620:B1 5.80706e-06
6 *2620:B2 *3045:GATE_N 2.42082e-05
7 *2620:B2 *805:20 0.000229456
8 *2620:B2 *811:14 2.56694e-05
*RES
1 *3051:Q *2620:B2 31.4214 
*END

*D_NET *172 0.000634581
*CONN
*I *2633:A1 I *D sky130_fd_sc_hd__a22o_1
*I *3052:Q O *D sky130_fd_sc_hd__dlxtn_1
*CAP
1 *2633:A1 8.30089e-05
2 *3052:Q 8.30089e-05
3 *2633:A1 *2633:A2 3.18676e-05
4 *2633:A1 *2634:C1 5.80706e-06
5 *2633:A1 *806:60 0.000105696
6 *2633:A1 *826:16 3.47561e-05
7 *2633:A1 *842:50 6.09804e-05
8 *2633:A1 *863:48 0.000229456
*RES
1 *3052:Q *2633:A1 31.1179 
*END

*D_NET *173 0.000403607
*CONN
*I *2482:A1 I *D sky130_fd_sc_hd__a22o_1
*I *3038:Q O *D sky130_fd_sc_hd__dlxtn_1
*CAP
1 *2482:A1 0.000176096
2 *3038:Q 0.000176096
3 *2482:A1 *2482:A2 1.04232e-05
4 *2482:A1 *2482:B2 2.89114e-05
5 *2482:A1 *808:66 1.20814e-05
*RES
1 *3038:Q *2482:A1 20.7964 
*END

*D_NET *174 0.000256778
*CONN
*I *2490:B2 I *D sky130_fd_sc_hd__a22o_1
*I *3039:Q O *D sky130_fd_sc_hd__dlxtn_1
*CAP
1 *2490:B2 7.28263e-05
2 *3039:Q 7.28263e-05
3 *2490:B2 *385:12 5.59013e-05
4 *2490:B2 *896:50 5.52238e-05
*RES
1 *3039:Q *2490:B2 28.8679 
*END

*D_NET *175 0.00137878
*CONN
*I *2499:B2 I *D sky130_fd_sc_hd__a22o_1
*I *3040:Q O *D sky130_fd_sc_hd__dlxtn_1
*CAP
1 *2499:B2 0.000381989
2 *3040:Q 0.000381989
3 *2499:B2 *2499:A1 3.87936e-05
4 *2499:B2 *2499:B1 5.62995e-05
5 *2499:B2 *2500:A1 0.0002
6 *2499:B2 *2500:A2 7.13226e-06
7 *2499:B2 *2500:B2 6.26774e-06
8 *2499:B2 *2508:B1 0.00017581
9 *2499:B2 *811:18 5.26224e-05
10 *2499:B2 *889:82 6.26376e-05
11 *2499:B2 *894:25 1.33434e-05
12 *2499:B2 *894:29 1.89507e-06
*RES
1 *3040:Q *2499:B2 36.5464 
*END

*D_NET *176 0.000805956
*CONN
*I *2510:B2 I *D sky130_fd_sc_hd__a22o_1
*I *3041:Q O *D sky130_fd_sc_hd__dlxtn_1
*CAP
1 *2510:B2 0.000226198
2 *3041:Q 0.000226198
3 *2510:B2 *2610:C1 0
4 *2510:B2 *498:10 1.15172e-05
5 *2510:B2 *565:20 4.46186e-06
6 *2510:B2 *839:10 6.05161e-06
7 *2510:B2 *866:8 1.69115e-05
8 *2510:B2 *897:84 4.70162e-05
9 *2510:B2 *897:109 1.31516e-05
10 *2510:B2 *923:32 0.000254449
*RES
1 *3041:Q *2510:B2 32.2071 
*END

*D_NET *177 0.000380174
*CONN
*I *2522:A1 I *D sky130_fd_sc_hd__a221o_1
*I *3042:Q O *D sky130_fd_sc_hd__dlxtn_1
*CAP
1 *2522:A1 9.64975e-05
2 *3042:Q 9.64975e-05
3 *2522:A1 *2522:B1 7.6644e-05
4 *2522:A1 *2522:C1 5.33882e-05
5 *2522:A1 *2523:A1 0
6 *2522:A1 *561:20 5.71472e-05
*RES
1 *3042:Q *2522:A1 29.475 
*END

*D_NET *178 0.00100603
*CONN
*I *2535:B2 I *D sky130_fd_sc_hd__a221o_1
*I *3043:Q O *D sky130_fd_sc_hd__dlxtn_1
*CAP
1 *2535:B2 0.000242989
2 *3043:Q 0.000242989
3 *2535:B2 *2535:A2 3.28686e-05
4 *2535:B2 *2535:B1 7.22462e-05
5 *2535:B2 *3043:D 0.000142856
6 *2535:B2 *575:20 0.000166426
7 *2535:B2 *863:48 0.000105656
*RES
1 *3043:Q *2535:B2 24.7964 
*END

*D_NET *179 0.00128455
*CONN
*I *2545:A1 I *D sky130_fd_sc_hd__a22o_1
*I *3044:Q O *D sky130_fd_sc_hd__dlxtn_1
*CAP
1 *2545:A1 0.000244291
2 *3044:Q 0.000244291
3 *2545:A1 *2507:A 3.67257e-05
4 *2545:A1 *889:34 0.00055977
5 *2545:A1 *896:20 0.000199477
*RES
1 *3044:Q *2545:A1 35.6536 
*END

*D_NET *180 0.00224209
*CONN
*I *2554:A1 I *D sky130_fd_sc_hd__a22o_1
*I *3045:Q O *D sky130_fd_sc_hd__dlxtn_1
*CAP
1 *2554:A1 0.000706874
2 *3045:Q 0.000706874
3 *2554:A1 *2554:A2 2.28834e-05
4 *2554:A1 *2555:C1 2.06112e-05
5 *2554:A1 *3045:GATE_N 7.39195e-05
6 *2554:A1 *3093:GATE_N 0.000108229
7 *2554:A1 *435:32 0.000292117
8 *2554:A1 *498:18 0.00016116
9 *2554:A1 *826:20 5.03772e-05
10 *2554:A1 *858:40 9.90431e-05
*RES
1 *3045:Q *2554:A1 39.5107 
*END

*D_NET *181 0.000582612
*CONN
*I *2565:A1 I *D sky130_fd_sc_hd__a22o_1
*I *3046:Q O *D sky130_fd_sc_hd__dlxtn_1
*CAP
1 *2565:A1 0.000151175
2 *3046:Q 0.000151175
3 *2565:A1 *390:10 1.80989e-05
4 *2565:A1 *882:28 0.000105726
5 *2565:A1 *891:34 0.000134233
6 *2565:A1 *990:12 2.22043e-05
*RES
1 *3046:Q *2565:A1 36.0754 
*END

*D_NET *182 0.00113901
*CONN
*I *2467:B2 I *D sky130_fd_sc_hd__a221o_1
*I *3053:Q O *D sky130_fd_sc_hd__dlxtn_1
*CAP
1 *2467:B2 0.000413441
2 *3053:Q 0.000413441
3 *2467:B2 *2845:D 5.03694e-05
4 *2467:B2 *2909:D 4.00205e-05
5 *2467:B2 *2909:GATE_N 9.60875e-05
6 *2467:B2 *838:61 1.28809e-05
7 *2467:B2 *882:36 2.38671e-05
8 *2467:B2 *894:73 1.28809e-05
9 *2475:A1 *2467:B2 7.6021e-05
*RES
1 *3053:Q *2467:B2 33.908 
*END

*D_NET *183 0.00106215
*CONN
*I *2578:B2 I *D sky130_fd_sc_hd__a22o_1
*I *3063:Q O *D sky130_fd_sc_hd__dlxtn_1
*CAP
1 *2578:B2 0.000292225
2 *3063:Q 0.000292225
3 *2578:B2 *2971:GATE_N 0.00014699
4 *2578:B2 *853:133 0.000315158
5 *2578:B2 *911:83 1.55475e-05
6 *2578:B2 *916:25 0
*RES
1 *3063:Q *2578:B2 32.5464 
*END

*D_NET *184 0.000398001
*CONN
*I *2587:B2 I *D sky130_fd_sc_hd__a22o_1
*I *3064:Q O *D sky130_fd_sc_hd__dlxtn_1
*CAP
1 *2587:B2 0.000133253
2 *3064:Q 0.000133253
3 *2587:B2 *852:57 7.62707e-05
4 *2587:B2 *871:92 5.52238e-05
*RES
1 *3064:Q *2587:B2 30.0821 
*END

*D_NET *185 0.000926543
*CONN
*I *2598:B2 I *D sky130_fd_sc_hd__a22o_1
*I *3065:Q O *D sky130_fd_sc_hd__dlxtn_1
*CAP
1 *2598:B2 0.000110251
2 *3065:Q 0.000110251
3 *2598:B2 *2561:B1 0.000317602
4 *2598:B2 *2853:GATE_N 0.000319323
5 *2598:B2 *2860:GATE_N 1.58163e-05
6 *2598:B2 *882:20 5.33005e-05
*RES
1 *3065:Q *2598:B2 32.2071 
*END

*D_NET *186 0.0017661
*CONN
*I *2610:B2 I *D sky130_fd_sc_hd__a221o_1
*I *3066:Q O *D sky130_fd_sc_hd__dlxtn_1
*CAP
1 *2610:B2 0.000462081
2 *3066:Q 0.000462081
3 *2610:B2 *2618:B1 9.10623e-05
4 *2610:B2 *2858:D 5.30637e-06
5 *2610:B2 *2938:GATE_N 2.89114e-05
6 *2610:B2 *812:47 0.000167096
7 *2610:B2 *839:27 9.71197e-05
8 *2610:B2 *839:31 5.6921e-05
9 *2610:B2 *847:88 4.51726e-05
10 *2610:B2 *866:16 0.000350346
11 *2610:B2 *923:32 0
*RES
1 *3066:Q *2610:B2 37.2295 
*END

*D_NET *187 0.000181697
*CONN
*I *2622:B2 I *D sky130_fd_sc_hd__a22o_1
*I *3067:Q O *D sky130_fd_sc_hd__dlxtn_1
*CAP
1 *2622:B2 5.62952e-05
2 *3067:Q 5.62952e-05
3 *2622:B2 *2622:A2 0
4 *2622:B2 *492:34 6.30551e-05
5 *2622:B2 *916:21 6.05161e-06
*RES
1 *3067:Q *2622:B2 19.8679 
*END

*D_NET *188 0.000709414
*CONN
*I *2633:B2 I *D sky130_fd_sc_hd__a22o_1
*I *3068:Q O *D sky130_fd_sc_hd__dlxtn_1
*CAP
1 *2633:B2 0.000244957
2 *3068:Q 0.000244957
3 *2633:B2 *435:32 0
4 *2633:B2 *439:30 0.000142856
5 *2633:B2 *598:26 7.6644e-05
6 *2633:B2 *826:16 0
*RES
1 *3068:Q *2633:B2 31.3143 
*END

*D_NET *189 0.00178716
*CONN
*I *2478:B2 I *D sky130_fd_sc_hd__a22o_1
*I *3054:Q O *D sky130_fd_sc_hd__dlxtn_1
*CAP
1 *2478:B2 0.000583314
2 *3054:Q 0.000583314
3 *2478:B2 *2478:A1 2.83284e-06
4 *2478:B2 *2479:C1 1.56051e-05
5 *2478:B2 *2555:A2 2.11419e-05
6 *2478:B2 *2643:A 0
7 *2478:B2 *2643:B 1.04114e-05
8 *2478:B2 *2807:D 7.4283e-05
9 *2478:B2 *2926:GATE_N 0.000216787
10 *2478:B2 *873:86 7.48091e-05
11 *2478:B2 *923:53 0.000204661
*RES
1 *3054:Q *2478:B2 39.5997 
*END

*D_NET *190 0.0011081
*CONN
*I *2489:B2 I *D sky130_fd_sc_hd__a221o_1
*I *3055:Q O *D sky130_fd_sc_hd__dlxtn_1
*CAP
1 *2489:B2 0.000341477
2 *3055:Q 0.000341477
3 *2489:B2 *2489:A1 0.00010172
4 *2489:B2 *2489:B1 0.000130197
5 *2489:B2 *2575:B 8.27803e-05
6 *2489:B2 *2927:D 5.52238e-05
7 *2489:B2 *827:160 5.52238e-05
*RES
1 *3055:Q *2489:B2 25.4616 
*END

*D_NET *191 0.000863302
*CONN
*I *2500:A1 I *D sky130_fd_sc_hd__a221o_1
*I *3056:Q O *D sky130_fd_sc_hd__dlxtn_1
*CAP
1 *2500:A1 0.000118943
2 *3056:Q 0.000118943
3 *2500:A1 *2499:A1 0.000312215
4 *2500:A1 *2499:A2 5.01117e-05
5 *2500:A1 *2500:A2 1.46576e-05
6 *2500:A1 *3046:GATE_N 4.84319e-05
7 *2499:B2 *2500:A1 0.0002
*RES
1 *3056:Q *2500:A1 31.9393 
*END

*D_NET *192 0.000947425
*CONN
*I *2512:B2 I *D sky130_fd_sc_hd__a22o_1
*I *3057:Q O *D sky130_fd_sc_hd__dlxtn_1
*CAP
1 *2512:B2 0.000263701
2 *3057:Q 0.000263701
3 *2512:B2 *2440:A 1.95045e-05
4 *2512:B2 *891:77 0.000105555
5 *2512:B2 *891:90 7.43578e-06
6 *2512:B2 *893:63 0.000122935
7 *2512:B2 *915:49 0.000135028
8 *2512:B2 *915:62 2.95641e-05
*RES
1 *3057:Q *2512:B2 31.8321 
*END

*D_NET *193 0.000731534
*CONN
*I *2522:B2 I *D sky130_fd_sc_hd__a221o_1
*I *3058:Q O *D sky130_fd_sc_hd__dlxtn_1
*CAP
1 *2522:B2 0.000273906
2 *3058:Q 0.000273906
3 *2522:B2 *2522:A2 0
4 *2522:B2 *2522:C1 0.000169911
5 *2522:B2 *2523:B1 1.38106e-05
6 *2522:B2 *865:60 0
*RES
1 *3058:Q *2522:B2 32.6402 
*END

*D_NET *194 0.00108809
*CONN
*I *2532:A1 I *D sky130_fd_sc_hd__a22o_1
*I *3059:Q O *D sky130_fd_sc_hd__dlxtn_1
*CAP
1 *2532:A1 0.000270735
2 *3059:Q 0.000270735
3 *2532:A1 *2532:A2 1.02504e-05
4 *2532:A1 *2533:C1 0.000160924
5 *2532:A1 *2930:GATE_N 0.000112926
6 *2532:A1 *448:45 1.72894e-05
7 *2532:A1 *828:37 7.38652e-05
8 *2532:A1 *839:60 0
9 *2532:A1 *863:14 0.000171368
*RES
1 *3059:Q *2532:A1 34.9393 
*END

*D_NET *195 0.000582867
*CONN
*I *2544:B2 I *D sky130_fd_sc_hd__a221o_1
*I *3060:Q O *D sky130_fd_sc_hd__dlxtn_1
*CAP
1 *2544:B2 0.00011551
2 *3060:Q 0.00011551
3 *2544:B2 *551:12 2.84269e-05
4 *2544:B2 *838:37 0.000146869
5 *2544:B2 *861:95 1.92789e-05
6 *2544:B2 *892:118 0.000143439
7 *2544:B2 *894:130 1.38323e-05
*RES
1 *3060:Q *2544:B2 30.3679 
*END

*D_NET *196 0.000917251
*CONN
*I *2561:A1 I *D sky130_fd_sc_hd__a22o_1
*I *3061:Q O *D sky130_fd_sc_hd__dlxtn_1
*CAP
1 *2561:A1 0.000215529
2 *3061:Q 0.000215529
3 *2561:A1 *2561:B1 5.19842e-06
4 *2561:A1 *2561:B2 0.000179745
5 *2561:A1 *3077:D 0.000150625
6 *2561:A1 *863:44 0.000150625
*RES
1 *3061:Q *2561:A1 31.725 
*END

*D_NET *197 0.000947401
*CONN
*I *2568:B2 I *D sky130_fd_sc_hd__a221o_1
*I *3062:Q O *D sky130_fd_sc_hd__dlxtn_1
*CAP
1 *2568:B2 0.000356537
2 *3062:Q 0.000356537
3 *2568:B2 *2568:A1 7.94256e-05
4 *2568:B2 *2568:B1 2.85616e-05
5 *2568:B2 *2568:C1 4.46186e-06
6 *2568:B2 *2669:A0 0
7 *2568:B2 *3164:A 0.00010096
8 *2568:B2 *385:12 6.87839e-06
9 *2568:B2 *630:20 1.40399e-05
10 *2568:B2 *809:72 0
*RES
1 *3062:Q *2568:B2 33.2071 
*END

*D_NET *198 0.000642087
*CONN
*I *2466:B2 I *D sky130_fd_sc_hd__a22o_1
*I *3069:Q O *D sky130_fd_sc_hd__dlxtn_1
*CAP
1 *2466:B2 0.000214331
2 *3069:Q 0.000214331
3 *2466:B2 *809:68 7.73758e-05
4 *2466:B2 *876:38 6.09889e-05
5 *2466:B2 *892:54 7.50601e-05
*RES
1 *3069:Q *2466:B2 31.3143 
*END

*D_NET *199 0.000241424
*CONN
*I *2577:B2 I *D sky130_fd_sc_hd__a221o_1
*I *3079:Q O *D sky130_fd_sc_hd__dlxtn_1
*CAP
1 *2577:B2 7.82668e-05
2 *3079:Q 7.82668e-05
3 *2577:B2 *2577:B1 2.47277e-05
4 *2577:B2 *2641:B 6.01627e-05
*RES
1 *3079:Q *2577:B2 20.533 
*END

*D_NET *200 0.00136919
*CONN
*I *2589:B2 I *D sky130_fd_sc_hd__a22o_1
*I *3080:Q O *D sky130_fd_sc_hd__dlxtn_1
*CAP
1 *2589:B2 0.000356002
2 *3080:Q 0.000356002
3 *2589:B2 *2589:A1 1.00375e-05
4 *2589:B2 *2589:B1 5.80706e-06
5 *2589:B2 *2590:B2 0.000128154
6 *2589:B2 *2590:C1 7.83659e-05
7 *2589:B2 *535:14 0.000434819
8 *2589:B2 *825:100 0
*RES
1 *3080:Q *2589:B2 33.475 
*END

*D_NET *201 0.000949103
*CONN
*I *2601:B2 I *D sky130_fd_sc_hd__a221o_1
*I *3081:Q O *D sky130_fd_sc_hd__dlxtn_1
*CAP
1 *2601:B2 0.000246657
2 *3081:Q 0.000246657
3 *2601:B2 *2601:A1 1.28809e-05
4 *2601:B2 *2601:B1 9.40095e-05
5 *2601:B2 *3155:A 0.000273269
6 *2601:B2 *825:12 0
7 *2601:B2 *829:32 1.52978e-05
8 *2601:B2 *829:36 5.10822e-05
9 *2601:B2 *892:150 9.25014e-06
*RES
1 *3081:Q *2601:B2 31.9616 
*END

*D_NET *202 0.00144231
*CONN
*I *2615:B2 I *D sky130_fd_sc_hd__a22o_1
*I *3082:Q O *D sky130_fd_sc_hd__dlxtn_1
*CAP
1 *2615:B2 0.000218652
2 *3082:Q 0.000218652
3 *2615:B2 *383:12 0.000503361
4 *2615:B2 *834:68 0.000501646
*RES
1 *3082:Q *2615:B2 34.4036 
*END

*D_NET *203 0.000925416
*CONN
*I *2623:B2 I *D sky130_fd_sc_hd__a221o_1
*I *3083:Q O *D sky130_fd_sc_hd__dlxtn_1
*CAP
1 *2623:B2 0.00017999
2 *3083:Q 0.00017999
3 *2623:B2 *2622:B1 0.000311392
4 *2623:B2 *2623:A2 1.46576e-05
5 *2623:B2 *2623:B1 0.000130304
6 *2623:B2 *655:16 4.15914e-05
7 *2623:B2 *916:23 6.74911e-05
*RES
1 *3083:Q *2623:B2 32.9571 
*END

*D_NET *204 0.00182166
*CONN
*I *2632:B2 I *D sky130_fd_sc_hd__a221o_1
*I *3084:Q O *D sky130_fd_sc_hd__dlxtn_1
*CAP
1 *2632:B2 0.000421789
2 *3084:Q 0.000421789
3 *2632:B2 *2632:A1 2.43046e-05
4 *2632:B2 *2632:C1 1.8791e-05
5 *2632:B2 *2634:A1 0.000123126
6 *2632:B2 *2634:A2 0.000167125
7 *2632:B2 *2639:A 0.000260002
8 *2632:B2 *842:10 5.45756e-05
9 *2632:B2 *842:50 4.35131e-05
10 *2632:B2 *843:27 0.000226507
11 *2632:B2 *859:30 2.85551e-05
12 *2632:B2 *891:34 3.15809e-05
*RES
1 *3084:Q *2632:B2 36.5643 
*END

*D_NET *205 0.000472362
*CONN
*I *2482:B2 I *D sky130_fd_sc_hd__a22o_1
*I *3070:Q O *D sky130_fd_sc_hd__dlxtn_1
*CAP
1 *2482:B2 0.000131826
2 *3070:Q 0.000131826
3 *2482:B2 *490:8 5.26091e-05
4 *2482:B2 *808:66 4.88631e-05
5 *2482:B2 *823:38 7.8327e-05
6 *2482:A1 *2482:B2 2.89114e-05
*RES
1 *3070:Q *2482:B2 30.9036 
*END

*D_NET *206 0.000835403
*CONN
*I *2491:B2 I *D sky130_fd_sc_hd__a221o_1
*I *3071:Q O *D sky130_fd_sc_hd__dlxtn_1
*CAP
1 *2491:B2 0.000246095
2 *3071:Q 0.000246095
3 *2491:B2 *2491:C1 1.02504e-05
4 *2491:B2 *2567:A2 5.41797e-05
5 *2491:B2 *535:14 0.000227539
6 *2491:B2 *809:68 2.8266e-06
7 *2491:B2 *872:42 3.82227e-06
8 *2491:B2 *911:95 4.45957e-05
*RES
1 *3071:Q *2491:B2 31.5509 
*END

*D_NET *207 0.000823618
*CONN
*I *2502:B2 I *D sky130_fd_sc_hd__a221o_1
*I *3072:Q O *D sky130_fd_sc_hd__dlxtn_1
*CAP
1 *2502:B2 0.000276403
2 *3072:Q 0.000276403
3 *2502:B2 *2502:A1 4.71848e-05
4 *2502:B2 *2502:C1 0.000147332
5 *2502:B2 *2507:A 1.28809e-05
6 *2502:B2 *2928:D 0
7 *2502:B2 *3177:A 5.71472e-05
8 *2502:B2 *861:58 6.26774e-06
9 *2502:B2 *916:27 0
*RES
1 *3072:Q *2502:B2 32.6402 
*END

*D_NET *208 0.000890059
*CONN
*I *2511:A1 I *D sky130_fd_sc_hd__a22o_1
*I *3073:Q O *D sky130_fd_sc_hd__dlxtn_1
*CAP
1 *2511:A1 0.000122834
2 *3073:Q 0.000122834
3 *2511:A1 *2610:A2 0.000325468
4 *2511:A1 *435:32 0.000285413
5 *2511:A1 *895:12 2.32591e-05
6 *2511:A1 *915:39 1.02504e-05
*RES
1 *3073:Q *2511:A1 31.975 
*END

*D_NET *209 0.000403216
*CONN
*I *2521:A1 I *D sky130_fd_sc_hd__a22o_1
*I *3074:Q O *D sky130_fd_sc_hd__dlxtn_1
*CAP
1 *2521:A1 0.000132616
2 *3074:Q 0.000132616
3 *2521:A1 *2521:A2 0.000137983
*RES
1 *3074:Q *2521:A1 20.7964 
*END

*D_NET *210 0.00112539
*CONN
*I *2532:B2 I *D sky130_fd_sc_hd__a22o_1
*I *3075:Q O *D sky130_fd_sc_hd__dlxtn_1
*CAP
1 *2532:B2 0.000174935
2 *3075:Q 0.000174935
3 *2532:B2 *2930:GATE_N 0.000236099
4 *2532:B2 *3091:GATE_N 0.000341788
5 *2532:B2 *531:37 9.60875e-05
6 *2532:B2 *828:37 0.000101545
*RES
1 *3075:Q *2532:B2 32.9214 
*END

*D_NET *211 0.00033105
*CONN
*I *2543:B2 I *D sky130_fd_sc_hd__a22o_1
*I *3076:Q O *D sky130_fd_sc_hd__dlxtn_1
*CAP
1 *2543:B2 3.8086e-05
2 *3076:Q 3.8086e-05
3 *2543:B2 *882:28 0.000127439
4 *2543:B2 *990:12 0.000127439
*RES
1 *3076:Q *2543:B2 29.2429 
*END

*D_NET *212 0.00104683
*CONN
*I *2561:B2 I *D sky130_fd_sc_hd__a22o_1
*I *3077:Q O *D sky130_fd_sc_hd__dlxtn_1
*CAP
1 *2561:B2 0.000224203
2 *3077:Q 0.000224203
3 *2561:B2 *2561:B1 1.15281e-05
4 *2561:B2 *2640:B1 0.00015234
5 *2561:B2 *2940:GATE_N 2.60984e-05
6 *2561:B2 *3077:D 7.80915e-05
7 *2561:B2 *3118:A 0.000150625
8 *2561:A1 *2561:B2 0.000179745
*RES
1 *3077:Q *2561:B2 33.1 
*END

*D_NET *213 0.000774744
*CONN
*I *2566:B2 I *D sky130_fd_sc_hd__a221o_1
*I *3078:Q O *D sky130_fd_sc_hd__dlxtn_1
*CAP
1 *2566:B2 0.000315076
2 *3078:Q 0.000315076
3 *2566:B2 *2488:B1 1.28809e-05
4 *2566:B2 *3055:GATE_N 9.72421e-05
5 *2566:B2 *390:10 0
6 *2566:B2 *872:42 3.06476e-05
7 *2566:B2 *909:73 3.82227e-06
*RES
1 *3078:Q *2566:B2 32.2652 
*END

*D_NET *214 0.000230968
*CONN
*I *2469:B2 I *D sky130_fd_sc_hd__a221o_1
*I *3085:Q O *D sky130_fd_sc_hd__dlxtn_1
*CAP
1 *2469:B2 8.99498e-05
2 *3085:Q 8.99498e-05
3 *2469:B2 *875:30 5.1068e-05
*RES
1 *3085:Q *2469:B2 20.533 
*END

*D_NET *215 0.00147264
*CONN
*I *2579:B2 I *D sky130_fd_sc_hd__a221o_1
*I *3095:Q O *D sky130_fd_sc_hd__dlxtn_1
*CAP
1 *2579:B2 0.000448896
2 *3095:Q 0.000448896
3 *2579:B2 *2579:B1 9.54798e-06
4 *2579:B2 *2579:C1 7.01788e-05
5 *2579:B2 *3162:A 0.000486447
6 *2579:B2 *853:133 8.67774e-06
7 *2579:B2 *896:20 0
*RES
1 *3095:Q *2579:B2 34.475 
*END

*D_NET *216 0.00270823
*CONN
*I *2590:B2 I *D sky130_fd_sc_hd__a221o_1
*I *3096:Q O *D sky130_fd_sc_hd__dlxtn_1
*CAP
1 *2590:B2 0.000819411
2 *3096:Q 0.000819411
3 *2590:B2 *2468:B2 0.000162618
4 *2590:B2 *2573:A 1.21289e-05
5 *2590:B2 *2589:B1 1.30604e-05
6 *2590:B2 *2590:B1 0.000141943
7 *2590:B2 *2590:C1 0.000186579
8 *2590:B2 *3160:A 0.000141204
9 *2590:B2 *3161:A 1.40399e-05
10 *2590:B2 *515:18 0.000115132
11 *2590:B2 *851:12 9.93178e-05
12 *2469:A1 *2590:B2 5.52302e-05
13 *2589:B2 *2590:B2 0.000128154
*RES
1 *3096:Q *2590:B2 43.2607 
*END

*D_NET *217 0.00143682
*CONN
*I *2599:B2 I *D sky130_fd_sc_hd__a221o_1
*I *3097:Q O *D sky130_fd_sc_hd__dlxtn_1
*CAP
1 *2599:B2 0.000257732
2 *3097:Q 0.000257732
3 *2599:B2 *2599:C1 5.82594e-05
4 *2599:B2 *809:35 0.000312137
5 *2599:B2 *883:57 0.000312137
6 *2599:B2 *914:117 7.50897e-05
7 *2599:B2 *914:128 0.000163737
*RES
1 *3097:Q *2599:B2 35.3857 
*END

*D_NET *218 0.000970389
*CONN
*I *2613:B2 I *D sky130_fd_sc_hd__a221o_1
*I *3098:Q O *D sky130_fd_sc_hd__dlxtn_1
*CAP
1 *2613:B2 0.000225009
2 *3098:Q 0.000225009
3 *2613:B2 *840:24 0.00022459
4 *2613:B2 *889:10 3.27359e-05
5 *2613:B2 *889:16 9.96264e-05
6 *2613:B2 *907:14 0.00012116
7 *2613:B2 *933:14 2.84269e-05
8 *2613:B2 *934:20 1.38323e-05
*RES
1 *3098:Q *2613:B2 31.7071 
*END

*D_NET *219 0.000720766
*CONN
*I *2621:B2 I *D sky130_fd_sc_hd__a221o_1
*I *3099:Q O *D sky130_fd_sc_hd__dlxtn_1
*CAP
1 *2621:B2 0.000172237
2 *3099:Q 0.000172237
3 *2621:B2 *2554:B1 1.12323e-05
4 *2621:B2 *838:14 0.000121573
5 *2621:B2 *853:133 7.70134e-06
6 *2621:B2 *889:94 1.28809e-05
7 *2621:B2 *889:98 8.78763e-05
8 *2621:B2 *914:107 0.000135028
*RES
1 *3099:Q *2621:B2 30.7295 
*END

*D_NET *220 0.000274067
*CONN
*I *2634:B2 I *D sky130_fd_sc_hd__a221o_1
*I *3100:Q O *D sky130_fd_sc_hd__dlxtn_1
*CAP
1 *2634:B2 9.57661e-05
2 *3100:Q 9.57661e-05
3 *2634:B2 *2631:B1 2.92346e-05
4 *2634:B2 *2634:C1 5.33005e-05
*RES
1 *3100:Q *2634:B2 20.533 
*END

*D_NET *221 0.000365945
*CONN
*I *2483:B2 I *D sky130_fd_sc_hd__a221o_1
*I *3086:Q O *D sky130_fd_sc_hd__dlxtn_1
*CAP
1 *2483:B2 4.30379e-05
2 *3086:Q 4.30379e-05
3 *2483:B2 *2483:A1 1.28809e-05
4 *2483:B2 *2484:B1 0.000125731
5 *2483:B2 *889:28 1.38106e-05
6 *2483:B2 *934:20 0.000127446
*RES
1 *3086:Q *2483:B2 29.3723 
*END

*D_NET *222 0.000358194
*CONN
*I *2488:B2 I *D sky130_fd_sc_hd__a22o_1
*I *3087:Q O *D sky130_fd_sc_hd__dlxtn_1
*CAP
1 *2488:B2 0.000115112
2 *3087:Q 0.000115112
3 *2488:B2 *2488:A1 5.26184e-05
4 *2488:B2 *838:39 5.26091e-05
5 *2488:B2 *872:49 2.27416e-05
*RES
1 *3087:Q *2488:B2 30.0821 
*END

*D_NET *223 0.000334261
*CONN
*I *2500:B2 I *D sky130_fd_sc_hd__a221o_1
*I *3088:Q O *D sky130_fd_sc_hd__dlxtn_1
*CAP
1 *2500:B2 7.23759e-05
2 *3088:Q 7.23759e-05
3 *2500:B2 *2500:C1 4.37992e-05
4 *2500:B2 *809:119 5.43539e-05
5 *2500:B2 *889:82 1.38106e-05
6 *2500:B2 *889:94 7.1278e-05
7 *2499:B2 *2500:B2 6.26774e-06
*RES
1 *3088:Q *2500:B2 29.6759 
*END

*D_NET *224 0.0010845
*CONN
*I *2511:B2 I *D sky130_fd_sc_hd__a22o_1
*I *3089:Q O *D sky130_fd_sc_hd__dlxtn_1
*CAP
1 *2511:B2 0.000351718
2 *3089:Q 0.000351718
3 *2511:B2 *2511:B1 9.71197e-05
4 *2511:B2 *435:32 0.000137983
5 *2511:B2 *498:18 4.15914e-05
6 *2511:B2 *864:51 5.71472e-05
7 *2511:B2 *893:52 1.0252e-05
8 *2511:B2 *895:12 3.69697e-05
*RES
1 *3089:Q *2511:B2 33.3321 
*END

*D_NET *225 0.000844827
*CONN
*I *2521:B2 I *D sky130_fd_sc_hd__a22o_1
*I *3090:Q O *D sky130_fd_sc_hd__dlxtn_1
*CAP
1 *2521:B2 0.000273418
2 *3090:Q 0.000273418
3 *2521:B2 *2521:B1 5.52238e-05
4 *2521:B2 *2522:B1 5.35423e-05
5 *2521:B2 *2930:D 2.27416e-05
6 *2521:B2 *3134:A 1.51501e-05
7 *2521:B2 *839:60 0.000151333
*RES
1 *3090:Q *2521:B2 32.2607 
*END

*D_NET *226 0.00105035
*CONN
*I *2533:B2 I *D sky130_fd_sc_hd__a221o_1
*I *3091:Q O *D sky130_fd_sc_hd__dlxtn_1
*CAP
1 *2533:B2 0.000325845
2 *3091:Q 0.000325845
3 *2533:B2 *2533:C1 0.000153563
4 *2533:B2 *2851:D 8.85712e-05
5 *2533:B2 *2860:GATE_N 8.21535e-05
6 *2533:B2 *448:45 6.26774e-06
7 *2533:B2 *839:60 6.81083e-05
*RES
1 *3091:Q *2533:B2 32.6759 
*END

*D_NET *227 0.000678521
*CONN
*I *2545:B2 I *D sky130_fd_sc_hd__a22o_1
*I *3092:Q O *D sky130_fd_sc_hd__dlxtn_1
*CAP
1 *2545:B2 0.000219272
2 *3092:Q 0.000219272
3 *2545:B2 *2916:GATE_N 9.33978e-07
4 *2545:B2 *3037:GATE_N 1.19309e-05
5 *2545:B2 *811:70 0
6 *2545:B2 *860:14 4.57538e-05
7 *2545:B2 *889:34 0.000181359
*RES
1 *3092:Q *2545:B2 32.5107 
*END

*D_NET *228 0.00209507
*CONN
*I *2554:B2 I *D sky130_fd_sc_hd__a22o_1
*I *3093:Q O *D sky130_fd_sc_hd__dlxtn_1
*CAP
1 *2554:B2 0.000743863
2 *3093:Q 0.000743863
3 *2554:B2 *2554:A2 6.8646e-06
4 *2554:B2 *2555:A1 7.6644e-05
5 *2554:B2 *2885:D 0.000113358
6 *2554:B2 *435:32 0.000122478
7 *2554:B2 *826:16 0
8 *2554:B2 *826:20 0.000110107
9 *2554:B2 *826:47 7.3679e-05
10 *2554:B2 *896:138 4.89867e-05
11 *2554:B2 *920:177 5.52238e-05
*RES
1 *3093:Q *2554:B2 47.1357 
*END

*D_NET *229 0.000174982
*CONN
*I *2565:B2 I *D sky130_fd_sc_hd__a22o_1
*I *3094:Q O *D sky130_fd_sc_hd__dlxtn_1
*CAP
1 *2565:B2 6.34224e-05
2 *3094:Q 6.34224e-05
3 *2565:B2 *2565:A2 1.98839e-05
4 *2565:B2 *2566:C1 0
5 *2565:B2 *856:55 1.24368e-05
6 *2565:B2 *909:73 1.58163e-05
*RES
1 *3094:Q *2565:B2 19.8679 
*END

*D_NET *230 0.000986564
*CONN
*I *2471:A1 I *D sky130_fd_sc_hd__a221o_1
*I *2861:Q O *D sky130_fd_sc_hd__dlxtn_1
*CAP
1 *2471:A1 0.000301445
2 *2861:Q 0.000301445
3 *2471:A1 *2494:B1 0.000150625
4 *2471:A1 *2861:GATE_N 1.32056e-05
5 *2471:A1 *2863:GATE_N 1.59373e-05
6 *2471:A1 *814:56 5.20829e-05
7 *2471:A1 *836:88 2.91207e-06
8 *2494:B2 *2471:A1 0.000148911
*RES
1 *2861:Q *2471:A1 32.5464 
*END

*D_NET *231 0.000449256
*CONN
*I *2581:A1 I *D sky130_fd_sc_hd__a221o_1
*I *2871:Q O *D sky130_fd_sc_hd__dlxtn_1
*CAP
1 *2581:A1 0.000210123
2 *2871:Q 0.000210123
3 *2581:A1 *2581:B1 2.27416e-05
4 *2581:A1 *2581:B2 6.26774e-06
*RES
1 *2871:Q *2581:A1 21.2071 
*END

*D_NET *232 0.00107478
*CONN
*I *2592:A1 I *D sky130_fd_sc_hd__a221o_1
*I *2872:Q O *D sky130_fd_sc_hd__dlxtn_1
*CAP
1 *2592:A1 0.00045617
2 *2872:Q 0.00045617
3 *2592:A1 *2591:A2 3.69697e-05
4 *2592:A1 *2592:B2 2.96348e-05
5 *2592:A1 *2592:C1 0
6 *2592:A1 *2902:GATE_N 1.69675e-05
7 *2592:A1 *3014:D 1.15172e-05
8 *2592:A1 *3014:GATE_N 1.21258e-05
9 *2592:A1 *3030:GATE_N 5.52238e-05
10 *2592:A1 *855:56 0
11 *2592:A1 *855:71 0
*RES
1 *2872:Q *2592:A1 33.9571 
*END

*D_NET *233 0.000476875
*CONN
*I *2604:A1 I *D sky130_fd_sc_hd__a22o_1
*I *2873:Q O *D sky130_fd_sc_hd__dlxtn_1
*CAP
1 *2604:A1 0.000162972
2 *2873:Q 0.000162972
3 *2604:A1 *2604:B1 0.000136958
4 *2604:A1 *926:37 1.39726e-05
*RES
1 *2873:Q *2604:A1 20.7964 
*END

*D_NET *234 0.00132762
*CONN
*I *2616:A1 I *D sky130_fd_sc_hd__a221o_1
*I *2874:Q O *D sky130_fd_sc_hd__dlxtn_1
*CAP
1 *2616:A1 0.000342392
2 *2874:Q 0.000342392
3 *2616:A1 *2897:GATE_N 1.33343e-05
4 *2616:A1 *3201:A 0.000100596
5 *2616:A1 *812:69 0.000316835
6 *2616:A1 *823:28 1.90111e-05
7 *2616:A1 *910:52 9.60939e-05
8 *2616:A1 *921:16 9.69712e-05
*RES
1 *2874:Q *2616:A1 33.7429 
*END

*D_NET *235 0.000469018
*CONN
*I *2625:A1 I *D sky130_fd_sc_hd__a221o_1
*I *2875:Q O *D sky130_fd_sc_hd__dlxtn_1
*CAP
1 *2625:A1 0.000104511
2 *2875:Q 0.000104511
3 *2625:A1 *2625:B1 0.000104974
4 *2625:A1 *2875:D 5.17614e-05
5 *2625:A1 *898:127 0.00010326
*RES
1 *2875:Q *2625:A1 29.8857 
*END

*D_NET *236 0.00137135
*CONN
*I *2637:A1 I *D sky130_fd_sc_hd__a22o_1
*I *2876:Q O *D sky130_fd_sc_hd__dlxtn_1
*CAP
1 *2637:A1 0.000430113
2 *2876:Q 0.000430113
3 *2637:A1 *2635:A1 9.25014e-06
4 *2637:A1 *2636:B1 8.07879e-05
5 *2637:A1 *2636:B2 6.41364e-05
6 *2637:A1 *2638:C1 9.44415e-05
7 *2637:A1 *3219:A 0
8 *2637:A1 *842:58 7.91008e-05
9 *2637:A1 *842:72 9.60337e-06
10 *2637:A1 *842:98 0.000100249
11 *2637:A1 *904:113 0
12 *2637:B2 *2637:A1 7.35585e-05
*RES
1 *2876:Q *2637:A1 36.4571 
*END

*D_NET *237 0.000755173
*CONN
*I *2479:A1 I *D sky130_fd_sc_hd__a221o_1
*I *2862:Q O *D sky130_fd_sc_hd__dlxtn_1
*CAP
1 *2479:A1 0.000233269
2 *2862:Q 0.000233269
3 *2479:A1 *2479:A2 3.4792e-05
4 *2479:A1 *2486:B1 0.000139913
5 *2479:A1 *2535:A2 0.000113929
*RES
1 *2862:Q *2479:A1 22.85 
*END

*D_NET *238 0.000958256
*CONN
*I *2494:A1 I *D sky130_fd_sc_hd__a22o_1
*I *2863:Q O *D sky130_fd_sc_hd__dlxtn_1
*CAP
1 *2494:A1 0.000249584
2 *2863:Q 0.000249584
3 *2494:A1 *2471:A2 0.000125724
4 *2494:A1 *2494:B1 0.000289564
5 *2494:A1 *814:56 4.37999e-05
6 *2494:A1 *831:67 0
*RES
1 *2863:Q *2494:A1 32.725 
*END

*D_NET *239 0.000425357
*CONN
*I *2505:A1 I *D sky130_fd_sc_hd__a22o_1
*I *2864:Q O *D sky130_fd_sc_hd__dlxtn_1
*CAP
1 *2505:A1 0.000190911
2 *2864:Q 0.000190911
3 *2505:A1 *2505:B1 2.27416e-05
4 *2505:A1 *926:88 2.07937e-05
*RES
1 *2864:Q *2505:A1 21.2071 
*END

*D_NET *240 0.000829682
*CONN
*I *2516:A1 I *D sky130_fd_sc_hd__a221o_1
*I *2865:Q O *D sky130_fd_sc_hd__dlxtn_1
*CAP
1 *2516:A1 0.000252003
2 *2865:Q 0.000252003
3 *2516:A1 *2516:B2 7.83174e-05
4 *2516:A1 *3034:D 3.69047e-06
5 *2516:A1 *815:14 3.14078e-05
6 *2516:A1 *815:20 5.76121e-05
7 *2516:A1 *819:46 0.000148903
8 *2516:A1 *867:76 5.74499e-06
*RES
1 *2865:Q *2516:A1 32.1357 
*END

*D_NET *241 0.000487336
*CONN
*I *2526:A1 I *D sky130_fd_sc_hd__a221o_1
*I *2866:Q O *D sky130_fd_sc_hd__dlxtn_1
*CAP
1 *2526:A1 0.000212462
2 *2866:Q 0.000212462
3 *2526:A1 *2526:B2 6.26774e-06
4 *2526:A1 *2528:A1 4.15089e-05
5 *2526:A1 *2528:C1 1.3701e-05
6 *2526:A1 *832:60 9.33978e-07
*RES
1 *2866:Q *2526:A1 21.2071 
*END

*D_NET *242 0.00140006
*CONN
*I *2536:A1 I *D sky130_fd_sc_hd__a22o_1
*I *2867:Q O *D sky130_fd_sc_hd__dlxtn_1
*CAP
1 *2536:A1 0.000577906
2 *2867:Q 0.000577906
3 *2536:A1 *2538:B2 0.00011955
4 *2536:A1 *2602:A2 6.30641e-05
5 *2536:A1 *3142:A 0
6 *2536:A1 *817:49 1.94056e-05
7 *2536:A1 *862:66 0
8 *2536:A1 *862:72 1.77749e-05
9 *2536:A1 *862:83 2.44541e-05
*RES
1 *2867:Q *2536:A1 36.0286 
*END

*D_NET *243 0.000924593
*CONN
*I *2548:A1 I *D sky130_fd_sc_hd__a221o_1
*I *2868:Q O *D sky130_fd_sc_hd__dlxtn_1
*CAP
1 *2548:A1 0.00015844
2 *2868:Q 0.00015844
3 *2548:A1 *2548:B1 2.59355e-05
4 *2548:A1 *2548:C1 1.17921e-05
5 *2548:A1 *2582:B1 0.000291851
6 *2548:A1 *2896:GATE_N 4.50149e-05
7 *2548:A1 *831:114 0.000129868
8 *2548:B2 *2548:A1 0.000103253
*RES
1 *2868:Q *2548:A1 32.3143 
*END

*D_NET *244 0.000567183
*CONN
*I *2558:A1 I *D sky130_fd_sc_hd__a221o_1
*I *2869:Q O *D sky130_fd_sc_hd__dlxtn_1
*CAP
1 *2558:A1 0.000180393
2 *2869:Q 0.000180393
3 *2558:A1 *2558:A2 0.000103643
4 *2558:A1 *2603:B1 9.67025e-05
5 *2558:A1 *580:22 6.05161e-06
*RES
1 *2869:Q *2558:A1 30.2964 
*END

*D_NET *245 0.000718363
*CONN
*I *2571:A1 I *D sky130_fd_sc_hd__a22o_1
*I *2870:Q O *D sky130_fd_sc_hd__dlxtn_1
*CAP
1 *2571:A1 0.000160907
2 *2870:Q 0.000160907
3 *2571:A1 *2571:B1 1.02504e-05
4 *2571:A1 *2571:B2 4.75521e-05
5 *2571:A1 *920:31 0.000338746
*RES
1 *2870:Q *2571:A1 31.975 
*END

*D_NET *246 0.00173268
*CONN
*I *2472:A1 I *D sky130_fd_sc_hd__a22o_1
*I *2877:Q O *D sky130_fd_sc_hd__dlxtn_1
*CAP
1 *2472:A1 0.000400535
2 *2877:Q 0.000400535
3 *2472:A1 *2472:B1 0.000371761
4 *2472:A1 *2472:B2 5.5319e-05
5 *2472:A1 *2879:D 4.44964e-05
6 *2472:A1 *2879:GATE_N 2.78576e-05
7 *2472:A1 *2975:GATE_N 0.000191969
8 *2472:A1 *871:118 0.000230854
9 *2472:A1 *875:62 0
10 *2472:A1 *875:110 9.35114e-06
*RES
1 *2877:Q *2472:A1 36.7607 
*END

*D_NET *247 0.000377807
*CONN
*I *2582:A1 I *D sky130_fd_sc_hd__a22o_1
*I *2887:Q O *D sky130_fd_sc_hd__dlxtn_1
*CAP
1 *2582:A1 0.00012691
2 *2887:Q 0.00012691
3 *2582:A1 *2582:B1 5.52302e-05
4 *2582:A1 *853:37 6.87574e-05
*RES
1 *2887:Q *2582:A1 21.225 
*END

*D_NET *248 0.000932764
*CONN
*I *2593:A1 I *D sky130_fd_sc_hd__a22o_1
*I *2888:Q O *D sky130_fd_sc_hd__dlxtn_1
*CAP
1 *2593:A1 0.000257294
2 *2888:Q 0.000257294
3 *2593:A1 *2496:A 0.00010096
4 *2593:A1 *2572:C1 4.03202e-05
5 *2593:A1 *2593:A2 1.02504e-05
6 *2593:A1 *2982:GATE_N 0.000196276
7 *2593:A1 *818:100 0
8 *2593:A1 *932:85 7.0368e-05
*RES
1 *2888:Q *2593:A1 32.9214 
*END

*D_NET *249 0.000370431
*CONN
*I *2602:A1 I *D sky130_fd_sc_hd__a22o_1
*I *2889:Q O *D sky130_fd_sc_hd__dlxtn_1
*CAP
1 *2602:A1 0.000103211
2 *2889:Q 0.000103211
3 *2602:A1 *2602:B1 2.84109e-05
4 *2602:A1 *2602:B2 5.65955e-05
5 *2602:A1 *817:49 2.57017e-05
6 *2602:A1 *831:162 5.33005e-05
*RES
1 *2889:Q *2602:A1 20.7964 
*END

*D_NET *250 0.00039186
*CONN
*I *2609:A1 I *D sky130_fd_sc_hd__a22o_1
*I *2890:Q O *D sky130_fd_sc_hd__dlxtn_1
*CAP
1 *2609:A1 8.97118e-05
2 *2890:Q 8.97118e-05
3 *2609:A1 *2807:GATE_N 1.90936e-05
4 *2609:A1 *485:10 3.83576e-05
5 *2609:A1 *897:84 0.000154985
*RES
1 *2890:Q *2609:A1 29.475 
*END

*D_NET *251 0.0013205
*CONN
*I *2626:A1 I *D sky130_fd_sc_hd__a22o_1
*I *2891:Q O *D sky130_fd_sc_hd__dlxtn_1
*CAP
1 *2626:A1 0.000328955
2 *2891:Q 0.000328955
3 *2626:A1 *2606:A 5.33005e-05
4 *2626:A1 *2625:A2 5.33005e-05
5 *2626:A1 *2625:B1 9.32005e-05
6 *2626:A1 *2627:B1 6.19181e-05
7 *2626:A1 *2627:C1 7.76152e-05
8 *2626:A1 *833:101 7.6644e-05
9 *2626:A1 *889:28 0.000120171
10 *2625:B2 *2626:A1 0.000126439
*RES
1 *2891:Q *2626:A1 35.5464 
*END

*D_NET *252 0.0016398
*CONN
*I *2636:A1 I *D sky130_fd_sc_hd__a221o_1
*I *2892:Q O *D sky130_fd_sc_hd__dlxtn_1
*CAP
1 *2636:A1 0.000497685
2 *2892:Q 0.000497685
3 *2636:A1 *2636:B1 2.89114e-05
4 *2636:A1 *2636:C1 1.76039e-05
5 *2636:A1 *2638:B1 6.25007e-05
6 *2636:A1 *2639:B 0
7 *2636:A1 *2639:C 3.92854e-05
8 *2636:A1 *2901:GATE_N 0.00031119
9 *2636:A1 *2908:GATE_N 1.39726e-05
10 *2636:A1 *3043:GATE_N 0.000108538
11 *2636:A1 *805:84 6.24302e-05
*RES
1 *2892:Q *2636:A1 36.225 
*END

*D_NET *253 0.00150961
*CONN
*I *2480:A1 I *D sky130_fd_sc_hd__a22o_1
*I *2878:Q O *D sky130_fd_sc_hd__dlxtn_1
*CAP
1 *2480:A1 0.000418314
2 *2878:Q 0.000418314
3 *2480:A1 *3070:GATE_N 6.12754e-05
4 *2480:A1 *915:16 0.000120011
5 *2480:A1 *915:39 5.52238e-05
6 *2480:A1 *921:41 0.000181803
7 *2480:A1 *923:66 0.000201362
8 *2480:A1 *923:72 5.33005e-05
*RES
1 *2878:Q *2480:A1 27.8321 
*END

*D_NET *254 0.000484051
*CONN
*I *2493:A1 I *D sky130_fd_sc_hd__a221o_1
*I *2879:Q O *D sky130_fd_sc_hd__dlxtn_1
*CAP
1 *2493:A1 0.000202247
2 *2879:Q 0.000202247
3 *2493:A1 *2493:B2 6.26774e-06
4 *2493:A1 *875:43 7.32886e-05
*RES
1 *2879:Q *2493:A1 21.2071 
*END

*D_NET *255 0.000748792
*CONN
*I *2503:A1 I *D sky130_fd_sc_hd__a22o_1
*I *2880:Q O *D sky130_fd_sc_hd__dlxtn_1
*CAP
1 *2503:A1 0.000291463
2 *2880:Q 0.000291463
3 *2503:A1 *3008:GATE_N 3.18676e-05
4 *2503:A1 *869:16 1.39726e-05
5 *2503:A1 *869:51 4.16984e-05
6 *2503:A1 *904:142 0
7 *2503:A1 *906:16 7.8327e-05
*RES
1 *2880:Q *2503:A1 31.725 
*END

*D_NET *256 0.000288539
*CONN
*I *2510:A1 I *D sky130_fd_sc_hd__a22o_1
*I *2881:Q O *D sky130_fd_sc_hd__dlxtn_1
*CAP
1 *2510:A1 3.77125e-05
2 *2881:Q 3.77125e-05
3 *2510:A1 *2610:C1 0.00010219
4 *2510:A1 *897:84 0.000100673
5 *2510:A1 *897:109 1.02504e-05
*RES
1 *2881:Q *2510:A1 28.9393 
*END

*D_NET *257 0.0007337
*CONN
*I *2526:B2 I *D sky130_fd_sc_hd__a221o_1
*I *2882:Q O *D sky130_fd_sc_hd__dlxtn_1
*CAP
1 *2526:B2 0.000262281
2 *2882:Q 0.000262281
3 *2526:B2 *2526:C1 1.02504e-05
4 *2526:B2 *2527:A2 0.00012401
5 *2526:B2 *2528:A1 1.38106e-05
6 *2526:B2 *834:16 5.48009e-05
7 *2526:A1 *2526:B2 6.26774e-06
*RES
1 *2882:Q *2526:B2 31.5509 
*END

*D_NET *258 0.000499136
*CONN
*I *2537:A1 I *D sky130_fd_sc_hd__a221o_1
*I *2883:Q O *D sky130_fd_sc_hd__dlxtn_1
*CAP
1 *2537:A1 9.37949e-05
2 *2883:Q 9.37949e-05
3 *2537:A1 *2537:A2 1.85392e-05
4 *2537:A1 *2537:B1 5.38016e-05
5 *2537:A1 *2537:B2 2.85551e-05
6 *2537:A1 *2537:C1 8.58191e-05
7 *2537:A1 *2602:A2 3.44999e-05
8 *2537:A1 *2883:GATE_N 3.08664e-05
9 *2537:A1 *834:31 5.94646e-05
*RES
1 *2883:Q *2537:A1 21.7473 
*END

*D_NET *259 0.00135333
*CONN
*I *2547:A1 I *D sky130_fd_sc_hd__a22o_1
*I *2884:Q O *D sky130_fd_sc_hd__dlxtn_1
*CAP
1 *2547:A1 0.000365081
2 *2884:Q 0.000365081
3 *2547:A1 *2868:GATE_N 3.63298e-05
4 *2547:A1 *836:60 5.20751e-05
5 *2547:A1 *904:56 5.65955e-05
6 *2547:A1 *904:64 0.000478168
*RES
1 *2884:Q *2547:A1 35.5821 
*END

*D_NET *260 0.00096968
*CONN
*I *2555:A1 I *D sky130_fd_sc_hd__a221o_1
*I *2885:Q O *D sky130_fd_sc_hd__dlxtn_1
*CAP
1 *2555:A1 0.000318976
2 *2885:Q 0.000318976
3 *2555:A1 *2555:A2 9.54798e-06
4 *2555:A1 *2555:B1 9.54798e-06
5 *2555:A1 *2555:B2 3.08353e-05
6 *2555:A1 *2885:D 3.14783e-05
7 *2555:A1 *2949:D 2.47697e-05
8 *2555:A1 *809:165 7.20669e-05
9 *2555:A1 *858:46 2.47697e-05
10 *2555:A1 *896:138 5.20692e-05
11 *2554:B2 *2555:A1 7.6644e-05
*RES
1 *2885:Q *2555:A1 33.4393 
*END

*D_NET *261 0.00028376
*CONN
*I *2571:B2 I *D sky130_fd_sc_hd__a22o_1
*I *2886:Q O *D sky130_fd_sc_hd__dlxtn_1
*CAP
1 *2571:B2 0.000115201
2 *2886:Q 0.000115201
3 *2571:B2 *2571:B1 5.80706e-06
4 *2571:B2 *904:142 0
5 *2571:A1 *2571:B2 4.75521e-05
*RES
1 *2886:Q *2571:B2 29.5464 
*END

*D_NET *262 0.000362007
*CONN
*I *2471:B2 I *D sky130_fd_sc_hd__a221o_1
*I *2893:Q O *D sky130_fd_sc_hd__dlxtn_1
*CAP
1 *2471:B2 0.000109042
2 *2893:Q 0.000109042
3 *2471:B2 *2471:A2 0
4 *2471:B2 *3021:GATE_N 2.84026e-05
5 *2471:B2 *831:67 4.79137e-05
6 *2471:B2 *871:38 1.26529e-05
7 *2471:B2 *875:62 5.49544e-05
*RES
1 *2893:Q *2471:B2 20.9438 
*END

*D_NET *263 0.000641563
*CONN
*I *2581:B2 I *D sky130_fd_sc_hd__a221o_1
*I *2903:Q O *D sky130_fd_sc_hd__dlxtn_1
*CAP
1 *2581:B2 0.000243815
2 *2903:Q 0.000243815
3 *2581:B2 *2581:C1 1.02504e-05
4 *2581:B2 *853:61 6.72779e-05
5 *2581:B2 *904:56 7.01378e-05
6 *2581:B2 *922:32 0
7 *2581:A1 *2581:B2 6.26774e-06
*RES
1 *2903:Q *2581:B2 31.4438 
*END

*D_NET *264 0.000413664
*CONN
*I *2591:A1 I *D sky130_fd_sc_hd__a22o_1
*I *2904:Q O *D sky130_fd_sc_hd__dlxtn_1
*CAP
1 *2591:A1 5.92371e-05
2 *2904:Q 5.92371e-05
3 *2591:A1 *2569:A2 0.000188586
4 *2591:A1 *2569:B1 1.32552e-05
5 *2591:A1 *3030:GATE_N 3.57366e-05
6 *2591:A1 *898:66 5.76121e-05
*RES
1 *2904:Q *2591:A1 21.1 
*END

*D_NET *265 0.000586815
*CONN
*I *2603:A1 I *D sky130_fd_sc_hd__a221o_1
*I *2905:Q O *D sky130_fd_sc_hd__dlxtn_1
*CAP
1 *2603:A1 0.000194311
2 *2905:Q 0.000194311
3 *2603:A1 *2603:C1 5.33786e-05
4 *2603:A1 *849:47 9.47028e-05
5 *2603:A1 *922:32 5.01117e-05
*RES
1 *2905:Q *2603:A1 30.7071 
*END

*D_NET *266 0.00163469
*CONN
*I *2615:A1 I *D sky130_fd_sc_hd__a22o_1
*I *2906:Q O *D sky130_fd_sc_hd__dlxtn_1
*CAP
1 *2615:A1 0.000400336
2 *2906:Q 0.000400336
3 *2615:A1 *2615:A2 4.39995e-05
4 *2615:A1 *2897:GATE_N 0.000305285
5 *2615:A1 *383:12 9.67416e-05
6 *2615:A1 *847:52 0.00011333
7 *2615:A1 *921:26 0.000274665
*RES
1 *2906:Q *2615:A1 34.975 
*END

*D_NET *267 0.00210397
*CONN
*I *2624:A1 I *D sky130_fd_sc_hd__a22o_1
*I *2907:Q O *D sky130_fd_sc_hd__dlxtn_1
*CAP
1 *2624:A1 0.000622454
2 *2907:Q 0.000622454
3 *2624:A1 *2625:A2 4.25622e-05
4 *2624:A1 *2875:GATE_N 0.000484524
5 *2624:A1 *3003:D 0
6 *2624:A1 *889:28 0
7 *2624:A1 *904:113 3.18676e-05
8 *2624:A1 *904:121 0.000300104
*RES
1 *2907:Q *2624:A1 37.8679 
*END

*D_NET *268 0.000384238
*CONN
*I *2638:A1 I *D sky130_fd_sc_hd__a211o_1
*I *2908:Q O *D sky130_fd_sc_hd__dlxtn_1
*CAP
1 *2638:A1 0.000115678
2 *2908:Q 0.000115678
3 *2638:A1 *2638:C1 5.52238e-05
4 *2638:A1 *575:20 9.7659e-05
*RES
1 *2908:Q *2638:A1 21.225 
*END

*D_NET *269 0.00204012
*CONN
*I *2481:A1 I *D sky130_fd_sc_hd__a221o_1
*I *2894:Q O *D sky130_fd_sc_hd__dlxtn_1
*CAP
1 *2481:A1 0.000548987
2 *2894:Q 0.000548987
3 *2481:A1 *2479:A2 0.000351786
4 *2481:A1 *2915:GATE_N 8.52551e-05
5 *2481:A1 *3054:GATE_N 0.00030232
6 *2481:A1 *3201:A 8.08244e-05
7 *2481:A1 *492:34 5.18717e-05
8 *2481:A1 *597:22 1.48545e-05
9 *2481:A1 *809:165 5.52302e-05
*RES
1 *2894:Q *2481:A1 38.0286 
*END

*D_NET *270 0.000927492
*CONN
*I *2493:B2 I *D sky130_fd_sc_hd__a221o_1
*I *2895:Q O *D sky130_fd_sc_hd__dlxtn_1
*CAP
1 *2493:B2 0.000327202
2 *2895:Q 0.000327202
3 *2493:B2 *2471:B1 7.6021e-05
4 *2493:B2 *2493:C1 1.02504e-05
5 *2493:B2 *2975:GATE_N 1.83136e-05
6 *2493:B2 *814:48 0.000126985
7 *2493:B2 *820:41 2.23694e-05
8 *2493:B2 *875:43 1.28809e-05
9 *2493:A1 *2493:B2 6.26774e-06
*RES
1 *2895:Q *2493:B2 32.6759 
*END

*D_NET *271 0.000470093
*CONN
*I *2504:A1 I *D sky130_fd_sc_hd__a221o_1
*I *2896:Q O *D sky130_fd_sc_hd__dlxtn_1
*CAP
1 *2504:A1 0.000202622
2 *2896:Q 0.000202622
3 *2504:A1 *2504:B1 5.71472e-05
4 *2504:B2 *2504:A1 7.70134e-06
*RES
1 *2896:Q *2504:A1 21.2071 
*END

*D_NET *272 0.000686643
*CONN
*I *2514:A1 I *D sky130_fd_sc_hd__a22o_1
*I *2897:Q O *D sky130_fd_sc_hd__dlxtn_1
*CAP
1 *2514:A1 0.00020876
2 *2897:Q 0.00020876
3 *2514:A1 *812:47 4.37138e-05
4 *2514:A1 *864:51 0.000142856
5 *2514:A1 *893:37 7.30047e-05
6 *2514:A1 *910:70 9.54798e-06
*RES
1 *2897:Q *2514:A1 30.9036 
*END

*D_NET *273 0.00159261
*CONN
*I *2528:A1 I *D sky130_fd_sc_hd__a211o_1
*I *2898:Q O *D sky130_fd_sc_hd__dlxtn_1
*CAP
1 *2528:A1 0.000385468
2 *2898:Q 0.000385468
3 *2528:A1 *2525:A2 1.05851e-05
4 *2528:A1 *2526:A2 1.57155e-05
5 *2528:A1 *2526:C1 0.00010326
6 *2528:A1 *2527:A2 0.00022217
7 *2528:A1 *2528:A2 3.93346e-05
8 *2528:A1 *2528:B1 2.86259e-05
9 *2528:A1 *2528:C1 0.000109319
10 *2528:A1 *2529:B 0.000226513
11 *2528:A1 *832:60 1.08359e-05
12 *2526:A1 *2528:A1 4.15089e-05
13 *2526:B2 *2528:A1 1.38106e-05
*RES
1 *2898:Q *2528:A1 36.4929 
*END

*D_NET *274 0.000436648
*CONN
*I *2538:A1 I *D sky130_fd_sc_hd__a22o_1
*I *2899:Q O *D sky130_fd_sc_hd__dlxtn_1
*CAP
1 *2538:A1 0.000191674
2 *2899:Q 0.000191674
3 *2538:A1 *2538:B1 5.33005e-05
*RES
1 *2899:Q *2538:A1 20.7964 
*END

*D_NET *275 0.00108561
*CONN
*I *2549:A1 I *D sky130_fd_sc_hd__a22o_1
*I *2900:Q O *D sky130_fd_sc_hd__dlxtn_1
*CAP
1 *2549:A1 0.000327611
2 *2900:Q 0.000327611
3 *2549:A1 *2549:B2 7.67315e-05
4 *2549:A1 *2976:D 1.24368e-05
5 *2549:A1 *816:39 3.0987e-05
6 *2549:A1 *816:41 5.26091e-05
7 *2549:A1 *860:50 6.19181e-05
8 *2549:A1 *860:54 9.41642e-05
9 *2549:A1 *926:47 0.000101545
*RES
1 *2900:Q *2549:A1 33.7429 
*END

*D_NET *276 0.00127065
*CONN
*I *2556:A1 I *D sky130_fd_sc_hd__a22o_1
*I *2901:Q O *D sky130_fd_sc_hd__dlxtn_1
*CAP
1 *2556:A1 0.000254897
2 *2901:Q 0.000254897
3 *2556:A1 *2555:B1 0
4 *2556:A1 *2556:B1 0.000163014
5 *2556:A1 *2556:B2 0.000149911
6 *2556:A1 *597:22 0.000123594
7 *2556:A1 *809:165 0.000186669
8 *2556:A1 *858:52 3.18676e-05
9 *2556:A1 *920:177 0.000105805
*RES
1 *2901:Q *2556:A1 34.5821 
*END

*D_NET *277 0.000356088
*CONN
*I *2570:A1 I *D sky130_fd_sc_hd__a221o_1
*I *2902:Q O *D sky130_fd_sc_hd__dlxtn_1
*CAP
1 *2570:A1 0.000136322
2 *2902:Q 0.000136322
3 *2570:A1 *2570:B1 1.02504e-05
4 *2570:A1 *2570:C1 0
5 *2570:A1 *2591:A2 4.58192e-05
6 *2570:A1 *381:10 2.05938e-05
7 *2570:A1 *855:20 6.78055e-06
*RES
1 *2902:Q *2570:A1 30.0821 
*END

*D_NET *278 0.000314222
*CONN
*I *2467:A1 I *D sky130_fd_sc_hd__a221o_1
*I *2909:Q O *D sky130_fd_sc_hd__dlxtn_1
*CAP
1 *2467:A1 7.58159e-05
2 *2909:Q 7.58159e-05
3 *2467:A1 *2467:A2 1.02504e-05
4 *2467:A1 *856:38 0
5 *2475:A1 *2467:A1 0.00015234
*RES
1 *2909:Q *2467:A1 29.5464 
*END

*D_NET *279 0.000360217
*CONN
*I *2578:A1 I *D sky130_fd_sc_hd__a22o_1
*I *2919:Q O *D sky130_fd_sc_hd__dlxtn_1
*CAP
1 *2578:A1 0.000136793
2 *2919:Q 0.000136793
3 *2578:A1 *2600:A2 8.66318e-05
*RES
1 *2919:Q *2578:A1 20.9214 
*END

*D_NET *280 0.00175802
*CONN
*I *2588:A1 I *D sky130_fd_sc_hd__a221o_1
*I *2920:Q O *D sky130_fd_sc_hd__dlxtn_1
*CAP
1 *2588:A1 0.000517853
2 *2920:Q 0.000517853
3 *2588:A1 *2467:A2 5.48248e-05
4 *2588:A1 *2467:C1 9.98242e-05
5 *2588:A1 *2588:B1 5.80706e-06
6 *2588:A1 *2596:B1 0.000149419
7 *2588:A1 *2596:B2 0.000125243
8 *2588:A1 *2845:D 2.6949e-05
9 *2588:A1 *2845:GATE_N 2.11372e-05
10 *2588:A1 *2856:D 7.46326e-05
11 *2588:A1 *3183:A 2.16721e-05
12 *2588:A1 *630:20 5.94433e-06
13 *2588:A1 *838:61 5.43993e-05
14 *2588:A1 *855:152 0
15 *2588:A1 *894:73 8.24601e-05
*RES
1 *2920:Q *2588:A1 37.4393 
*END

*D_NET *281 0.000531569
*CONN
*I *2601:A1 I *D sky130_fd_sc_hd__a221o_1
*I *2921:Q O *D sky130_fd_sc_hd__dlxtn_1
*CAP
1 *2601:A1 0.000119137
2 *2921:Q 0.000119137
3 *2601:A1 *2601:A2 3.99614e-06
4 *2601:A1 *2601:B1 2.89114e-05
5 *2601:A1 *2601:C1 9.80173e-05
6 *2601:A1 *2606:A 0.000149489
7 *2601:B2 *2601:A1 1.28809e-05
*RES
1 *2921:Q *2601:A1 22.0464 
*END

*D_NET *282 0.000344308
*CONN
*I *2611:A1 I *D sky130_fd_sc_hd__a22o_1
*I *2922:Q O *D sky130_fd_sc_hd__dlxtn_1
*CAP
1 *2611:A1 0.000123319
2 *2922:Q 0.000123319
3 *2611:A1 *897:59 9.76689e-05
*RES
1 *2922:Q *2611:A1 20.7964 
*END

*D_NET *283 0.000801053
*CONN
*I *2623:A1 I *D sky130_fd_sc_hd__a221o_1
*I *2923:Q O *D sky130_fd_sc_hd__dlxtn_1
*CAP
1 *2623:A1 0.000237951
2 *2923:Q 0.000237951
3 *2623:A1 *2623:A2 0.000145406
4 *2623:A1 *854:40 0.000179745
5 *2623:A1 *909:27 0
*RES
1 *2923:Q *2623:A1 31.3143 
*END

*D_NET *284 0.00089818
*CONN
*I *2634:A1 I *D sky130_fd_sc_hd__a221o_1
*I *2924:Q O *D sky130_fd_sc_hd__dlxtn_1
*CAP
1 *2634:A1 0.00022546
2 *2924:Q 0.00022546
3 *2634:A1 *2632:C1 7.40526e-05
4 *2634:A1 *859:30 0.000219711
5 *2634:A1 *891:18 2.59093e-05
6 *2634:A1 *891:34 4.46186e-06
7 *2632:B2 *2634:A1 0.000123126
*RES
1 *2924:Q *2634:A1 31.4214 
*END

*D_NET *285 0.0010706
*CONN
*I *2478:A1 I *D sky130_fd_sc_hd__a22o_1
*I *2910:Q O *D sky130_fd_sc_hd__dlxtn_1
*CAP
1 *2478:A1 0.000326784
2 *2910:Q 0.000326784
3 *2478:A1 *2555:A2 0
4 *2478:A1 *2643:B 0
5 *2478:A1 *2807:D 5.52302e-05
6 *2478:A1 *2807:GATE_N 0
7 *2478:A1 *830:42 0.000358971
8 *2478:B2 *2478:A1 2.83284e-06
*RES
1 *2910:Q *2478:A1 33.2607 
*END

*D_NET *286 0.000489814
*CONN
*I *2490:A1 I *D sky130_fd_sc_hd__a22o_1
*I *2911:Q O *D sky130_fd_sc_hd__dlxtn_1
*CAP
1 *2490:A1 0.000119429
2 *2911:Q 0.000119429
3 *2490:A1 *2567:A2 0.000100831
4 *2490:A1 *385:12 5.10822e-05
5 *2490:A1 *889:82 9.90431e-05
*RES
1 *2911:Q *2490:A1 29.8857 
*END

*D_NET *287 0.00162022
*CONN
*I *2499:A1 I *D sky130_fd_sc_hd__a22o_1
*I *2912:Q O *D sky130_fd_sc_hd__dlxtn_1
*CAP
1 *2499:A1 0.000502687
2 *2912:Q 0.000502687
3 *2499:A1 *2499:B1 1.3701e-05
4 *2499:A1 *3056:D 2.89114e-05
5 *2499:A1 *809:119 7.83659e-05
6 *2499:A1 *889:82 0.000142856
7 *2499:B2 *2499:A1 3.87936e-05
8 *2500:A1 *2499:A1 0.000312215
*RES
1 *2912:Q *2499:A1 35.0643 
*END

*D_NET *288 0.000465042
*CONN
*I *2513:A1 I *D sky130_fd_sc_hd__a221o_1
*I *2913:Q O *D sky130_fd_sc_hd__dlxtn_1
*CAP
1 *2513:A1 0.000114373
2 *2913:Q 0.000114373
3 *2513:A1 *2513:A2 1.46576e-05
4 *2513:A1 *806:10 4.08622e-05
5 *2513:A1 *893:52 0.000180777
*RES
1 *2913:Q *2513:A1 21.4036 
*END

*D_NET *289 0.00040415
*CONN
*I *2524:A1 I *D sky130_fd_sc_hd__a221o_1
*I *2914:Q O *D sky130_fd_sc_hd__dlxtn_1
*CAP
1 *2524:A1 8.9278e-05
2 *2914:Q 8.9278e-05
3 *2524:A1 *2524:A2 1.46576e-05
4 *2524:A1 *3125:A 0.000137983
5 *2524:A1 *865:60 7.29526e-05
*RES
1 *2914:Q *2524:A1 20.7964 
*END

*D_NET *290 0.00102805
*CONN
*I *2534:A1 I *D sky130_fd_sc_hd__a22o_1
*I *2915:Q O *D sky130_fd_sc_hd__dlxtn_1
*CAP
1 *2534:A1 0.00021006
2 *2915:Q 0.00021006
3 *2534:A1 *3201:A 7.80714e-06
4 *2534:A1 *492:34 0.000165904
5 *2534:A1 *826:47 0.000135028
6 *2534:A1 *850:57 0.00010096
7 *2534:A1 *896:138 5.33334e-05
8 *2534:A1 *917:70 0.000144896
*RES
1 *2915:Q *2534:A1 32.1536 
*END

*D_NET *291 0.000165317
*CONN
*I *2546:A1 I *D sky130_fd_sc_hd__a221o_1
*I *2916:Q O *D sky130_fd_sc_hd__dlxtn_1
*CAP
1 *2546:A1 6.3685e-05
2 *2916:Q 6.3685e-05
3 *2546:A1 *585:10 3.79467e-05
4 *2546:A1 *896:20 0
*RES
1 *2916:Q *2546:A1 28.9393 
*END

*D_NET *292 0.000434446
*CONN
*I *2556:B2 I *D sky130_fd_sc_hd__a22o_1
*I *2917:Q O *D sky130_fd_sc_hd__dlxtn_1
*CAP
1 *2556:B2 9.18558e-05
2 *2917:Q 9.18558e-05
3 *2556:B2 *2555:B1 0
4 *2556:B2 *920:177 0.000100823
5 *2556:A1 *2556:B2 0.000149911
*RES
1 *2917:Q *2556:B2 29.5464 
*END

*D_NET *293 0.000362101
*CONN
*I *2567:A1 I *D sky130_fd_sc_hd__a22o_1
*I *2918:Q O *D sky130_fd_sc_hd__dlxtn_1
*CAP
1 *2567:A1 0.000137285
2 *2918:Q 0.000137285
3 *2567:A1 *2573:A 6.78055e-06
4 *2567:A1 *385:12 1.67662e-05
5 *2567:A1 *630:20 6.39829e-05
*RES
1 *2918:Q *2567:A1 29.475 
*END

*D_NET *294 0.00140823
*CONN
*I *2468:A1 I *D sky130_fd_sc_hd__a22o_1
*I *2925:Q O *D sky130_fd_sc_hd__dlxtn_1
*CAP
1 *2468:A1 0.000387847
2 *2925:Q 0.000387847
3 *2468:A1 *2468:B2 6.68277e-05
4 *2468:A1 *2590:B1 0.00018442
5 *2468:A1 *2941:GATE_N 0
6 *2468:A1 *610:12 8.93056e-05
7 *2468:A1 *882:65 0.00010096
8 *2468:A1 *882:69 5.52302e-05
9 *2468:A1 *914:34 0.000135795
*RES
1 *2925:Q *2468:A1 35.1536 
*END

*D_NET *295 0.000730459
*CONN
*I *2576:A1 I *D sky130_fd_sc_hd__a22o_1
*I *2935:Q O *D sky130_fd_sc_hd__dlxtn_1
*CAP
1 *2576:A1 0.000174867
2 *2935:Q 0.000174867
3 *2576:A1 *807:12 9.9974e-05
4 *2576:A1 *853:133 0.000180777
5 *2576:A1 *911:26 9.9974e-05
*RES
1 *2935:Q *2576:A1 30.7071 
*END

*D_NET *296 0.000970468
*CONN
*I *2590:A1 I *D sky130_fd_sc_hd__a221o_1
*I *2936:Q O *D sky130_fd_sc_hd__dlxtn_1
*CAP
1 *2590:A1 0.000276452
2 *2936:Q 0.000276452
3 *2590:A1 *2468:B1 5.33005e-05
4 *2590:A1 *2468:B2 0.000117094
5 *2590:A1 *2590:B1 0.000115446
6 *2590:A1 *2595:A 9.90367e-05
7 *2590:A1 *825:104 3.2687e-05
*RES
1 *2936:Q *2590:A1 31.8321 
*END

*D_NET *297 0.00128401
*CONN
*I *2599:A1 I *D sky130_fd_sc_hd__a221o_1
*I *2937:Q O *D sky130_fd_sc_hd__dlxtn_1
*CAP
1 *2599:A1 0.000365674
2 *2937:Q 0.000365674
3 *2599:A1 *2599:C1 0.000476699
4 *2599:A1 *2607:B1 5.10122e-05
5 *2599:A1 *883:57 0
6 *2599:A1 *909:116 2.49484e-05
*RES
1 *2937:Q *2599:A1 35.35 
*END

*D_NET *298 0.000996086
*CONN
*I *2610:A1 I *D sky130_fd_sc_hd__a221o_1
*I *2938:Q O *D sky130_fd_sc_hd__dlxtn_1
*CAP
1 *2610:A1 0.000313116
2 *2938:Q 0.000313116
3 *2610:A1 *2518:C 0.000161878
4 *2610:A1 *2610:A2 6.56593e-05
5 *2610:A1 *895:12 0.000142316
*RES
1 *2938:Q *2610:A1 32.5464 
*END

*D_NET *299 0.000672188
*CONN
*I *2620:A1 I *D sky130_fd_sc_hd__a22o_1
*I *2939:Q O *D sky130_fd_sc_hd__dlxtn_1
*CAP
1 *2620:A1 0.000176225
2 *2939:Q 0.000176225
3 *2620:A1 *2620:A2 0.00010326
4 *2620:A1 *805:20 0.00018077
5 *2620:B2 *2620:A1 3.5707e-05
*RES
1 *2939:Q *2620:A1 30.7071 
*END

*D_NET *300 0.000335142
*CONN
*I *2631:A1 I *D sky130_fd_sc_hd__a22o_1
*I *2940:Q O *D sky130_fd_sc_hd__dlxtn_1
*CAP
1 *2631:A1 9.67785e-05
2 *2940:Q 9.67785e-05
3 *2631:A1 *2631:A2 1.02504e-05
4 *2631:A1 *390:10 6.41149e-05
5 *2631:A1 *911:22 6.722e-05
*RES
1 *2940:Q *2631:A1 29.5464 
*END

*D_NET *301 0.00110856
*CONN
*I *2480:B2 I *D sky130_fd_sc_hd__a22o_1
*I *2926:Q O *D sky130_fd_sc_hd__dlxtn_1
*CAP
1 *2480:B2 0.000311959
2 *2926:Q 0.000311959
3 *2480:B2 *2862:D 4.51726e-05
4 *2480:B2 *2862:GATE_N 2.59355e-05
5 *2480:B2 *2942:GATE_N 3.48867e-05
6 *2480:B2 *2963:GATE_N 0.000165495
7 *2480:B2 *490:8 0
8 *2480:B2 *823:38 0.00013651
9 *2480:B2 *915:16 7.6644e-05
*RES
1 *2926:Q *2480:B2 33.4393 
*END

*D_NET *302 0.000517888
*CONN
*I *2489:A1 I *D sky130_fd_sc_hd__a221o_1
*I *2927:Q O *D sky130_fd_sc_hd__dlxtn_1
*CAP
1 *2489:A1 0.00018847
2 *2927:Q 0.00018847
3 *2489:A1 *2489:B1 2.66171e-05
4 *2489:A1 *2575:A 0
5 *2489:A1 *2575:B 1.26099e-05
6 *2489:B2 *2489:A1 0.00010172
*RES
1 *2927:Q *2489:A1 21.2071 
*END

*D_NET *303 0.000345112
*CONN
*I *2501:A1 I *D sky130_fd_sc_hd__a22o_1
*I *2928:Q O *D sky130_fd_sc_hd__dlxtn_1
*CAP
1 *2501:A1 6.94421e-05
2 *2928:Q 6.94421e-05
3 *2501:A1 *807:112 4.85029e-05
4 *2501:A1 *914:10 0.000147474
5 *2501:A1 *914:16 1.02504e-05
*RES
1 *2928:Q *2501:A1 29.5464 
*END

*D_NET *304 0.00119422
*CONN
*I *2512:A1 I *D sky130_fd_sc_hd__a22o_1
*I *2929:Q O *D sky130_fd_sc_hd__dlxtn_1
*CAP
1 *2512:A1 0.000188414
2 *2929:Q 0.000188414
3 *2512:A1 *2436:A 6.91613e-06
4 *2512:A1 *812:18 0.000286774
5 *2512:A1 *864:51 4.69532e-05
6 *2512:A1 *891:14 0.000135028
7 *2512:A1 *891:77 5.50772e-05
8 *2512:A1 *912:37 0.000286645
*RES
1 *2929:Q *2512:A1 33.1536 
*END

*D_NET *305 0.00156595
*CONN
*I *2523:A1 I *D sky130_fd_sc_hd__a22o_1
*I *2930:Q O *D sky130_fd_sc_hd__dlxtn_1
*CAP
1 *2523:A1 0.000395485
2 *2930:Q 0.000395485
3 *2523:A1 *2522:B1 0
4 *2523:A1 *2523:A2 0.000446283
5 *2523:A1 *2530:B1 0
6 *2523:A1 *3134:A 0.000182694
7 *2523:A1 *839:60 0.000132856
8 *2523:A1 *865:16 0
9 *2523:A1 *887:88 1.31516e-05
10 *2522:A1 *2523:A1 0
*RES
1 *2930:Q *2523:A1 35.5643 
*END

*D_NET *306 0.00100763
*CONN
*I *2533:A1 I *D sky130_fd_sc_hd__a221o_1
*I *2931:Q O *D sky130_fd_sc_hd__dlxtn_1
*CAP
1 *2533:A1 0.000153555
2 *2931:Q 0.000153555
3 *2533:A1 *2523:A2 0.000326883
4 *2533:A1 *2533:B1 0.000338153
5 *2533:A1 *863:6 2.59355e-05
6 *2533:A1 *915:79 9.54798e-06
*RES
1 *2931:Q *2533:A1 32.5107 
*END

*D_NET *307 0.000234828
*CONN
*I *2546:B2 I *D sky130_fd_sc_hd__a221o_1
*I *2932:Q O *D sky130_fd_sc_hd__dlxtn_1
*CAP
1 *2546:B2 0.000103138
2 *2932:Q 0.000103138
3 *2546:B2 *2546:A2 0
4 *2546:B2 *2546:B1 5.7661e-06
5 *2546:B2 *869:16 1.65169e-05
6 *2546:B2 *914:32 6.26774e-06
*RES
1 *2932:Q *2546:B2 20.533 
*END

*D_NET *308 0.0012567
*CONN
*I *2562:A1 I *D sky130_fd_sc_hd__a221o_1
*I *2933:Q O *D sky130_fd_sc_hd__dlxtn_1
*CAP
1 *2562:A1 0.000268467
2 *2933:Q 0.000268467
3 *2562:A1 *2562:B1 3.12183e-05
4 *2562:A1 *2562:B2 0.000130124
5 *2562:A1 *2563:A2 4.46186e-06
6 *2562:A1 *2564:B 1.24368e-05
7 *2562:A1 *3061:GATE_N 5.33005e-05
8 *2562:A1 *598:26 5.33005e-05
9 *2562:A1 *809:12 0.000211731
10 *2562:A1 *809:35 3.17148e-05
11 *2562:A1 *822:14 0.000123288
12 *2562:A1 *827:10 8.25843e-06
13 *2562:A1 *858:14 3.5298e-05
14 *2563:A1 *2562:A1 2.46318e-05
*RES
1 *2933:Q *2562:A1 34.0286 
*END

*D_NET *309 0.000333613
*CONN
*I *2568:A1 I *D sky130_fd_sc_hd__a221o_1
*I *2934:Q O *D sky130_fd_sc_hd__dlxtn_1
*CAP
1 *2568:A1 5.19618e-05
2 *2934:Q 5.19618e-05
3 *2568:A1 *385:12 0.000150263
4 *2568:B2 *2568:A1 7.94256e-05
*RES
1 *2934:Q *2568:A1 29.5464 
*END

*D_NET *310 0.0016166
*CONN
*I *2468:B2 I *D sky130_fd_sc_hd__a22o_1
*I *2941:Q O *D sky130_fd_sc_hd__dlxtn_1
*CAP
1 *2468:B2 0.000473293
2 *2941:Q 0.000473293
3 *2468:B2 *2590:B1 5.405e-05
4 *2468:B2 *3161:A 0
5 *2468:B2 *3164:A 0
6 *2468:B2 *855:20 0.000269428
7 *2468:A1 *2468:B2 6.68277e-05
8 *2590:A1 *2468:B2 0.000117094
9 *2590:B2 *2468:B2 0.000162618
*RES
1 *2941:Q *2468:B2 35.7786 
*END

*D_NET *311 0.000185599
*CONN
*I *2576:B2 I *D sky130_fd_sc_hd__a22o_1
*I *2951:Q O *D sky130_fd_sc_hd__dlxtn_1
*CAP
1 *2576:B2 5.62444e-05
2 *2951:Q 5.62444e-05
3 *2576:B2 *911:22 5.92264e-05
4 *2576:B2 *914:107 1.38837e-05
5 *2576:B2 *914:117 0
*RES
1 *2951:Q *2576:B2 19.8679 
*END

*D_NET *312 0.000364161
*CONN
*I *2589:A1 I *D sky130_fd_sc_hd__a22o_1
*I *2952:Q O *D sky130_fd_sc_hd__dlxtn_1
*CAP
1 *2589:A1 7.84352e-05
2 *2952:Q 7.84352e-05
3 *2589:A1 *2590:C1 3.92757e-05
4 *2589:A1 *535:14 5.71472e-05
5 *2589:A1 *825:100 0.000100831
6 *2589:B2 *2589:A1 1.00375e-05
*RES
1 *2952:Q *2589:A1 29.475 
*END

*D_NET *313 0.00124446
*CONN
*I *2600:A1 I *D sky130_fd_sc_hd__a22o_1
*I *2953:Q O *D sky130_fd_sc_hd__dlxtn_1
*CAP
1 *2600:A1 0.000307833
2 *2953:Q 0.000307833
3 *2600:A1 *2953:GATE_N 5.71472e-05
4 *2600:A1 *499:22 0.000383123
5 *2600:A1 *829:36 0
6 *2600:A1 *850:57 1.50563e-05
7 *2600:A1 *850:65 9.94909e-05
8 *2600:A1 *896:16 7.39752e-05
*RES
1 *2953:Q *2600:A1 34.9393 
*END

*D_NET *314 0.00070336
*CONN
*I *2609:B2 I *D sky130_fd_sc_hd__a22o_1
*I *2954:Q O *D sky130_fd_sc_hd__dlxtn_1
*CAP
1 *2609:B2 0.000205436
2 *2954:Q 0.000205436
3 *2609:B2 *2643:A 1.99644e-05
4 *2609:B2 *2807:GATE_N 0
5 *2609:B2 *498:10 1.40306e-05
6 *2609:B2 *651:14 7.55769e-05
7 *2609:B2 *887:47 4.2991e-05
8 *2609:B2 *897:84 7.65002e-05
9 *2611:B2 *2609:B2 6.34252e-05
*RES
1 *2954:Q *2609:B2 32.2071 
*END

*D_NET *315 0.000910811
*CONN
*I *2621:A1 I *D sky130_fd_sc_hd__a221o_1
*I *2955:Q O *D sky130_fd_sc_hd__dlxtn_1
*CAP
1 *2621:A1 0.000149645
2 *2955:Q 0.000149645
3 *2621:A1 *2621:A2 3.33174e-05
4 *2621:A1 *2629:B1 5.71472e-05
5 *2621:A1 *806:60 0.000100478
6 *2621:A1 *825:45 0.00010096
7 *2621:A1 *827:67 0.000100478
8 *2621:A1 *853:133 0.00021914
*RES
1 *2955:Q *2621:A1 31.9393 
*END

*D_NET *316 0.00196125
*CONN
*I *2631:B2 I *D sky130_fd_sc_hd__a22o_1
*I *2956:Q O *D sky130_fd_sc_hd__dlxtn_1
*CAP
1 *2631:B2 0.000474887
2 *2956:Q 0.000474887
3 *2631:B2 *2632:A1 0.000443029
4 *2631:B2 *3084:D 8.02593e-05
5 *2631:B2 *843:27 4.30382e-05
6 *2631:B2 *911:22 0.000445146
*RES
1 *2956:Q *2631:B2 37.3143 
*END

*D_NET *317 0.00108901
*CONN
*I *2479:B2 I *D sky130_fd_sc_hd__a221o_1
*I *2942:Q O *D sky130_fd_sc_hd__dlxtn_1
*CAP
1 *2479:B2 0.000345213
2 *2942:Q 0.000345213
3 *2479:B2 *3054:D 5.21937e-05
4 *2479:B2 *825:12 0.000143491
5 *2479:B2 *873:86 2.97829e-05
6 *2479:B2 *912:95 3.03503e-05
7 *2479:B2 *918:12 0.000142762
*RES
1 *2942:Q *2479:B2 32.8321 
*END

*D_NET *318 0.000530119
*CONN
*I *2491:A1 I *D sky130_fd_sc_hd__a221o_1
*I *2943:Q O *D sky130_fd_sc_hd__dlxtn_1
*CAP
1 *2491:A1 0.000179926
2 *2943:Q 0.000179926
3 *2491:A1 *2491:B1 2.67377e-05
4 *2491:A1 *872:42 3.61629e-06
5 *2491:A1 *911:95 0.000139913
*RES
1 *2943:Q *2491:A1 21.2071 
*END

*D_NET *319 0.000412885
*CONN
*I *2502:A1 I *D sky130_fd_sc_hd__a221o_1
*I *2944:Q O *D sky130_fd_sc_hd__dlxtn_1
*CAP
1 *2502:A1 0.000136334
2 *2944:Q 0.000136334
3 *2502:A1 *870:25 2.27416e-05
4 *2502:A1 *916:27 7.02903e-05
5 *2502:B2 *2502:A1 4.71848e-05
*RES
1 *2944:Q *2502:A1 30.0821 
*END

*D_NET *320 0.000419208
*CONN
*I *2513:B2 I *D sky130_fd_sc_hd__a221o_1
*I *2945:Q O *D sky130_fd_sc_hd__dlxtn_1
*CAP
1 *2513:B2 5.50805e-05
2 *2945:Q 5.50805e-05
3 *2513:B2 *2513:C1 0.000149543
4 *2513:B2 *806:10 3.82227e-06
5 *2513:B2 *893:52 6.26774e-06
6 *2513:B2 *912:37 0.000149414
*RES
1 *2945:Q *2513:B2 29.6759 
*END

*D_NET *321 0.00139197
*CONN
*I *2524:B2 I *D sky130_fd_sc_hd__a221o_1
*I *2946:Q O *D sky130_fd_sc_hd__dlxtn_1
*CAP
1 *2524:B2 0.000442816
2 *2946:Q 0.000442816
3 *2524:B2 *2524:B1 3.04785e-05
4 *2524:B2 *3141:A 4.543e-05
5 *2524:B2 *3213:A 9.90431e-05
6 *2524:B2 *651:22 8.87093e-05
7 *2524:B2 *841:48 0.000116516
8 *2524:B2 *865:60 8.67774e-06
9 *2524:B2 *887:22 2.06178e-05
10 *2524:B2 *931:81 9.68671e-05
*RES
1 *2946:Q *2524:B2 35.1714 
*END

*D_NET *322 0.00102764
*CONN
*I *2535:A1 I *D sky130_fd_sc_hd__a221o_1
*I *2947:Q O *D sky130_fd_sc_hd__dlxtn_1
*CAP
1 *2535:A1 0.000258598
2 *2947:Q 0.000258598
3 *2535:A1 *2901:GATE_N 0.000311196
4 *2535:A1 *3201:A 9.96264e-05
5 *2535:A1 *917:70 9.96264e-05
*RES
1 *2947:Q *2535:A1 31.9393 
*END

*D_NET *323 0.000394145
*CONN
*I *2543:A1 I *D sky130_fd_sc_hd__a22o_1
*I *2948:Q O *D sky130_fd_sc_hd__dlxtn_1
*CAP
1 *2543:A1 0.00017244
2 *2948:Q 0.00017244
3 *2543:A1 *2543:B1 2.27416e-05
4 *2543:A1 *861:88 2.65242e-05
*RES
1 *2948:Q *2543:A1 20.7964 
*END

*D_NET *324 0.000616176
*CONN
*I *2555:B2 I *D sky130_fd_sc_hd__a221o_1
*I *2949:Q O *D sky130_fd_sc_hd__dlxtn_1
*CAP
1 *2555:B2 0.000179503
2 *2949:Q 0.000179503
3 *2555:B2 *2555:B1 3.47641e-06
4 *2555:B2 *2555:C1 0.000122814
5 *2555:B2 *597:22 1.28809e-05
6 *2555:B2 *858:46 9.25014e-06
7 *2555:B2 *858:52 7.16452e-05
8 *2555:B2 *863:48 6.26774e-06
9 *2555:A1 *2555:B2 3.08353e-05
*RES
1 *2949:Q *2555:B2 30.7295 
*END

*D_NET *325 0.00017688
*CONN
*I *2567:B2 I *D sky130_fd_sc_hd__a22o_1
*I *2950:Q O *D sky130_fd_sc_hd__dlxtn_1
*CAP
1 *2567:B2 5.05945e-05
2 *2950:Q 5.05945e-05
3 *2567:B2 *855:152 7.56915e-05
*RES
1 *2950:Q *2567:B2 19.8679 
*END

*D_NET *326 0.00047084
*CONN
*I *2466:A1 I *D sky130_fd_sc_hd__a22o_1
*I *2957:Q O *D sky130_fd_sc_hd__dlxtn_1
*CAP
1 *2466:A1 0.000132991
2 *2957:Q 0.000132991
3 *2466:A1 *2466:A2 5.71472e-05
4 *2466:A1 *2491:B1 0
5 *2466:A1 *822:78 3.68898e-05
6 *2466:A1 *855:152 0.000110821
*RES
1 *2957:Q *2466:A1 21.2071 
*END

*D_NET *327 0.00082986
*CONN
*I *2577:A1 I *D sky130_fd_sc_hd__a221o_1
*I *2967:Q O *D sky130_fd_sc_hd__dlxtn_1
*CAP
1 *2577:A1 0.000247066
2 *2967:Q 0.000247066
3 *2577:A1 *2577:A2 1.02504e-05
4 *2577:A1 *2585:B1 7.83659e-05
5 *2577:A1 *2673:A1 6.91438e-06
6 *2577:A1 *2673:S 5.52238e-05
7 *2577:A1 *2855:D 2.65133e-05
8 *2577:A1 *620:18 1.12484e-05
9 *2577:A1 *883:57 0
10 *2577:A1 *909:103 0.000147211
*RES
1 *2967:Q *2577:A1 31.725 
*END

*D_NET *328 0.000249043
*CONN
*I *2588:B2 I *D sky130_fd_sc_hd__a221o_1
*I *2968:Q O *D sky130_fd_sc_hd__dlxtn_1
*CAP
1 *2588:B2 9.6714e-05
2 *2968:Q 9.6714e-05
3 *2588:B2 *871:92 5.56148e-05
*RES
1 *2968:Q *2588:B2 20.533 
*END

*D_NET *329 0.00132158
*CONN
*I *2598:A1 I *D sky130_fd_sc_hd__a22o_1
*I *2969:Q O *D sky130_fd_sc_hd__dlxtn_1
*CAP
1 *2598:A1 0.00023919
2 *2969:Q 0.00023919
3 *2598:A1 *661:12 9.90431e-05
4 *2598:A1 *894:143 0.000257146
5 *2598:A1 *909:116 0.000487007
*RES
1 *2969:Q *2598:A1 34.7429 
*END

*D_NET *330 0.000381261
*CONN
*I *2616:B2 I *D sky130_fd_sc_hd__a221o_1
*I *2970:Q O *D sky130_fd_sc_hd__dlxtn_1
*CAP
1 *2616:B2 0.000116064
2 *2970:Q 0.000116064
3 *2616:B2 *2970:GATE_N 1.89507e-06
4 *2616:B2 *3220:A 0
5 *2616:B2 *910:14 0.000140971
6 *2616:B2 *921:16 6.26774e-06
*RES
1 *2970:Q *2616:B2 29.6759 
*END

*D_NET *331 0.000461261
*CONN
*I *2622:A1 I *D sky130_fd_sc_hd__a22o_1
*I *2971:Q O *D sky130_fd_sc_hd__dlxtn_1
*CAP
1 *2622:A1 0.000129992
2 *2971:Q 0.000129992
3 *2622:A1 *2622:B1 0.00010326
4 *2622:A1 *2623:B1 9.80173e-05
5 *2622:A1 *2623:C1 0
*RES
1 *2971:Q *2622:A1 29.8857 
*END

*D_NET *332 0.00175225
*CONN
*I *2632:A1 I *D sky130_fd_sc_hd__a221o_1
*I *2972:Q O *D sky130_fd_sc_hd__dlxtn_1
*CAP
1 *2632:A1 0.000367412
2 *2972:Q 0.000367412
3 *2632:A1 *2634:A2 0.00014236
4 *2632:A1 *2639:A 0.000292006
5 *2632:A1 *2860:GATE_N 1.33343e-05
6 *2632:A1 *2972:D 0
7 *2632:A1 *850:57 5.19842e-06
8 *2632:A1 *911:22 9.71906e-05
9 *2631:B2 *2632:A1 0.000443029
10 *2632:B2 *2632:A1 2.43046e-05
*RES
1 *2972:Q *2632:A1 36.7607 
*END

*D_NET *333 0.00143705
*CONN
*I *2481:B2 I *D sky130_fd_sc_hd__a221o_1
*I *2958:Q O *D sky130_fd_sc_hd__dlxtn_1
*CAP
1 *2481:B2 0.000407331
2 *2958:Q 0.000407331
3 *2481:B2 *2481:B1 1.28809e-05
4 *2481:B2 *2534:B1 4.93928e-05
5 *2481:B2 *2958:GATE_N 5.33005e-05
6 *2481:B2 *3201:A 0.000121411
7 *2481:B2 *873:71 5.97496e-05
8 *2481:B2 *873:86 0.000314139
9 *2481:B2 *910:18 5.25192e-06
10 *2481:B2 *915:39 6.26774e-06
*RES
1 *2958:Q *2481:B2 34.0152 
*END

*D_NET *334 0.000443823
*CONN
*I *2488:A1 I *D sky130_fd_sc_hd__a22o_1
*I *2959:Q O *D sky130_fd_sc_hd__dlxtn_1
*CAP
1 *2488:A1 0.000107708
2 *2959:Q 0.000107708
3 *2488:A1 *872:49 2.27416e-05
4 *2488:A1 *930:54 0.000153047
5 *2488:B2 *2488:A1 5.26184e-05
*RES
1 *2959:Q *2488:A1 30.0821 
*END

*D_NET *335 0.00120742
*CONN
*I *2501:B2 I *D sky130_fd_sc_hd__a22o_1
*I *2960:Q O *D sky130_fd_sc_hd__dlxtn_1
*CAP
1 *2501:B2 0.000279567
2 *2960:Q 0.000279567
3 *2501:B2 *2502:C1 3.36651e-05
4 *2501:B2 *2944:GATE_N 3.63587e-05
5 *2501:B2 *870:8 0.000219289
6 *2501:B2 *870:25 0.000358977
*RES
1 *2960:Q *2501:B2 24.9214 
*END

*D_NET *336 0.000275398
*CONN
*I *2514:B2 I *D sky130_fd_sc_hd__a22o_1
*I *2961:Q O *D sky130_fd_sc_hd__dlxtn_1
*CAP
1 *2514:B2 8.41026e-05
2 *2961:Q 8.41026e-05
3 *2514:B2 *910:52 0.000107193
*RES
1 *2961:Q *2514:B2 20.2786 
*END

*D_NET *337 0.000970862
*CONN
*I *2523:B2 I *D sky130_fd_sc_hd__a22o_1
*I *2962:Q O *D sky130_fd_sc_hd__dlxtn_1
*CAP
1 *2523:B2 0.00025597
2 *2962:Q 0.00025597
3 *2523:B2 *561:20 0.000100831
4 *2523:B2 *864:8 8.46507e-06
5 *2523:B2 *887:86 3.34366e-05
6 *2523:B2 *887:88 0.00028515
7 *2523:B2 *931:81 3.1039e-05
8 *2523:B2 *931:85 0
9 *2523:B2 *931:87 0
*RES
1 *2962:Q *2523:B2 32.6179 
*END

*D_NET *338 0.000462118
*CONN
*I *2534:B2 I *D sky130_fd_sc_hd__a22o_1
*I *2963:Q O *D sky130_fd_sc_hd__dlxtn_1
*CAP
1 *2534:B2 8.86272e-05
2 *2963:Q 8.86272e-05
3 *2534:B2 *2534:B1 5.52302e-05
4 *2534:B2 *850:57 4.59075e-05
5 *2534:B2 *896:138 0.000183726
*RES
1 *2963:Q *2534:B2 21.1 
*END

*D_NET *339 0.000352289
*CONN
*I *2544:A1 I *D sky130_fd_sc_hd__a221o_1
*I *2964:Q O *D sky130_fd_sc_hd__dlxtn_1
*CAP
1 *2544:A1 6.72695e-05
2 *2964:Q 6.72695e-05
3 *2544:A1 *892:118 0.000145154
4 *2544:A1 *909:90 7.25963e-05
*RES
1 *2964:Q *2544:A1 29.5464 
*END

*D_NET *340 0.00122824
*CONN
*I *2562:B2 I *D sky130_fd_sc_hd__a221o_1
*I *2965:Q O *D sky130_fd_sc_hd__dlxtn_1
*CAP
1 *2562:B2 0.000217747
2 *2965:Q 0.000217747
3 *2562:B2 *2562:B1 0.000559651
4 *2562:B2 *2860:GATE_N 1.41029e-05
5 *2562:B2 *3061:GATE_N 1.39841e-05
6 *2562:B2 *858:14 2.47753e-05
7 *2562:B2 *858:20 5.01117e-05
8 *2562:A1 *2562:B2 0.000130124
*RES
1 *2965:Q *2562:B2 34.1402 
*END

*D_NET *341 0.00022721
*CONN
*I *2566:A1 I *D sky130_fd_sc_hd__a221o_1
*I *2966:Q O *D sky130_fd_sc_hd__dlxtn_1
*CAP
1 *2566:A1 3.32706e-05
2 *2966:Q 3.32706e-05
3 *2566:A1 *2566:B1 0.000104974
4 *2566:A1 *827:160 5.56943e-05
*RES
1 *2966:Q *2566:A1 28.9393 
*END

*D_NET *342 0.000618382
*CONN
*I *2473:A1 I *D sky130_fd_sc_hd__a211o_1
*I *2973:Q O *D sky130_fd_sc_hd__dlxtn_1
*CAP
1 *2473:A1 0.00014889
2 *2973:Q 0.00014889
3 *2473:A1 *2473:C1 7.91925e-05
4 *2473:A1 *820:41 0.00024141
*RES
1 *2973:Q *2473:A1 22.7786 
*END

*D_NET *343 0.000667136
*CONN
*I *2582:B2 I *D sky130_fd_sc_hd__a22o_1
*I *2983:Q O *D sky130_fd_sc_hd__dlxtn_1
*CAP
1 *2582:B2 0.000254981
2 *2983:Q 0.000254981
3 *2582:B2 *2582:B1 1.02504e-05
4 *2582:B2 *853:59 2.56601e-05
5 *2582:B2 *853:61 0.000121263
6 *2582:B2 *922:32 0
*RES
1 *2983:Q *2582:B2 31.4214 
*END

*D_NET *344 0.000430879
*CONN
*I *2594:A1 I *D sky130_fd_sc_hd__a211o_1
*I *2984:Q O *D sky130_fd_sc_hd__dlxtn_1
*CAP
1 *2594:A1 0.000152911
2 *2984:Q 0.000152911
3 *2594:A1 *851:28 0.000125057
*RES
1 *2984:Q *2594:A1 21.6357 
*END

*D_NET *345 0.00108781
*CONN
*I *2602:B2 I *D sky130_fd_sc_hd__a22o_1
*I *2985:Q O *D sky130_fd_sc_hd__dlxtn_1
*CAP
1 *2602:B2 0.000346163
2 *2985:Q 0.000346163
3 *2602:B2 *2889:D 0.000115082
4 *2602:B2 *2985:D 9.56968e-05
5 *2602:B2 *817:49 5.20751e-05
6 *2602:B2 *849:51 7.60306e-05
7 *2602:A1 *2602:B2 5.65955e-05
*RES
1 *2985:Q *2602:B2 35.35 
*END

*D_NET *346 0.000437926
*CONN
*I *2613:A1 I *D sky130_fd_sc_hd__a221o_1
*I *2986:Q O *D sky130_fd_sc_hd__dlxtn_1
*CAP
1 *2613:A1 7.07239e-05
2 *2986:Q 7.07239e-05
3 *2613:A1 *2613:A2 2.0887e-05
4 *2613:A1 *907:38 9.90367e-05
5 *2613:A1 *933:14 3.66478e-05
6 *2613:A1 *934:20 0.000139907
*RES
1 *2986:Q *2613:A1 20.7964 
*END

*D_NET *347 0.000251602
*CONN
*I *2626:B2 I *D sky130_fd_sc_hd__a22o_1
*I *2987:Q O *D sky130_fd_sc_hd__dlxtn_1
*CAP
1 *2626:B2 5.52326e-05
2 *2987:Q 5.52326e-05
3 *2626:B2 *2584:A 4.01768e-05
4 *2626:B2 *853:31 0.00010096
*RES
1 *2987:Q *2626:B2 20.2786 
*END

*D_NET *348 0.00110175
*CONN
*I *2636:B2 I *D sky130_fd_sc_hd__a221o_1
*I *2988:Q O *D sky130_fd_sc_hd__dlxtn_1
*CAP
1 *2636:B2 0.000321556
2 *2988:Q 0.000321556
3 *2636:B2 *2635:A1 0.000133596
4 *2636:B2 *2636:B1 0.000198451
5 *2636:B2 *2639:B 0
6 *2636:B2 *2908:GATE_N 3.98662e-05
7 *2636:B2 *842:98 1.33343e-05
8 *2636:B2 *904:14 9.25014e-06
9 *2636:B2 *904:113 0
10 *2637:A1 *2636:B2 6.41364e-05
*RES
1 *2988:Q *2636:B2 34.1402 
*END

*D_NET *349 0.00123809
*CONN
*I *2484:A1 I *D sky130_fd_sc_hd__a211o_1
*I *2974:Q O *D sky130_fd_sc_hd__dlxtn_1
*CAP
1 *2484:A1 0.000165848
2 *2974:Q 0.000165848
3 *2484:A1 *2410:B 5.33005e-05
4 *2484:A1 *2484:C1 1.3701e-05
5 *2484:A1 *2485:C 0.000266479
6 *2484:A1 *2636:B1 0.000181803
7 *2484:A1 *3219:A 0.000123288
8 *2484:A1 *840:24 8.25897e-05
9 *2484:A1 *864:77 0.000118205
10 *2484:A1 *907:26 5.33005e-05
11 *2484:A1 *933:28 1.37292e-05
*RES
1 *2974:Q *2484:A1 33.4929 
*END

*D_NET *350 0.00139333
*CONN
*I *2492:A1 I *D sky130_fd_sc_hd__a22o_1
*I *2975:Q O *D sky130_fd_sc_hd__dlxtn_1
*CAP
1 *2492:A1 0.000384818
2 *2975:Q 0.000384818
3 *2492:A1 *2472:B1 0.000487014
4 *2492:A1 *2472:B2 0.000136682
*RES
1 *2975:Q *2492:A1 35.1536 
*END

*D_NET *351 0.00232904
*CONN
*I *2503:B2 I *D sky130_fd_sc_hd__a22o_1
*I *2976:Q O *D sky130_fd_sc_hd__dlxtn_1
*CAP
1 *2503:B2 0.000687533
2 *2976:Q 0.000687533
3 *2503:B2 *2976:D 0.000181796
4 *2503:B2 *818:100 0
5 *2503:B2 *869:59 0.000124425
6 *2503:B2 *906:48 0.000318101
7 *2503:B2 *920:69 0.000316184
8 *2503:B2 *926:88 1.34703e-05
9 *2503:B2 *926:90 0
*RES
1 *2976:Q *2503:B2 39.6179 
*END

*D_NET *352 0.000707278
*CONN
*I *2515:A1 I *D sky130_fd_sc_hd__a22o_1
*I *2977:Q O *D sky130_fd_sc_hd__dlxtn_1
*CAP
1 *2515:A1 0.000223498
2 *2977:Q 0.000223498
3 *2515:A1 *819:46 4.3245e-05
4 *2515:A1 *840:24 0.000120519
5 *2515:A1 *900:14 9.65182e-05
*RES
1 *2977:Q *2515:A1 31.1179 
*END

*D_NET *353 0.00159519
*CONN
*I *2525:A1 I *D sky130_fd_sc_hd__a22o_1
*I *2978:Q O *D sky130_fd_sc_hd__dlxtn_1
*CAP
1 *2525:A1 0.000270517
2 *2978:Q 0.000270517
3 *2525:A1 *2525:A2 0.000538299
4 *2525:A1 *2526:C1 2.08695e-05
5 *2525:A1 *2898:GATE_N 9.58126e-05
6 *2525:A1 *864:81 0.000399176
*RES
1 *2978:Q *2525:A1 27.0107 
*END

*D_NET *354 0.000672835
*CONN
*I *2538:B2 I *D sky130_fd_sc_hd__a22o_1
*I *2979:Q O *D sky130_fd_sc_hd__dlxtn_1
*CAP
1 *2538:B2 0.000204794
2 *2979:Q 0.000204794
3 *2538:B2 *2538:B1 4.46689e-05
4 *2538:B2 *2602:A2 3.71268e-05
5 *2538:B2 *904:44 5.30637e-06
6 *2536:A1 *2538:B2 0.00011955
7 *2536:B2 *2538:B2 5.65955e-05
*RES
1 *2979:Q *2538:B2 31.0107 
*END

*D_NET *355 0.00165323
*CONN
*I *2549:B2 I *D sky130_fd_sc_hd__a22o_1
*I *2980:Q O *D sky130_fd_sc_hd__dlxtn_1
*CAP
1 *2549:B2 0.000241336
2 *2980:Q 0.000241336
3 *2549:B2 *2551:B 0.000137983
4 *2549:B2 *820:29 0.000172726
5 *2549:B2 *820:33 0.000382404
6 *2549:B2 *860:50 0.000145406
7 *2549:B2 *860:89 0.000185045
8 *2549:B2 *860:91 7.02611e-05
9 *2549:A1 *2549:B2 7.67315e-05
*RES
1 *2980:Q *2549:B2 36.0643 
*END

*D_NET *356 0.000837128
*CONN
*I *2557:A1 I *D sky130_fd_sc_hd__a22o_1
*I *2981:Q O *D sky130_fd_sc_hd__dlxtn_1
*CAP
1 *2557:A1 0.000243417
2 *2981:Q 0.000243417
3 *2557:A1 *2539:C1 1.15281e-05
4 *2557:A1 *2557:A2 5.02932e-05
5 *2557:A1 *2557:B1 3.69047e-06
6 *2557:A1 *2869:GATE_N 0.000151616
7 *2557:A1 *906:112 5.58875e-06
8 *2557:B2 *2557:A1 0.000127578
*RES
1 *2981:Q *2557:A1 32.6357 
*END

*D_NET *357 0.00162553
*CONN
*I *2572:A1 I *D sky130_fd_sc_hd__a211o_1
*I *2982:Q O *D sky130_fd_sc_hd__dlxtn_1
*CAP
1 *2572:A1 0.000480655
2 *2982:Q 0.000480655
3 *2572:A1 *2571:A2 0.000224583
4 *2572:A1 *2572:B1 0.000302393
5 *2572:A1 *3080:GATE_N 0
6 *2572:A1 *3085:GATE_N 9.92409e-05
7 *2572:A1 *827:96 0
8 *2572:A1 *875:43 3.80079e-05
*RES
1 *2982:Q *2572:A1 37.0286 
*END

*D_NET *358 0.00130502
*CONN
*I *2472:B2 I *D sky130_fd_sc_hd__a22o_1
*I *2989:Q O *D sky130_fd_sc_hd__dlxtn_1
*CAP
1 *2472:B2 0.000340167
2 *2989:Q 0.000340167
3 *2472:B2 *2975:D 0.000183298
4 *2472:B2 *2975:GATE_N 3.97657e-05
5 *2472:B2 *2989:D 1.24368e-05
6 *2472:B2 *871:118 0.000197186
7 *2472:A1 *2472:B2 5.5319e-05
8 *2492:A1 *2472:B2 0.000136682
*RES
1 *2989:Q *2472:B2 25.7429 
*END

*D_NET *359 0.0011284
*CONN
*I *2580:A1 I *D sky130_fd_sc_hd__a22o_1
*I *2999:Q O *D sky130_fd_sc_hd__dlxtn_1
*CAP
1 *2580:A1 0.000427685
2 *2999:Q 0.000427685
3 *2580:A1 *2580:B1 1.93007e-05
4 *2580:A1 *2985:D 9.94037e-05
5 *2580:A1 *831:34 7.85137e-05
6 *2580:B2 *2580:A1 7.58079e-05
*RES
1 *2999:Q *2580:A1 33.7071 
*END

*D_NET *360 0.00063417
*CONN
*I *2592:B2 I *D sky130_fd_sc_hd__a221o_1
*I *3000:Q O *D sky130_fd_sc_hd__dlxtn_1
*CAP
1 *2592:B2 0.00022768
2 *3000:Q 0.00022768
3 *2592:B2 *2592:C1 0.000122657
4 *2592:B2 *2998:GATE_N 2.02508e-05
5 *2592:B2 *3178:A 6.26774e-06
6 *2592:A1 *2592:B2 2.96348e-05
*RES
1 *3000:Q *2592:B2 31.1402 
*END

*D_NET *361 0.000356123
*CONN
*I *2603:B2 I *D sky130_fd_sc_hd__a221o_1
*I *3001:Q O *D sky130_fd_sc_hd__dlxtn_1
*CAP
1 *2603:B2 0.000152324
2 *3001:Q 0.000152324
3 *2603:B2 *2603:B1 5.7661e-06
4 *2603:B2 *2603:C1 4.57094e-05
*RES
1 *3001:Q *2603:B2 21.3545 
*END

*D_NET *362 0.000961109
*CONN
*I *2612:A1 I *D sky130_fd_sc_hd__a22o_1
*I *3002:Q O *D sky130_fd_sc_hd__dlxtn_1
*CAP
1 *2612:A1 0.000229856
2 *3002:Q 0.000229856
3 *2612:A1 *2612:A2 2.49484e-05
4 *2612:A1 *2612:B1 5.59013e-05
5 *2612:A1 *3175:A 0.000220608
6 *2612:A1 *3208:A 0.000100831
7 *2612:A1 *899:74 9.91086e-05
*RES
1 *3002:Q *2612:A1 31.725 
*END

*D_NET *363 0.000150921
*CONN
*I *2624:B2 I *D sky130_fd_sc_hd__a22o_1
*I *3003:Q O *D sky130_fd_sc_hd__dlxtn_1
*CAP
1 *2624:B2 6.26424e-05
2 *3003:Q 6.26424e-05
3 *2624:B2 *2624:B1 3.99614e-06
4 *2624:B2 *2625:A2 1.55885e-05
5 *2624:B2 *904:121 6.05161e-06
*RES
1 *3003:Q *2624:B2 19.8679 
*END

*D_NET *364 0.00150634
*CONN
*I *2635:A1 I *D sky130_fd_sc_hd__a22o_1
*I *3004:Q O *D sky130_fd_sc_hd__dlxtn_1
*CAP
1 *2635:A1 0.000509469
2 *3004:Q 0.000509469
3 *2635:A1 *2635:B1 2.89016e-05
4 *2635:A1 *2636:B1 3.25078e-05
5 *2635:A1 *837:85 5.94896e-06
6 *2635:A1 *842:98 0.000114655
7 *2635:A1 *842:100 2.14658e-05
8 *2635:A1 *934:20 0.000135028
9 *2635:B2 *2635:A1 6.05161e-06
10 *2636:B2 *2635:A1 0.000133596
11 *2637:A1 *2635:A1 9.25014e-06
*RES
1 *3004:Q *2635:A1 34.6536 
*END

*D_NET *365 0.000467803
*CONN
*I *2483:A1 I *D sky130_fd_sc_hd__a221o_1
*I *2990:Q O *D sky130_fd_sc_hd__dlxtn_1
*CAP
1 *2483:A1 0.000146417
2 *2990:Q 0.000146417
3 *2483:A1 *2483:C1 2.14658e-05
4 *2483:A1 *2484:C1 5.52238e-05
5 *2483:A1 *2990:D 1.24368e-05
6 *2483:A1 *889:16 2.89016e-05
7 *2483:A1 *889:28 4.406e-05
8 *2483:B2 *2483:A1 1.28809e-05
*RES
1 *2990:Q *2483:A1 21.2071 
*END

*D_NET *366 0.00105373
*CONN
*I *2492:B2 I *D sky130_fd_sc_hd__a22o_1
*I *2991:Q O *D sky130_fd_sc_hd__dlxtn_1
*CAP
1 *2492:B2 0.000484913
2 *2991:Q 0.000484913
3 *2492:B2 *2989:D 8.39e-05
4 *2492:B2 *818:20 0
5 *2492:B2 *831:40 0
*RES
1 *2991:Q *2492:B2 35.9036 
*END

*D_NET *367 0.000390724
*CONN
*I *2505:B2 I *D sky130_fd_sc_hd__a22o_1
*I *2992:Q O *D sky130_fd_sc_hd__dlxtn_1
*CAP
1 *2505:B2 0.000167747
2 *2992:Q 0.000167747
3 *2505:B2 *818:100 0
4 *2505:B2 *926:88 0
5 *2505:B2 *932:132 5.52302e-05
*RES
1 *2992:Q *2505:B2 30.0821 
*END

*D_NET *368 0.00179728
*CONN
*I *2516:B2 I *D sky130_fd_sc_hd__a221o_1
*I *2993:Q O *D sky130_fd_sc_hd__dlxtn_1
*CAP
1 *2516:B2 0.000412612
2 *2993:Q 0.000412612
3 *2516:B2 *3175:A 0.000394975
4 *2516:B2 *3224:A 0.000338351
5 *2516:B2 *819:46 1.41324e-05
6 *2516:B2 *837:39 8.43535e-06
7 *2516:B2 *848:58 0.00012401
8 *2516:B2 *905:16 1.38323e-05
9 *2516:A1 *2516:B2 7.83174e-05
*RES
1 *2993:Q *2516:B2 36.0821 
*END

*D_NET *369 0.000334652
*CONN
*I *2527:A1 I *D sky130_fd_sc_hd__a22o_1
*I *2994:Q O *D sky130_fd_sc_hd__dlxtn_1
*CAP
1 *2527:A1 0.000117646
2 *2994:Q 0.000117646
3 *2527:A1 *2866:GATE_N 9.93602e-05
*RES
1 *2994:Q *2527:A1 21.225 
*END

*D_NET *370 0.000920052
*CONN
*I *2537:B2 I *D sky130_fd_sc_hd__a221o_1
*I *2995:Q O *D sky130_fd_sc_hd__dlxtn_1
*CAP
1 *2537:B2 0.000266637
2 *2995:Q 0.000266637
3 *2537:B2 *2527:A2 2.74721e-05
4 *2537:B2 *2537:C1 1.69961e-05
5 *2537:B2 *2602:A2 5.31122e-05
6 *2537:B2 *2995:D 0
7 *2537:B2 *819:54 0.000226412
8 *2537:B2 *834:16 3.42301e-05
9 *2537:A1 *2537:B2 2.85551e-05
*RES
1 *2995:Q *2537:B2 32.0107 
*END

*D_NET *371 0.000412302
*CONN
*I *2547:B2 I *D sky130_fd_sc_hd__a22o_1
*I *2996:Q O *D sky130_fd_sc_hd__dlxtn_1
*CAP
1 *2547:B2 0.000140326
2 *2996:Q 0.000140326
3 *2547:B2 *2868:GATE_N 0.000119547
4 *2547:B2 *836:60 6.05161e-06
5 *2547:B2 *904:64 6.05161e-06
*RES
1 *2996:Q *2547:B2 30.1893 
*END

*D_NET *372 0.0012239
*CONN
*I *2558:B2 I *D sky130_fd_sc_hd__a221o_1
*I *2997:Q O *D sky130_fd_sc_hd__dlxtn_1
*CAP
1 *2558:B2 0.000247455
2 *2997:Q 0.000247455
3 *2558:B2 *2539:C1 0.000135028
4 *2558:B2 *2540:A 0.000170887
5 *2558:B2 *2558:C1 1.38323e-05
6 *2558:B2 *2603:B1 0.000308563
7 *2558:B2 *3132:A 7.22508e-05
8 *2558:B2 *904:44 2.84269e-05
*RES
1 *2997:Q *2558:B2 33.3143 
*END

*D_NET *373 0.000287002
*CONN
*I *2570:B2 I *D sky130_fd_sc_hd__a221o_1
*I *2998:Q O *D sky130_fd_sc_hd__dlxtn_1
*CAP
1 *2570:B2 7.79549e-05
2 *2998:Q 7.79549e-05
3 *2570:B2 *2570:B1 5.47092e-05
4 *2570:B2 *2591:A2 7.63827e-05
*RES
1 *2998:Q *2570:B2 20.9438 
*END

*D_NET *374 0.00270673
*CONN
*I *2459:A I *D sky130_fd_sc_hd__and2_1
*I *2460:A I *D sky130_fd_sc_hd__and2_1
*I *2461:A I *D sky130_fd_sc_hd__and2_1
*I *2838:Q O *D sky130_fd_sc_hd__dlxtn_1
*CAP
1 *2459:A 0
2 *2460:A 0.000137225
3 *2461:A 0
4 *2838:Q 0.000227883
5 *374:25 0.00048783
6 *374:10 0.000578488
7 *2460:A *2676:A0 0.000150265
8 *2460:A *973:12 5.47743e-05
9 *2460:A *1009:22 0
10 *374:10 *2838:D 0.000104301
11 *374:10 *3336:A 1.17968e-05
12 *374:10 *505:18 0.000140011
13 *374:10 *965:12 1.00375e-05
14 *374:10 *965:33 8.49614e-05
15 *374:10 *1009:22 0
16 *374:25 *2766:A2 5.04589e-05
17 *374:25 *880:102 4.13595e-05
18 *374:25 *965:33 5.0725e-05
19 PADDR[0] *374:10 0
20 *2459:B *2460:A 7.07952e-05
21 *2459:B *374:25 9.60875e-05
22 *2461:B *374:10 1.02504e-05
23 *2461:B *374:25 0.000150625
24 *3263:A *2460:A 2.26973e-05
25 *3280:A *2460:A 0.000226158
*RES
1 *2838:Q *374:10 19.1214 
2 *374:10 *2461:A 13.8 
3 *374:10 *374:25 11.1071 
4 *374:25 *2460:A 23.2821 
5 *374:25 *2459:A 9.3 
*END

*D_NET *375 0.00151206
*CONN
*I *2453:A I *D sky130_fd_sc_hd__and2_1
*I *2839:Q O *D sky130_fd_sc_hd__dlxtn_1
*CAP
1 *2453:A 0.000458965
2 *2839:Q 0.000458965
3 *2453:A *2449:B1 3.15101e-05
4 *2453:A *2450:B 9.87983e-06
5 *2453:A *2452:B 5.22701e-05
6 *2453:A *2689:A 0.000193833
7 *2453:A *2843:D 4.25809e-05
8 *2453:A *3336:A 7.6644e-05
9 *2453:A *478:35 5.10822e-05
10 *2453:A *507:12 5.66564e-05
11 *2453:A *507:29 5.13214e-05
12 *2453:A *766:12 0
13 *2453:A *766:27 2.22999e-05
14 *2453:A *767:10 6.05161e-06
15 *2453:A *965:12 0
*RES
1 *2839:Q *2453:A 36.8143 
*END

*D_NET *376 0.00484779
*CONN
*I *3183:A I *D sky130_fd_sc_hd__buf_1
*I *3182:A I *D sky130_fd_sc_hd__clkbuf_2
*I *2658:X O *D sky130_fd_sc_hd__mux2_1
*CAP
1 *3183:A 0.000604925
2 *3182:A 0.000179369
3 *2658:X 0.000149421
4 *376:8 0.000933715
5 *3182:A *2667:A0 3.25247e-05
6 *3182:A *875:10 3.25247e-05
7 *3183:A *2467:A2 0.000177821
8 *3183:A *2588:A2 3.28686e-05
9 *3183:A *2596:B1 0.000118023
10 *3183:A *2667:A0 7.80714e-06
11 *3183:A *2667:S 2.01359e-05
12 *3183:A *2845:GATE_N 0.000364062
13 *3183:A *838:61 3.59911e-05
14 *3183:A *855:152 0.000173384
15 *3183:A *871:92 0.000161211
16 *3183:A *875:10 1.8041e-05
17 *3183:A *875:30 0
18 *3183:A *882:36 5.36212e-05
19 *3183:A *894:29 0
20 *3183:A *894:73 0.000107797
21 *376:8 *2667:A0 0.000117543
22 *376:8 *610:16 0.000830154
23 *376:8 *856:38 0.000560844
24 *2588:A1 *3183:A 2.16721e-05
25 *3295:A *3182:A 9.90367e-05
26 *3309:A *3182:A 1.52978e-05
*RES
1 *2658:X *376:8 21.7286 
2 *376:8 *3182:A 17.3 
3 *376:8 *3183:A 27.7821 
*END

*D_NET *377 0.0097504
*CONN
*I *3163:A I *D sky130_fd_sc_hd__buf_1
*I *3162:A I *D sky130_fd_sc_hd__clkbuf_2
*I *2668:X O *D sky130_fd_sc_hd__mux2_1
*CAP
1 *3163:A 0.000156142
2 *3162:A 0.000593138
3 *2668:X 0.00143377
4 *377:14 0.00218305
5 *3162:A *2579:C1 0.000527318
6 *3162:A *2584:A 2.95726e-05
7 *3162:A *3049:GATE_N 9.90367e-05
8 *3162:A *3215:A 0.000193814
9 *3162:A *811:78 7.36794e-05
10 *3162:A *827:94 7.05112e-05
11 *3162:A *853:102 0.000186662
12 *3162:A *860:10 4.88546e-05
13 *3162:A *914:6 0.000107985
14 *3162:A *914:97 8.02593e-05
15 *3163:A *2919:D 0.000180412
16 *3163:A *3063:GATE_N 1.01912e-05
17 *3163:A *807:112 5.71309e-05
18 *3163:A *825:18 5.64742e-05
19 *3163:A *854:10 0.000146896
20 *377:14 *2669:S 7.29922e-05
21 *377:14 *2919:D 5.88389e-05
22 *377:14 *2919:GATE_N 0.000219838
23 *377:14 *2928:D 7.55185e-05
24 *377:14 *2928:GATE_N 0
25 *377:14 *2934:D 1.23973e-05
26 *377:14 *2944:D 0.000116911
27 *377:14 *3039:D 0.000531148
28 *377:14 *3062:GATE_N 3.92854e-05
29 *377:14 *3164:A 0.000268409
30 *377:14 *3179:A 0.000309344
31 *377:14 *385:12 0
32 *377:14 *807:73 0.000101775
33 *377:14 *807:112 1.69159e-05
34 *377:14 *827:77 0
35 *377:14 *829:55 0.000200811
36 *377:14 *829:59 0.000386833
37 *377:14 *829:65 0
38 *377:14 *829:81 0
39 *377:14 *855:121 0.000138634
40 *377:14 *871:57 0.000317638
41 *377:14 *882:65 0.000161769
42 *2579:B2 *3162:A 0.000486447
*RES
1 *2668:X *377:14 45.2286 
2 *377:14 *3162:A 39.8 
3 *377:14 *3163:A 18.175 
*END

*D_NET *378 0.00128843
*CONN
*I *3161:A I *D sky130_fd_sc_hd__dlymetal6s2s_1
*I *2669:X O *D sky130_fd_sc_hd__mux2_1
*CAP
1 *3161:A 0.000456522
2 *2669:X 0.000456522
3 *3161:A *2573:A 2.93247e-05
4 *3161:A *2590:A2 6.32424e-05
5 *3161:A *2590:B1 2.40379e-05
6 *3161:A *2590:C1 5.42698e-05
7 *3161:A *2595:A 5.52238e-05
8 *3161:A *3164:A 7.80851e-06
9 *3161:A *855:20 0.000127439
10 *2468:B2 *3161:A 0
11 *2590:B2 *3161:A 1.40399e-05
*RES
1 *2669:X *3161:A 34.9571 
*END

*D_NET *379 0.00240141
*CONN
*I *3159:A I *D sky130_fd_sc_hd__dlymetal6s2s_1
*I *2670:X O *D sky130_fd_sc_hd__mux2_1
*CAP
1 *3159:A 0.000448567
2 *2670:X 0.000448567
3 *3159:A *2553:B 0.000211205
4 *3159:A *2648:B 0.000380886
5 *3159:A *2649:B 0.00010326
6 *3159:A *2670:S 1.76266e-05
7 *3159:A *426:10 0.000645725
8 *3159:A *641:8 0
9 *3159:A *809:35 0.000135967
10 *3159:A *996:26 9.60337e-06
*RES
1 *2670:X *3159:A 41.3857 
*END

*D_NET *380 0.0064927
*CONN
*I *3157:A I *D sky130_fd_sc_hd__dlymetal6s2s_1
*I *2671:X O *D sky130_fd_sc_hd__mux2_1
*CAP
1 *3157:A 0.00144282
2 *2671:X 0.000934578
3 *380:14 0.0023774
4 *3157:A *2401:A 1.92905e-05
5 *3157:A *2405:A 0
6 *3157:A *2762:A1 0.000292
7 *3157:A *2762:B1 0
8 *3157:A *2762:B2 0
9 *3157:A *2844:GATE_N 0
10 *3157:A *3104:D 0.000218123
11 *3157:A *3233:A 5.66157e-05
12 *3157:A *3235:A 0
13 *3157:A *3370:A 0
14 *3157:A *383:12 0
15 *3157:A *477:18 2.59355e-05
16 *3157:A *782:10 0
17 *3157:A *801:53 0
18 *3157:A *830:102 6.71705e-05
19 *3157:A *848:23 0
20 *3157:A *867:90 2.32862e-05
21 *3157:A *941:38 5.71472e-05
22 *3157:A *941:49 2.14658e-05
23 *3157:A *944:10 3.52194e-05
24 *3157:A *945:12 0.000247806
25 *3157:A *945:42 4.16207e-05
26 *3157:A *952:12 5.43587e-05
27 *3157:A *952:18 6.19181e-05
28 *3157:A *952:28 0
29 *3157:A *952:34 0
30 *3157:A *952:36 0
31 *3157:A *952:38 0
32 *3157:A *952:42 0
33 *380:14 *3101:CLK 0
34 *380:14 *3102:CLK 1.92905e-05
35 *380:14 *3102:D 0.00045506
36 *380:14 *386:14 4.15914e-05
*RES
1 *2671:X *380:14 35.4607 
2 *380:14 *3157:A 43.3179 
*END

*D_NET *381 0.00867182
*CONN
*I *3155:A I *D sky130_fd_sc_hd__buf_1
*I *3154:A I *D sky130_fd_sc_hd__clkbuf_2
*I *2672:X O *D sky130_fd_sc_hd__mux2_1
*CAP
1 *3155:A 0.000695423
2 *3154:A 0
3 *2672:X 0.0013593
4 *381:12 0.000695423
5 *381:10 0.0013593
6 *3155:A *2623:B1 0.000446603
7 *3155:A *2875:D 1.00733e-05
8 *3155:A *3049:D 0.000361914
9 *3155:A *3081:GATE_N 0.000258741
10 *3155:A *499:22 0.000227532
11 *3155:A *844:95 5.63071e-05
12 *3155:A *849:19 0.000181796
13 *381:10 *1044:DIODE 2.27416e-05
14 *381:10 *2504:B1 0
15 *381:10 *2507:B 8.00806e-05
16 *381:10 *2572:B1 0
17 *381:10 *2573:C 0
18 *381:10 *2591:A2 8.15095e-05
19 *381:10 *3096:GATE_N 0.000108848
20 *381:10 *384:12 0
21 *381:10 *805:34 0.000137485
22 *381:10 *805:36 0.000305867
23 *381:10 *805:65 2.11543e-05
24 *381:10 *805:84 0.000292587
25 *381:10 *855:20 1.03968e-05
26 *381:10 *898:127 0
27 *381:10 *920:29 0.000340795
28 *381:10 *920:31 0.000965107
29 *2570:A1 *381:10 2.05938e-05
30 *2600:B2 *3155:A 0.000358977
31 *2601:B2 *3155:A 0.000273269
*RES
1 *2672:X *381:10 46.2464 
2 *381:10 *381:12 4.5 
3 *381:12 *3154:A 9.3 
4 *381:12 *3155:A 27.9429 
*END

*D_NET *382 0.00348812
*CONN
*I *3153:A I *D sky130_fd_sc_hd__clkbuf_1
*I *3152:A I *D sky130_fd_sc_hd__clkbuf_2
*I *2673:X O *D sky130_fd_sc_hd__mux2_1
*CAP
1 *3153:A 0
2 *3152:A 5.59289e-05
3 *2673:X 0.000739991
4 *382:14 0.00079592
5 *3152:A *3084:GATE_N 0.00014734
6 *3152:A *390:10 0.000145618
7 *382:14 *2860:D 0.000147204
8 *382:14 *3084:GATE_N 9.80173e-05
9 *382:14 *390:10 0.000668534
10 *382:14 *822:36 7.83587e-05
11 *382:14 *843:27 8.32242e-05
12 *382:14 *882:20 0.000144127
13 *382:14 *911:22 0.000383859
*RES
1 *2673:X *382:14 37.8179 
2 *382:14 *3152:A 20.2464 
3 *382:14 *3153:A 9.3 
*END

*D_NET *383 0.00758856
*CONN
*I *3181:A I *D sky130_fd_sc_hd__dlymetal6s2s_1
*I *2659:X O *D sky130_fd_sc_hd__mux2_1
*CAP
1 *3181:A 0
2 *2659:X 0.000274027
3 *383:12 0.00197993
4 *383:8 0.00225396
5 *383:8 *2659:A0 3.40043e-05
6 *383:8 *3101:CLK 5.52238e-05
7 *383:8 *3101:D 0.000126629
8 *383:12 *3232:A 0
9 *383:12 *3370:A 0
10 *383:12 *823:38 3.07555e-05
11 *383:12 *834:68 9.21316e-05
12 *383:12 *847:52 0.000159935
13 *383:12 *867:76 4.22135e-06
14 *383:12 *883:127 0
15 *383:12 *921:26 3.93431e-05
16 *383:12 *937:17 0
17 *383:12 *939:69 0.000139653
18 *383:12 *939:73 0.000244143
19 *383:12 *939:104 0.000236099
20 *383:12 *944:16 0.000102906
21 *383:12 *944:18 0.000121573
22 *383:12 *944:20 0.000245342
23 *383:12 *944:26 0.000197991
24 *383:12 *952:12 0
25 *383:12 *952:18 0
26 *383:12 *952:28 8.77116e-05
27 *383:12 *952:34 0.000228861
28 *383:12 *952:36 0.00012798
29 *383:12 *952:38 7.4826e-05
30 *383:12 *952:42 0.00013121
31 *2615:A1 *383:12 9.67416e-05
32 *2615:B2 *383:12 0.000503361
33 *3157:A *383:12 0
*RES
1 *2659:X *383:8 17.6214 
2 *383:8 *383:12 49.8571 
3 *383:12 *3181:A 9.3 
*END

*D_NET *384 0.00986514
*CONN
*I *3179:A I *D sky130_fd_sc_hd__buf_1
*I *3178:A I *D sky130_fd_sc_hd__buf_2
*I *2660:X O *D sky130_fd_sc_hd__mux2_1
*CAP
1 *3179:A 0.00110327
2 *3178:A 0.00204994
3 *2660:X 0.000410796
4 *384:12 0.00356401
5 *3178:A *1043:DIODE 0.000135028
6 *3178:A *2474:B 5.33005e-05
7 *3178:A *2475:B2 0.000101825
8 *3178:A *2495:B1 1.55885e-05
9 *3178:A *2495:C1 0.000318101
10 *3178:A *2592:A2 7.13226e-06
11 *3178:A *2592:B1 8.45697e-05
12 *3178:A *2595:A 0.000305933
13 *3178:A *2595:B 9.90367e-05
14 *3179:A *2468:B1 2.9386e-05
15 *3179:A *2469:C1 5.71472e-05
16 *3179:A *2595:A 4.22736e-05
17 *3179:A *2936:D 8.00315e-05
18 *3179:A *2950:D 3.72932e-05
19 *3179:A *3071:GATE_N 1.90936e-05
20 *3179:A *807:73 0.000160032
21 *3179:A *825:104 0.000434813
22 *3179:A *829:65 4.12317e-05
23 *3179:A *855:152 2.51343e-06
24 *384:12 *2573:C 0
25 *384:12 *2672:A0 9.80405e-05
26 *384:12 *2672:S 0
27 *384:12 *2925:GATE_N 5.18051e-05
28 *384:12 *827:96 2.58997e-05
29 *384:12 *827:107 0.000158519
30 *384:12 *882:69 5.52238e-05
31 *384:12 *999:18 7.69776e-06
32 *2592:B2 *3178:A 6.26774e-06
33 *377:14 *3179:A 0.000309344
34 *381:10 *384:12 0
*RES
1 *2660:X *384:12 26.2464 
2 *384:12 *3178:A 40.2821 
3 *384:12 *3179:A 36.3357 
*END

*D_NET *385 0.00496652
*CONN
*I *3177:A I *D sky130_fd_sc_hd__buf_1
*I *3176:A I *D sky130_fd_sc_hd__clkbuf_2
*I *2661:X O *D sky130_fd_sc_hd__mux2_1
*CAP
1 *3177:A 0.000377668
2 *3176:A 0
3 *2661:X 0.000872962
4 *385:12 0.00125063
5 *3177:A *2546:A2 0.000744033
6 *3177:A *3072:D 0.000178425
7 *3177:A *3072:GATE_N 9.71197e-05
8 *3177:A *585:10 0.000150618
9 *3177:A *829:53 2.59355e-05
10 *3177:A *869:6 9.22103e-06
11 *3177:A *869:16 2.64832e-05
12 *3177:A *892:10 0.000148903
13 *3177:A *914:16 9.3111e-05
14 *385:12 *2546:A2 0
15 *385:12 *2567:A2 0.000188571
16 *385:12 *2568:A2 1.94945e-05
17 *385:12 *2568:C1 0
18 *385:12 *2589:A2 6.2589e-06
19 *385:12 *2911:D 0
20 *385:12 *2944:D 0
21 *385:12 *630:20 6.39829e-05
22 *385:12 *807:71 5.41794e-05
23 *385:12 *809:72 0
24 *385:12 *829:81 0.00010096
25 *385:12 *871:92 3.7671e-05
26 *385:12 *911:99 0.000118584
27 *385:12 *916:27 6.88463e-06
28 *385:12 *916:29 4.43836e-05
29 *385:12 *916:31 1.23973e-05
30 *2490:A1 *385:12 5.10822e-05
31 *2490:B2 *385:12 5.59013e-05
32 *2502:B2 *3177:A 5.71472e-05
33 *2567:A1 *385:12 1.67662e-05
34 *2568:A1 *385:12 0.000150263
35 *2568:B2 *385:12 6.87839e-06
36 *377:14 *385:12 0
*RES
1 *2661:X *385:12 36.0679 
2 *385:12 *3176:A 9.3 
3 *385:12 *3177:A 29.55 
*END

*D_NET *386 0.0101049
*CONN
*I *3175:A I *D sky130_fd_sc_hd__clkbuf_2
*I *2662:X O *D sky130_fd_sc_hd__mux2_1
*CAP
1 *3175:A 0.00113823
2 *2662:X 0.00178262
3 *386:14 0.00292085
4 *3175:A *2411:A 0.00010946
5 *3175:A *2411:B 1.95646e-05
6 *3175:A *2411:C 5.33005e-05
7 *3175:A *2411:D_N 6.87574e-05
8 *3175:A *2993:D 5.33005e-05
9 *3175:A *2993:GATE_N 4.17527e-05
10 *3175:A *3002:D 9.80173e-05
11 *3175:A *486:8 0.000226078
12 *3175:A *487:10 0.000393936
13 *3175:A *496:14 7.49387e-06
14 *3175:A *819:29 0.000105291
15 *3175:A *819:46 9.90367e-05
16 *3175:A *867:8 0.000186662
17 *3175:A *867:76 1.62539e-05
18 *3175:A *940:90 4.90703e-05
19 *3175:A *943:32 3.23206e-05
20 *3175:A *943:39 0.000437762
21 *386:14 *2659:A1 0
22 *386:14 *2783:A2 1.60269e-05
23 *386:14 *2784:C 4.78466e-05
24 *386:14 *2793:B2 0.000328556
25 *386:14 *2797:A2 3.81e-05
26 *386:14 *3101:CLK 0
27 *386:14 *476:8 4.61002e-05
28 *386:14 *753:23 0
29 *386:14 *771:46 0
30 *386:14 *771:59 0
31 *386:14 *771:74 0
32 *386:14 *771:83 0
33 *386:14 *801:76 0
34 *386:14 *867:76 0.000189181
35 *386:14 *938:12 5.01213e-05
36 *386:14 *938:25 0
37 *386:14 *939:12 0.000546771
38 *386:14 *939:35 0
39 *386:14 *939:52 0
40 *386:14 *940:90 2.70899e-05
41 *386:14 *945:59 0.000196269
42 *386:14 *987:16 0.000121909
43 *2516:B2 *3175:A 0.000394975
44 *2612:A1 *3175:A 0.000220608
45 *380:14 *386:14 4.15914e-05
*RES
1 *2662:X *386:14 49.9161 
2 *386:14 *3175:A 39.4875 
*END

*D_NET *387 0.000931705
*CONN
*I *3173:A I *D sky130_fd_sc_hd__buf_1
*I *3172:A I *D sky130_fd_sc_hd__buf_2
*I *2663:X O *D sky130_fd_sc_hd__mux2_1
*CAP
1 *3173:A 0.000190036
2 *3172:A 0.000138773
3 *2663:X 0
4 *387:4 0.000328809
5 *3172:A *2646:A 0.000139202
6 *3173:A *2487:A 4.71964e-05
7 *3173:A *2619:B 5.26184e-05
8 *3173:A *2646:A 2.90184e-05
9 *3173:A *883:53 6.05161e-06
*RES
1 *2663:X *387:4 9.3 
2 *387:4 *3172:A 12.1036 
3 *387:4 *3173:A 21.6036 
*END

*D_NET *388 0.00304025
*CONN
*I *3171:A I *D sky130_fd_sc_hd__clkbuf_2
*I *2664:X O *D sky130_fd_sc_hd__mux2_1
*CAP
1 *3171:A 0.000532711
2 *2664:X 0.000532711
3 *3171:A *2562:B1 0
4 *3171:A *2599:C1 0
5 *3171:A *3134:A 0.000360617
6 *3171:A *440:37 0
7 *3171:A *809:35 1.09232e-05
8 *3171:A *822:14 0.000566292
9 *3171:A *858:20 1.18064e-05
10 *3171:A *883:53 1.24469e-05
11 *3171:A *883:57 0.000102545
12 *3171:A *887:104 0.000910198
13 *3171:A *909:116 0
*RES
1 *2664:X *3171:A 43.5107 
*END

*D_NET *389 0.00697495
*CONN
*I *3169:A I *D sky130_fd_sc_hd__dlymetal6s2s_1
*I *2665:X O *D sky130_fd_sc_hd__mux2_1
*CAP
1 *3169:A 0.00261479
2 *2665:X 0.00261479
3 *3169:A *2475:B2 0
4 *3169:A *2508:B2 0.000496894
5 *3169:A *2552:B2 0.000497857
6 *3169:A *2568:A2 0.000156165
7 *3169:A *585:10 2.21972e-05
8 *3169:A *809:72 5.7836e-06
9 *3169:A *892:10 2.06112e-05
10 *3169:A *999:18 0.000545867
*RES
1 *2665:X *3169:A 47.8973 
*END

*D_NET *390 0.00833643
*CONN
*I *3167:A I *D sky130_fd_sc_hd__clkbuf_2
*I *2666:X O *D sky130_fd_sc_hd__mux2_1
*CAP
1 *3167:A 4.21387e-05
2 *2666:X 0.000171111
3 *390:10 0.00202176
4 *390:8 0.00215073
5 *3167:A *2640:B1 1.90303e-05
6 *3167:A *859:30 9.41642e-05
7 *390:8 *2815:D 1.92905e-05
8 *390:8 *2815:GATE_N 3.14078e-05
9 *390:8 *846:28 5.74499e-06
10 *390:8 *882:28 3.18676e-05
11 *390:10 *2543:A2 0.000374324
12 *390:10 *2574:B1 0
13 *390:10 *2574:B2 0.000161919
14 *390:10 *2575:B 7.83587e-05
15 *390:10 *2631:A2 6.77187e-05
16 *390:10 *2651:B 0.000240484
17 *390:10 *3055:GATE_N 0
18 *390:10 *3084:GATE_N 0.000121337
19 *390:10 *3120:A 0.000141013
20 *390:10 *3184:A 1.90936e-05
21 *390:10 *807:12 0.000327647
22 *390:10 *807:20 7.11735e-05
23 *390:10 *822:36 0.000407653
24 *390:10 *822:44 0.000376534
25 *390:10 *843:27 7.79781e-06
26 *390:10 *882:28 0
27 *390:10 *891:34 7.69776e-06
28 *390:10 *892:95 0
29 *390:10 *911:22 0
30 *390:10 *911:26 0.000366624
31 *390:10 *915:62 8.34418e-05
32 *2565:A1 *390:10 1.80989e-05
33 *2566:B2 *390:10 0
34 *2631:A1 *390:10 6.41149e-05
35 *3152:A *390:10 0.000145618
36 *382:14 *390:10 0.000668534
*RES
1 *2666:X *390:8 15.9786 
2 *390:8 *390:10 47.4821 
3 *390:10 *3167:A 14.7464 
*END

*D_NET *391 0.00384181
*CONN
*I *3165:A I *D sky130_fd_sc_hd__buf_1
*I *3164:A I *D sky130_fd_sc_hd__clkbuf_2
*I *2667:X O *D sky130_fd_sc_hd__mux2_1
*CAP
1 *3165:A 2.2045e-05
2 *3164:A 0.000522697
3 *2667:X 0.000479512
4 *391:8 0.00102425
5 *3164:A *2669:A1 5.01213e-05
6 *3164:A *2669:S 0
7 *3164:A *3062:GATE_N 9.90367e-05
8 *3164:A *610:16 3.16973e-05
9 *3164:A *829:65 1.10866e-05
10 *3164:A *829:81 6.42242e-05
11 *3164:A *855:20 0.000110441
12 *3164:A *856:8 0.000399835
13 *3164:A *856:38 3.48705e-05
14 *3164:A *882:65 0.00018372
15 *3165:A *856:8 5.04841e-06
16 *391:8 *856:38 0.000426049
17 *2468:B2 *3164:A 0
18 *2568:B2 *3164:A 0.00010096
19 *3161:A *3164:A 7.80851e-06
20 *377:14 *3164:A 0.000268409
*RES
1 *2667:X *391:8 18.4786 
2 *391:8 *3164:A 31.3179 
3 *391:8 *3165:A 9.72857 
*END

*D_NET *392 0.00100495
*CONN
*I *2838:D I *D sky130_fd_sc_hd__dlxtn_1
*I *2463:X O *D sky130_fd_sc_hd__or2_1
*CAP
1 *2838:D 0.000220737
2 *2463:X 0.000220737
3 *2838:D *2448:B 2.8266e-06
4 *2838:D *3336:A 0.000125731
5 *2838:D *431:10 0.000228558
6 *2838:D *505:18 1.40849e-05
7 *2838:D *885:106 1.92905e-05
8 *2838:D *1007:22 6.86792e-05
9 *374:10 *2838:D 0.000104301
*RES
1 *2463:X *2838:D 33.0643 
*END

*D_NET *393 0.000766218
*CONN
*I *2822:D I *D sky130_fd_sc_hd__dlxtn_1
*I *2476:Y O *D sky130_fd_sc_hd__nor2_1
*CAP
1 *2822:D 0.000158253
2 *2476:Y 0.000158253
3 *2822:D *2476:B 0.000119135
4 *2822:D *3349:A 5.52238e-05
5 *2822:D *3362:A 9.56968e-05
6 *2822:D *3364:A 0.000179656
*RES
1 *2476:Y *2822:D 32.0286 
*END

*D_NET *394 0.000327723
*CONN
*I *2832:D I *D sky130_fd_sc_hd__dlxtn_1
*I *2586:Y O *D sky130_fd_sc_hd__nor2_1
*CAP
1 *2832:D 9.62885e-05
2 *2586:Y 9.62885e-05
3 *2832:D *431:49 5.35423e-05
4 *2832:D *884:47 8.16036e-05
*RES
1 *2586:Y *2832:D 30.0821 
*END

*D_NET *395 0.00120294
*CONN
*I *2833:D I *D sky130_fd_sc_hd__dlxtn_1
*I *2597:Y O *D sky130_fd_sc_hd__nor2_1
*CAP
1 *2833:D 0.000282566
2 *2597:Y 0.000282566
3 *2833:D *2653:A 9.25014e-06
4 *2833:D *2824:D 1.72731e-05
5 *2833:D *2833:GATE_N 2.79421e-05
6 *2833:D *3322:A 0.000197984
7 *2833:D *431:57 8.15095e-05
8 *2833:D *431:61 9.25014e-06
9 *2833:D *886:41 0.000195562
10 *2833:D *1024:18 1.58163e-05
11 *3308:A *2833:D 8.32171e-05
*RES
1 *2597:Y *2833:D 42.3679 
*END

*D_NET *396 0.00114932
*CONN
*I *2834:D I *D sky130_fd_sc_hd__dlxtn_1
*I *2608:Y O *D sky130_fd_sc_hd__nor2_1
*CAP
1 *2834:D 0.000433453
2 *2608:Y 0.000433453
3 *2834:D *2608:A 3.14163e-05
4 *2834:D *2608:B 3.69047e-06
5 *2834:D *2820:D 1.97756e-05
6 *2834:D *551:12 2.88018e-06
7 *2834:D *884:39 0.000224652
8 *2834:D *1040:18 0
*RES
1 *2608:Y *2834:D 33.7786 
*END

*D_NET *397 0.00102161
*CONN
*I *2835:D I *D sky130_fd_sc_hd__dlxtn_1
*I *2619:Y O *D sky130_fd_sc_hd__nor2_1
*CAP
1 *2835:D 0.000491223
2 *2619:Y 0.000491223
3 *2835:D *2487:A 0
4 *2835:D *813:30 3.91668e-05
5 *2835:D *885:118 0
*RES
1 *2619:Y *2835:D 35.9036 
*END

*D_NET *398 0.00151174
*CONN
*I *2836:D I *D sky130_fd_sc_hd__dlxtn_1
*I *2630:Y O *D sky130_fd_sc_hd__nor2_1
*CAP
1 *2836:D 0.000302641
2 *2630:Y 0.000302641
3 *2836:D *2542:A 5.58941e-05
4 *2836:D *2641:A 1.08359e-05
5 *2836:D *431:31 0.000165269
6 *2836:D *431:33 0.000191877
7 *2836:D *431:35 0.000129868
8 *2836:D *884:10 0.00027438
9 *2836:D *885:129 7.83366e-05
*RES
1 *2630:Y *2836:D 35.9929 
*END

*D_NET *399 0.00101017
*CONN
*I *2837:D I *D sky130_fd_sc_hd__dlxtn_1
*I *2641:Y O *D sky130_fd_sc_hd__nor2_1
*CAP
1 *2837:D 0.000395149
2 *2641:Y 0.000395149
3 *2837:D *2641:B 2.51343e-06
4 *2837:D *2829:D 6.43196e-05
5 *2837:D *3347:A 0
6 *2837:D *878:85 0.00015304
*RES
1 *2641:Y *2837:D 32.9571 
*END

*D_NET *400 0.000893038
*CONN
*I *2823:D I *D sky130_fd_sc_hd__dlxtn_1
*I *2487:Y O *D sky130_fd_sc_hd__nor2_1
*CAP
1 *2823:D 0.00038306
2 *2487:Y 0.00038306
3 *2823:D *3348:A 9.80173e-05
4 *2823:D *531:37 2.89016e-05
*RES
1 *2487:Y *2823:D 24.4929 
*END

*D_NET *401 0.00165117
*CONN
*I *2824:D I *D sky130_fd_sc_hd__dlxtn_1
*I *2498:Y O *D sky130_fd_sc_hd__nor2_1
*CAP
1 *2824:D 0.000436381
2 *2498:Y 0.000436381
3 *2824:D *2476:A 9.60875e-05
4 *2824:D *2597:A 0
5 *2824:D *2824:GATE_N 1.40306e-05
6 *2824:D *2833:GATE_N 9.41642e-05
7 *2824:D *3364:A 1.17968e-05
8 *2824:D *521:26 0.000135028
9 *2824:D *1024:18 0.000136951
10 PWDATA[5] *2824:D 5.03616e-05
11 rdata[10] *2824:D 9.97669e-05
12 *2833:D *2824:D 1.72731e-05
13 *3308:A *2824:D 0.000122946
*RES
1 *2498:Y *2824:D 36.0821 
*END

*D_NET *402 0.000904441
*CONN
*I *2825:D I *D sky130_fd_sc_hd__dlxtn_1
*I *2509:Y O *D sky130_fd_sc_hd__nor2_1
*CAP
1 *2825:D 0.000116555
2 *2509:Y 0.000116555
3 *2825:D *2664:A1 0.000158272
4 *2825:D *2828:D 0.000168856
5 *2825:D *878:85 0.000344203
*RES
1 *2509:Y *2825:D 32.5107 
*END

*D_NET *403 0.000538455
*CONN
*I *2826:D I *D sky130_fd_sc_hd__dlxtn_1
*I *2520:Y O *D sky130_fd_sc_hd__nor2_1
*CAP
1 *2826:D 0.000163935
2 *2520:Y 0.000163935
3 *2826:D *2827:D 7.32272e-05
4 *2826:D *878:85 8.15843e-05
5 *2826:D *935:14 5.57727e-05
*RES
1 *2520:Y *2826:D 30.9036 
*END

*D_NET *404 0.00183101
*CONN
*I *2827:D I *D sky130_fd_sc_hd__dlxtn_1
*I *2531:Y O *D sky130_fd_sc_hd__nor2_1
*CAP
1 *2827:D 0.000529376
2 *2531:Y 0.000529376
3 *2827:D *2520:A 5.71472e-05
4 *2827:D *2619:A 6.05161e-06
5 *2827:D *2678:A1 3.14048e-05
6 *2827:D *2823:GATE_N 0
7 *2827:D *3345:A 0
8 *2827:D *885:162 1.5424e-05
9 *2827:D *935:14 0.000589004
10 *2827:D *970:10 0
11 PWDATA[4] *2827:D 0
12 *2826:D *2827:D 7.32272e-05
13 *3269:A *2827:D 0
*RES
1 *2531:Y *2827:D 39.6536 
*END

*D_NET *405 0.00124142
*CONN
*I *2828:D I *D sky130_fd_sc_hd__dlxtn_1
*I *2542:Y O *D sky130_fd_sc_hd__nor2_1
*CAP
1 *2828:D 0.000351724
2 *2542:Y 0.000351724
3 *2828:D *2542:A 0.000136951
4 *2828:D *2542:B 7.43578e-06
5 *2828:D *2664:A1 0.000224727
6 *2825:D *2828:D 0.000168856
*RES
1 *2542:Y *2828:D 34.3321 
*END

*D_NET *406 0.00105604
*CONN
*I *2829:D I *D sky130_fd_sc_hd__dlxtn_1
*I *2553:Y O *D sky130_fd_sc_hd__nor2_1
*CAP
1 *2829:D 0.000357503
2 *2553:Y 0.000357503
3 *2829:D *2553:A 1.58163e-05
4 *2829:D *2553:B 3.69047e-06
5 *2829:D *2641:A 1.02504e-05
6 *2829:D *2673:A1 2.55315e-05
7 *2829:D *884:16 0.000148903
8 *2829:D *1024:18 7.252e-05
9 *2837:D *2829:D 6.43196e-05
*RES
1 *2553:Y *2829:D 33.4929 
*END

*D_NET *407 0.00061747
*CONN
*I *2830:D I *D sky130_fd_sc_hd__dlxtn_1
*I *2564:Y O *D sky130_fd_sc_hd__nor2_1
*CAP
1 *2830:D 0.000246241
2 *2564:Y 0.000246241
3 *2830:D *2830:GATE_N 2.89016e-05
4 *2830:D *885:118 5.52238e-05
5 *2830:D *885:129 4.08637e-05
*RES
1 *2564:Y *2830:D 22.4393 
*END

*D_NET *408 0.00110472
*CONN
*I *2831:D I *D sky130_fd_sc_hd__dlxtn_1
*I *2575:Y O *D sky130_fd_sc_hd__nor2_1
*CAP
1 *2831:D 0.000313316
2 *2575:Y 0.000313316
3 *2831:D *431:51 1.76135e-05
4 *2831:D *431:57 5.10822e-05
5 *2831:D *884:47 0.000354166
6 *2831:D *884:53 5.52238e-05
*RES
1 *2575:Y *2831:D 32.6536 
*END

*D_NET *409 0.000351837
*CONN
*I *2771:B I *D sky130_fd_sc_hd__and2_1
*I *2674:X O *D sky130_fd_sc_hd__mux2_1
*CAP
1 *2771:B 0.000161067
2 *2674:X 0.000161067
3 *2771:B *2766:A2 0
4 *2771:B *2771:A 2.97021e-05
5 *2771:B *2772:B2 0
*RES
1 *2674:X *2771:B 21.225 
*END

*D_NET *410 0.000945809
*CONN
*I *2842:D I *D sky130_fd_sc_hd__dlxtn_1
*I *2675:X O *D sky130_fd_sc_hd__mux2_1
*CAP
1 *2842:D 0.000201508
2 *2675:X 0.000201508
3 *2842:D *2677:S 0.000138881
4 *2842:D *880:52 0.00010096
5 *2842:D *883:31 0.000150618
6 *2842:D *885:106 0.000152333
*RES
1 *2675:X *2842:D 31.725 
*END

*D_NET *411 0.000569469
*CONN
*I *2843:D I *D sky130_fd_sc_hd__dlxtn_1
*I *2676:X O *D sky130_fd_sc_hd__mux2_1
*CAP
1 *2843:D 0.000174829
2 *2676:X 0.000174829
3 *2843:D *766:12 6.42338e-05
4 *2843:D *767:10 0.000112995
5 *2453:A *2843:D 4.25809e-05
*RES
1 *2676:X *2843:D 31.4214 
*END

*D_NET *412 0.00122806
*CONN
*I *2840:D I *D sky130_fd_sc_hd__dlxtn_1
*I *2677:X O *D sky130_fd_sc_hd__mux2_1
*CAP
1 *2840:D 0.000466947
2 *2677:X 0.000466947
3 *2840:D *2452:B 4.57445e-05
4 *2840:D *2842:GATE_N 3.18676e-05
5 *2840:D *766:12 0.000186669
6 *2840:D *878:73 1.39841e-05
7 *2840:D *935:14 1.58961e-05
*RES
1 *2677:X *2840:D 33.8857 
*END

*D_NET *413 0.00105342
*CONN
*I *2841:D I *D sky130_fd_sc_hd__dlxtn_1
*I *2678:X O *D sky130_fd_sc_hd__mux2_1
*CAP
1 *2841:D 0.000192671
2 *2678:X 0.000192671
3 *2841:D *2763:A_N 3.69047e-06
4 *2841:D *2763:B 4.70048e-05
5 *2841:D *2842:GATE_N 6.65302e-05
6 *2841:D *433:16 1.17968e-05
7 *2841:D *433:35 9.60939e-05
8 *2841:D *794:14 0.000317602
9 *2841:D *878:73 0.000102545
10 *2841:D *885:106 2.28159e-05
*RES
1 *2678:X *2841:D 33.4393 
*END

*D_NET *414 0.00228644
*CONN
*I *2806:D I *D sky130_fd_sc_hd__dlxtn_1
*I *2642:Y O *D sky130_fd_sc_hd__nor2_1
*CAP
1 *2806:D 0.000386109
2 *2642:Y 0.000386109
3 *2806:D *2476:B 1.98839e-05
4 *2806:D *2806:GATE_N 1.33343e-05
5 *2806:D *2817:D 3.32932e-05
6 *2806:D *3322:A 0.000652761
7 *2806:D *3367:A 2.44318e-05
8 *2806:D *521:30 6.05161e-06
9 *2806:D *878:107 0.000118351
10 *2806:D *999:18 0.000536941
11 *2806:D *1040:18 3.14078e-05
12 rdata[14] *2806:D 7.77652e-05
*RES
1 *2642:Y *2806:D 38.5464 
*END

*D_NET *415 0.000684587
*CONN
*I *2816:D I *D sky130_fd_sc_hd__dlxtn_1
*I *2652:Y O *D sky130_fd_sc_hd__nor2_1
*CAP
1 *2816:D 0.000197398
2 *2652:Y 0.000197398
3 *2816:D *3322:A 0.000128146
4 *2816:D *886:39 0.000161646
*RES
1 *2652:Y *2816:D 31.0107 
*END

*D_NET *416 0.00106914
*CONN
*I *2817:D I *D sky130_fd_sc_hd__dlxtn_1
*I *2653:Y O *D sky130_fd_sc_hd__nor2_1
*CAP
1 *2817:D 0.000328165
2 *2653:Y 0.000328165
3 *2817:D *2653:A 5.52238e-05
4 *2817:D *2817:GATE_N 0
5 *2817:D *2822:GATE_N 3.34295e-05
6 *2817:D *3322:A 0
7 *2817:D *3326:A 0
8 *2817:D *3341:A 9.60875e-05
9 PWDATA[0] *2817:D 4.30382e-05
10 rdata[10] *2817:D 0.000106153
11 rdata[3] *2817:D 4.55863e-05
12 *2806:D *2817:D 3.32932e-05
*RES
1 *2653:Y *2817:D 34.4571 
*END

*D_NET *417 0.00157598
*CONN
*I *2818:D I *D sky130_fd_sc_hd__dlxtn_1
*I *2654:Y O *D sky130_fd_sc_hd__nor2_1
*CAP
1 *2818:D 0.000390737
2 *2654:Y 0.000390737
3 *2818:D *2644:B 1.31516e-05
4 *2818:D *2670:A0 9.79264e-05
5 *2818:D *2808:GATE_N 0.000210574
6 *2818:D *3321:A 0.000391526
7 *2818:D *3368:A 0
8 *2818:D *846:28 8.13286e-05
*RES
1 *2654:Y *2818:D 45.0464 
*END

*D_NET *418 0.00047388
*CONN
*I *2819:D I *D sky130_fd_sc_hd__dlxtn_1
*I *2655:Y O *D sky130_fd_sc_hd__nor2_1
*CAP
1 *2819:D 0.000117609
2 *2655:Y 0.000117609
3 *2819:D *2655:A 0
4 *2819:D *2655:B 0.000123295
5 *2819:D *651:22 1.92789e-05
6 *2819:D *878:73 9.60875e-05
*RES
1 *2655:Y *2819:D 30.1893 
*END

*D_NET *419 0.00172697
*CONN
*I *2820:D I *D sky130_fd_sc_hd__dlxtn_1
*I *2656:Y O *D sky130_fd_sc_hd__nor2_1
*CAP
1 *2820:D 0.000256019
2 *2656:Y 0.000256019
3 *2820:D *2489:A2 0.000291993
4 *2820:D *2608:A 9.41642e-05
5 *2820:D *551:12 0.000301438
6 *2820:D *884:39 0.000219711
7 *2820:D *886:23 0.000287849
8 *2834:D *2820:D 1.97756e-05
*RES
1 *2656:Y *2820:D 35.6179 
*END

*D_NET *420 0.000589438
*CONN
*I *2821:D I *D sky130_fd_sc_hd__dlxtn_1
*I *2657:Y O *D sky130_fd_sc_hd__nor2_1
*CAP
1 *2821:D 0.000223294
2 *2657:Y 0.000223294
3 *2821:D *2815:D 0
4 *2821:D *631:28 0
5 *2821:D *838:51 0.00014285
*RES
1 *2657:Y *2821:D 30.9036 
*END

*D_NET *421 0.000851526
*CONN
*I *2807:D I *D sky130_fd_sc_hd__dlxtn_1
*I *2643:Y O *D sky130_fd_sc_hd__nor2_1
*CAP
1 *2807:D 0.000263337
2 *2643:Y 0.000263337
3 *2807:D *2479:C1 2.92863e-05
4 *2807:D *2643:A 6.03908e-05
5 *2807:D *2643:B 0
6 *2807:D *830:42 1.98839e-05
7 *2807:D *859:30 1.15172e-05
8 *2807:D *917:70 7.42611e-05
9 *2478:A1 *2807:D 5.52302e-05
10 *2478:B2 *2807:D 7.4283e-05
*RES
1 *2643:Y *2807:D 32.7071 
*END

*D_NET *422 0.000490041
*CONN
*I *2808:D I *D sky130_fd_sc_hd__dlxtn_1
*I *2644:Y O *D sky130_fd_sc_hd__nor2_1
*CAP
1 *2808:D 8.08429e-05
2 *2644:Y 8.08429e-05
3 *2808:D *2489:B1 0.000122617
4 *2808:D *2644:B 9.10139e-05
5 *2808:D *2808:GATE_N 0.00010096
6 *2808:D *838:51 3.69047e-06
7 *2808:D *886:90 1.00733e-05
*RES
1 *2644:Y *2808:D 21.7607 
*END

*D_NET *423 0.000354316
*CONN
*I *2809:D I *D sky130_fd_sc_hd__dlxtn_1
*I *2645:Y O *D sky130_fd_sc_hd__nor2_1
*CAP
1 *2809:D 4.83805e-05
2 *2645:Y 4.83805e-05
3 *2809:D *886:27 0.000123295
4 *2809:D *886:31 9.25014e-06
5 *2809:D *1024:18 0.00012501
*RES
1 *2645:Y *2809:D 29.2429 
*END

*D_NET *424 0.000763147
*CONN
*I *2810:D I *D sky130_fd_sc_hd__dlxtn_1
*I *2646:Y O *D sky130_fd_sc_hd__nor2_1
*CAP
1 *2810:D 0.000206334
2 *2646:Y 0.000206334
3 *2810:D *2520:B 2.60984e-05
4 *2810:D *2678:A1 0
5 *2810:D *431:10 0.000150618
6 *2810:D *878:85 7.6644e-05
7 *2810:D *883:31 9.71197e-05
*RES
1 *2646:Y *2810:D 31.3143 
*END

*D_NET *425 0.00183157
*CONN
*I *2811:D I *D sky130_fd_sc_hd__dlxtn_1
*I *2647:Y O *D sky130_fd_sc_hd__nor2_1
*CAP
1 *2811:D 0.000606736
2 *2647:Y 0.000606736
3 *2811:D *2487:A 0.000194649
4 *2811:D *2522:A2 0.000271345
5 *2811:D *2655:A 0.00014285
6 *2811:D *887:86 0
7 *2811:D *931:81 9.25014e-06
*RES
1 *2647:Y *2811:D 39.3143 
*END

*D_NET *426 0.00492051
*CONN
*I *2812:D I *D sky130_fd_sc_hd__dlxtn_1
*I *2648:Y O *D sky130_fd_sc_hd__nor2_1
*CAP
1 *2812:D 0
2 *2648:Y 0.00137461
3 *426:10 0.00137461
4 *426:10 *2489:B1 0.000154343
5 *426:10 *2489:C1 0.000170523
6 *426:10 *2649:B 0.000131237
7 *426:10 *2654:B 0
8 *426:10 *2670:A0 0
9 *426:10 *2813:D 0
10 *426:10 *2959:GATE_N 0.000245667
11 *426:10 *3327:A 0.000123288
12 *426:10 *3367:A 0
13 *426:10 *540:18 4.79007e-05
14 *426:10 *809:35 0.000256736
15 *426:10 *846:28 0
16 *426:10 *886:84 4.65158e-06
17 *426:10 *887:123 7.20217e-06
18 *426:10 *914:128 4.15263e-05
19 PWDATA[5] *426:10 0
20 *2552:A1 *426:10 0.000342495
21 *3159:A *426:10 0.000645725
*RES
1 *2648:Y *426:10 45.9429 
2 *426:10 *2812:D 13.8 
*END

*D_NET *427 0.00228459
*CONN
*I *2813:D I *D sky130_fd_sc_hd__dlxtn_1
*I *2649:Y O *D sky130_fd_sc_hd__nor2_1
*CAP
1 *2813:D 0.000655449
2 *2649:Y 0.000655449
3 *2813:D *2489:C1 0.000167246
4 *2813:D *2497:B1 0.000100831
5 *2813:D *2649:B 4.85049e-06
6 *2813:D *2654:B 0.000345378
7 *2813:D *540:18 0.000157584
8 *2813:D *813:30 0.000197797
9 PWDATA[5] *2813:D 0
10 *426:10 *2813:D 0
*RES
1 *2649:Y *2813:D 41.9214 
*END

*D_NET *428 0.00898829
*CONN
*I *2814:D I *D sky130_fd_sc_hd__dlxtn_1
*I *2650:Y O *D sky130_fd_sc_hd__nor2_1
*CAP
1 *2814:D 0.00240255
2 *2650:Y 0.00240255
3 *2814:D *2562:A2 0.000118351
4 *2814:D *2654:B 0.000130912
5 *2814:D *3184:A 0.000225111
6 *2814:D *581:12 1.90936e-05
7 *2814:D *813:30 0.00321774
8 *2814:D *877:86 4.43299e-05
9 *2814:D *878:107 0
10 *2814:D *887:123 2.65341e-05
11 *2814:D *999:18 0.000233723
12 *2814:D *1024:18 0.000123067
13 PWDATA[5] *2814:D 4.43299e-05
*RES
1 *2650:Y *2814:D 49.8113 
*END

*D_NET *429 0.000664315
*CONN
*I *2815:D I *D sky130_fd_sc_hd__dlxtn_1
*I *2651:Y O *D sky130_fd_sc_hd__nor2_1
*CAP
1 *2815:D 0.000144594
2 *2651:Y 0.000144594
3 *2815:D *2574:B2 0.000148698
4 *2815:D *631:28 2.34136e-05
5 *2815:D *846:28 0.000183726
6 *2821:D *2815:D 0
7 *390:8 *2815:D 1.92905e-05
*RES
1 *2651:Y *2815:D 31.3143 
*END

*D_NET *430 0.000910025
*CONN
*I *3185:A I *D sky130_fd_sc_hd__buf_2
*I *2681:X O *D sky130_fd_sc_hd__mux2_1
*CAP
1 *3185:A 0.000256476
2 *2681:X 0.000256476
3 *3185:A *2457:A 0
4 *3185:A *2681:A1 0.000146496
5 *3185:A *2693:A 7.42485e-05
6 *3185:A *878:25 3.34783e-05
7 *3185:A *952:56 0.00014285
*RES
1 *2681:X *3185:A 32.4214 
*END

*D_NET *431 0.0198682
*CONN
*I *2826:GATE_N I *D sky130_fd_sc_hd__dlxtn_1
*I *2835:GATE_N I *D sky130_fd_sc_hd__dlxtn_1
*I *2823:GATE_N I *D sky130_fd_sc_hd__dlxtn_1
*I *2827:GATE_N I *D sky130_fd_sc_hd__dlxtn_1
*I *2836:GATE_N I *D sky130_fd_sc_hd__dlxtn_1
*I *2825:GATE_N I *D sky130_fd_sc_hd__dlxtn_1
*I *2828:GATE_N I *D sky130_fd_sc_hd__dlxtn_1
*I *2829:GATE_N I *D sky130_fd_sc_hd__dlxtn_1
*I *2837:GATE_N I *D sky130_fd_sc_hd__dlxtn_1
*I *2834:GATE_N I *D sky130_fd_sc_hd__dlxtn_1
*I *2832:GATE_N I *D sky130_fd_sc_hd__dlxtn_1
*I *2831:GATE_N I *D sky130_fd_sc_hd__dlxtn_1
*I *2833:GATE_N I *D sky130_fd_sc_hd__dlxtn_1
*I *2824:GATE_N I *D sky130_fd_sc_hd__dlxtn_1
*I *2822:GATE_N I *D sky130_fd_sc_hd__dlxtn_1
*I *2830:GATE_N I *D sky130_fd_sc_hd__dlxtn_1
*I *2686:X O *D sky130_fd_sc_hd__o31a_4
*CAP
1 *2826:GATE_N 3.72704e-05
2 *2835:GATE_N 0
3 *2823:GATE_N 0.000180809
4 *2827:GATE_N 0
5 *2836:GATE_N 0
6 *2825:GATE_N 0
7 *2828:GATE_N 0
8 *2829:GATE_N 0
9 *2837:GATE_N 2.65646e-05
10 *2834:GATE_N 0
11 *2832:GATE_N 6.50838e-05
12 *2831:GATE_N 6.77655e-05
13 *2833:GATE_N 3.97594e-05
14 *2824:GATE_N 0.000200183
15 *2822:GATE_N 0.000415389
16 *2830:GATE_N 3.01817e-05
17 *2686:X 0.00125806
18 *431:166 0.000607021
19 *431:61 0.000787838
20 *431:57 0.000384315
21 *431:51 0.000415708
22 *431:49 0.000495063
23 *431:43 0.000457222
24 *431:39 0.000312544
25 *431:35 0.000243342
26 *431:33 0.000208517
27 *431:31 0.00010291
28 *431:29 0.000216528
29 *431:16 0.0004621
30 *431:14 0.000744709
31 *431:12 0.000127441
32 *431:10 0.00137431
33 *2822:GATE_N *999:18 5.05109e-05
34 *2823:GATE_N *3345:A 3.34295e-05
35 *2823:GATE_N *935:14 0
36 *2823:GATE_N *970:10 0
37 *2824:GATE_N *2476:A 9.95173e-06
38 *2824:GATE_N *2597:B 0
39 *2832:GATE_N *2652:B 0
40 *2832:GATE_N *886:39 0
41 *2837:GATE_N *2673:A1 5.52302e-05
42 *431:10 *2452:B 0
43 *431:10 *2520:B 0.000177941
44 *431:10 *2675:A1 0
45 *431:10 *2678:A1 0
46 *431:10 *2838:GATE_N 9.71197e-05
47 *431:10 *3189:A 0
48 *431:10 *3191:A 0.000219711
49 *431:10 *766:12 0.00050462
50 *431:10 *766:27 0.000450427
51 *431:10 *878:85 0.000135334
52 *431:10 *883:31 0.00130561
53 *431:10 *885:8 1.98839e-05
54 *431:10 *885:106 0.000199824
55 *431:10 *885:118 7.85979e-05
56 *431:10 *935:14 0
57 *431:10 *965:12 5.49161e-05
58 *431:10 *1007:22 8.07879e-05
59 *431:12 *878:85 0.000120645
60 *431:12 *885:118 8.08376e-05
61 *431:14 *878:85 6.74911e-05
62 *431:14 *885:118 4.38511e-05
63 *431:16 *3348:A 0.000123295
64 *431:16 *878:85 0.000437075
65 *431:16 *885:118 3.01126e-05
66 *431:16 *1024:12 0.000237546
67 *431:16 *1024:18 7.39637e-05
68 *431:29 *878:85 0.000419606
69 *431:29 *885:129 0.000142515
70 *431:29 *1024:18 0
71 *431:31 *878:85 0.000199706
72 *431:31 *885:129 1.00375e-05
73 *431:33 *878:85 0.000202128
74 *431:35 *2509:B 0.000369104
75 *431:35 *878:85 0.000196957
76 *431:35 *884:10 2.23987e-05
77 *431:35 *884:16 0.000404504
78 *431:39 *2509:B 0.000200413
79 *431:39 *884:16 0.000184085
80 *431:43 *2509:B 1.81709e-05
81 *431:43 *2645:B 8.78502e-05
82 *431:43 *878:93 0.000136727
83 *431:43 *878:107 2.11419e-05
84 *431:43 *884:16 4.46186e-06
85 *431:43 *884:20 8.359e-05
86 *431:43 *1024:18 7.76647e-05
87 *431:49 *2645:B 3.34366e-05
88 *431:49 *3322:A 0.000165262
89 *431:49 *884:39 0.000151843
90 *431:49 *884:47 0
91 *431:49 *1024:18 0
92 *431:51 *3322:A 0.000387891
93 *431:51 *884:47 0
94 *431:57 *3322:A 0.000193107
95 *431:57 *3362:A 0
96 *431:57 *999:18 0.000141375
97 *431:61 *999:18 0.000246057
98 PWDATA[0] *2822:GATE_N 0.000222666
99 PWDATA[1] *431:166 7.20729e-05
100 rdata[10] *2822:GATE_N 0.00010096
101 rdata[10] *431:61 0
102 *2810:D *431:10 0.000150618
103 *2817:D *2822:GATE_N 3.34295e-05
104 *2824:D *2824:GATE_N 1.40306e-05
105 *2824:D *2833:GATE_N 9.41642e-05
106 *2827:D *2823:GATE_N 0
107 *2830:D *2830:GATE_N 2.89016e-05
108 *2831:D *431:51 1.76135e-05
109 *2831:D *431:57 5.10822e-05
110 *2832:D *431:49 5.35423e-05
111 *2833:D *2833:GATE_N 2.79421e-05
112 *2833:D *431:57 8.15095e-05
113 *2833:D *431:61 9.25014e-06
114 *2836:D *431:31 0.000165269
115 *2836:D *431:33 0.000191877
116 *2836:D *431:35 0.000129868
117 *2838:D *431:10 0.000228558
118 *3308:A *431:57 6.78511e-05
119 *3308:A *431:61 7.76497e-05
*RES
1 *2686:X *431:10 48.05 
2 *431:10 *431:12 2.85714 
3 *431:12 *431:14 1.64286 
4 *431:14 *431:16 10.4464 
5 *431:16 *2830:GATE_N 14.3357 
6 *431:16 *431:29 5.82143 
7 *431:29 *431:31 2.55357 
8 *431:31 *431:33 2.55357 
9 *431:33 *431:35 7.41071 
10 *431:35 *431:39 3.08929 
11 *431:39 *431:43 5.51786 
12 *431:43 *431:49 5.94643 
13 *431:49 *431:51 4.98214 
14 *431:51 *431:57 5.33929 
15 *431:57 *431:61 4.10714 
16 *431:61 *2822:GATE_N 20.0857 
17 *431:61 *2824:GATE_N 16.3 
18 *431:57 *2833:GATE_N 14.7464 
19 *431:51 *2831:GATE_N 14.7643 
20 *431:49 *2832:GATE_N 14.7643 
21 *431:43 *2834:GATE_N 13.8 
22 *431:39 *2837:GATE_N 14.3357 
23 *431:35 *2829:GATE_N 13.8 
24 *431:33 *2828:GATE_N 13.8 
25 *431:31 *2825:GATE_N 13.8 
26 *431:29 *2836:GATE_N 13.8 
27 *431:14 *431:166 9.875 
28 *431:166 *2827:GATE_N 9.3 
29 *431:166 *2823:GATE_N 21.3893 
30 *431:12 *2835:GATE_N 13.8 
31 *431:10 *2826:GATE_N 14.3357 
*END

*D_NET *432 0.000909645
*CONN
*I *2838:GATE_N I *D sky130_fd_sc_hd__dlxtn_1
*I *2839:GATE_N I *D sky130_fd_sc_hd__dlxtn_1
*I *2688:X O *D sky130_fd_sc_hd__and2_1
*CAP
1 *2838:GATE_N 2.91227e-05
2 *2839:GATE_N 7.41586e-05
3 *2688:X 4.76872e-05
4 *432:8 0.000150968
5 *2838:GATE_N *885:106 3.32631e-05
6 *2839:GATE_N *2454:B 0.000101198
7 *2839:GATE_N *972:10 0.000195412
8 *432:8 *2454:B 6.42338e-05
9 *432:8 *972:10 0.000116481
10 *431:10 *2838:GATE_N 9.71197e-05
*RES
1 *2688:X *432:8 15.4429 
2 *432:8 *2839:GATE_N 16.3536 
3 *432:8 *2838:GATE_N 14.7464 
*END

*D_NET *433 0.00295854
*CONN
*I *2843:GATE_N I *D sky130_fd_sc_hd__dlxtn_1
*I *2840:GATE_N I *D sky130_fd_sc_hd__dlxtn_1
*I *2841:GATE_N I *D sky130_fd_sc_hd__dlxtn_1
*I *2842:GATE_N I *D sky130_fd_sc_hd__dlxtn_1
*I *2691:X O *D sky130_fd_sc_hd__and2_1
*CAP
1 *2843:GATE_N 0
2 *2840:GATE_N 2.503e-05
3 *2841:GATE_N 0
4 *2842:GATE_N 8.37044e-05
5 *2691:X 0.000392604
6 *433:35 0.000188033
7 *433:16 0.000347238
8 *433:10 0.000493135
9 *2840:GATE_N *2763:B 1.92905e-05
10 *2842:GATE_N *878:73 1.33343e-05
11 *2842:GATE_N *885:106 0.000125724
12 *2842:GATE_N *935:14 1.56e-05
13 *433:10 *2706:C 4.11712e-05
14 *433:10 *478:14 1.40306e-05
15 *433:10 *478:35 5.95056e-05
16 *433:10 *767:10 0.000174805
17 *433:10 *767:23 0.000117903
18 *433:10 *794:14 0.000175561
19 *433:10 *883:31 2.89016e-05
20 *433:10 *885:106 2.82057e-05
21 *433:16 *2763:A_N 3.70933e-05
22 *433:16 *2763:B 7.6644e-05
23 *433:16 *794:14 3.91491e-05
24 *433:16 *885:106 0.000231585
25 *433:35 *2763:B 2.39999e-05
26 *2840:D *2842:GATE_N 3.18676e-05
27 *2841:D *2842:GATE_N 6.65302e-05
28 *2841:D *433:16 1.17968e-05
29 *2841:D *433:35 9.60939e-05
*RES
1 *2691:X *433:10 22.8179 
2 *433:10 *433:16 3.82143 
3 *433:16 *2842:GATE_N 16.4071 
4 *433:16 *433:35 7.10714 
5 *433:35 *2841:GATE_N 9.3 
6 *433:35 *2840:GATE_N 9.83571 
7 *433:10 *2843:GATE_N 13.8 
*END

*D_NET *434 0.000364184
*CONN
*I *2844:GATE_N I *D sky130_fd_sc_hd__dlxtn_1
*I *2693:X O *D sky130_fd_sc_hd__or2_1
*CAP
1 *2844:GATE_N 0.00011617
2 *2693:X 0.00011617
3 *2844:GATE_N *680:16 0.000131844
4 *3157:A *2844:GATE_N 0
*RES
1 *2693:X *2844:GATE_N 29.7786 
*END

*D_NET *435 0.0140831
*CONN
*I *3149:A I *D sky130_fd_sc_hd__clkbuf_2
*I *3148:A I *D sky130_fd_sc_hd__buf_2
*I *2410:Y O *D sky130_fd_sc_hd__nand2_1
*CAP
1 *3149:A 0.000328889
2 *3148:A 0.000268845
3 *2410:Y 0.0012071
4 *435:32 0.00126236
5 *435:14 0.00252951
6 *3148:A *3045:GATE_N 5.41494e-05
7 *3149:A *2518:A 4.66391e-05
8 *3149:A *2610:C1 0.000145753
9 *3149:A *3200:A 5.33005e-05
10 *3149:A *498:18 0.000276368
11 *3149:A *895:10 4.33438e-05
12 *3149:A *895:12 7.65793e-05
13 *3149:A *931:16 5.33005e-05
14 *435:14 *2518:D 0.000421367
15 *435:14 *499:22 0.000378498
16 *435:14 *812:69 0.000578394
17 *435:14 *823:22 0.00114923
18 *435:14 *840:12 2.21972e-05
19 *435:14 *840:130 0.0020651
20 *435:14 *933:22 9.59532e-06
21 *435:32 *2518:A 9.59532e-06
22 *435:32 *2554:A2 0.000249981
23 *435:32 *2620:B1 0
24 *435:32 *2633:B1 0.00058888
25 *435:32 *3093:GATE_N 2.11419e-05
26 *435:32 *439:30 0.000219888
27 *435:32 *498:18 0.000121456
28 *435:32 *826:16 0
29 *435:32 *826:20 9.41642e-05
30 *435:32 *893:37 9.46929e-05
31 *435:32 *895:12 0.000222224
32 *435:32 *895:14 0.000546857
33 *435:32 *915:39 0.000105739
34 *2511:A1 *435:32 0.000285413
35 *2511:B2 *435:32 0.000137983
36 *2554:A1 *435:32 0.000292117
37 *2554:B2 *435:32 0.000122478
38 *2633:B2 *435:32 0
*RES
1 *2410:Y *435:14 25.9885 
2 *435:14 *435:32 46.1339 
3 *435:32 *3148:A 18.4429 
4 *435:14 *3149:A 21.0411 
*END

*D_NET *436 0.0050243
*CONN
*I *3147:A I *D sky130_fd_sc_hd__clkbuf_2
*I *3146:A I *D sky130_fd_sc_hd__buf_2
*I *2412:Y O *D sky130_fd_sc_hd__nand2_1
*CAP
1 *3147:A 0.000491845
2 *3146:A 0.000363759
3 *2412:Y 0.000110347
4 *436:8 0.000965952
5 *3146:A *2538:A2 0.000353187
6 *3146:A *2602:B1 0.000768387
7 *3146:A *3132:A 0
8 *3146:A *817:29 0.000100781
9 *3146:A *836:12 4.8005e-05
10 *3146:A *903:32 1.43563e-05
11 *3146:A *904:44 5.71472e-05
12 *3147:A *2525:B1 1.69115e-05
13 *3147:A *2526:A2 0.000126439
14 *3147:A *2527:A2 0
15 *3147:A *2528:B1 0.000163979
16 *3147:A *2602:B1 0.000137518
17 *3147:A *3026:D 7.94723e-05
18 *3147:A *3129:A 0.000313473
19 *3147:A *817:17 1.17968e-05
20 *3147:A *817:29 1.18064e-05
21 *3147:A *864:77 2.63433e-05
22 *3147:A *867:12 0
23 *3147:A *907:56 8.04387e-05
24 *3147:A *922:22 8.54438e-05
25 *3147:A *922:32 0.00022681
26 *436:8 *2412:A 3.18676e-05
27 *436:8 *3129:A 0.000308234
28 *436:8 *443:16 9.0145e-05
29 *436:8 *819:54 3.98547e-05
*RES
1 *2412:Y *436:8 17.2107 
2 *436:8 *3146:A 24.4786 
3 *436:8 *3147:A 28.1929 
*END

*D_NET *437 0.0065029
*CONN
*I *3145:A I *D sky130_fd_sc_hd__clkbuf_2
*I *3144:A I *D sky130_fd_sc_hd__buf_2
*I *2414:Y O *D sky130_fd_sc_hd__nand2_1
*CAP
1 *3145:A 4.00275e-05
2 *3144:A 0.00108822
3 *2414:Y 0.00131283
4 *437:16 0.00244108
5 *3144:A *2866:GATE_N 0
6 *3144:A *2867:GATE_N 0
7 *3144:A *2985:GATE_N 0.000373955
8 *3144:A *3143:A 0
9 *3144:A *818:10 0
10 *3144:A *821:26 0.00110105
11 *3144:A *836:26 0
12 *437:16 *2866:GATE_N 0
13 *437:16 *3130:A 9.59532e-06
14 *437:16 *818:10 0
15 *437:16 *867:12 6.27272e-06
16 *2525:B2 *3144:A 0.000129868
*RES
1 *2414:Y *437:16 26.3462 
2 *437:16 *3144:A 40.0321 
3 *437:16 *3145:A 14.3357 
*END

*D_NET *438 0.00607495
*CONN
*I *3143:A I *D sky130_fd_sc_hd__clkbuf_2
*I *3142:A I *D sky130_fd_sc_hd__buf_2
*I *2416:Y O *D sky130_fd_sc_hd__nand2_1
*CAP
1 *3143:A 0.000394409
2 *3142:A 0.000569353
3 *2416:Y 0.00108017
4 *438:14 0.00204393
5 *3142:A *2899:GATE_N 0.000766441
6 *3142:A *2995:GATE_N 0
7 *3142:A *3001:GATE_N 0
8 *3142:A *817:29 0.000202972
9 *3142:A *817:49 0
10 *3142:A *821:26 0
11 *3142:A *862:40 0.000227729
12 *3142:A *862:55 7.76078e-05
13 *3143:A *2866:GATE_N 3.27461e-05
14 *3143:A *2899:GATE_N 0.000397805
15 *3143:A *821:26 0
16 *3143:A *832:6 6.24547e-05
17 *3143:A *832:10 0.000139653
18 *3143:A *864:96 3.90513e-05
19 *438:14 *446:20 2.11419e-05
20 *438:14 *817:29 0
21 *438:14 *840:32 1.94945e-05
22 *438:14 *864:77 0
23 *2525:B2 *3143:A 0
24 *2536:A1 *3142:A 0
25 *3144:A *3143:A 0
*RES
1 *2416:Y *438:14 23.1779 
2 *438:14 *3142:A 28.3446 
3 *438:14 *3143:A 23.4339 
*END

*D_NET *439 0.0102048
*CONN
*I *3141:A I *D sky130_fd_sc_hd__clkbuf_2
*I *3140:A I *D sky130_fd_sc_hd__buf_2
*I *2418:Y O *D sky130_fd_sc_hd__nand2_1
*CAP
1 *3141:A 0.000404492
2 *3140:A 0.000103717
3 *2418:Y 9.41276e-05
4 *439:30 0.00175476
5 *439:10 0.00214966
6 *3140:A *2535:B1 1.31525e-05
7 *3140:A *829:12 7.86062e-05
8 *3140:A *897:12 4.60314e-05
9 *3141:A *651:22 5.52238e-05
10 *3141:A *841:48 2.11419e-05
11 *3141:A *878:44 0.0011156
12 *3141:A *887:22 0.000578435
13 *439:10 *2418:A 2.59355e-05
14 *439:10 *477:18 0.00010798
15 *439:10 *841:12 0.000101963
16 *439:30 *2518:B 4.5894e-05
17 *439:30 *2518:D 2.06112e-05
18 *439:30 *2556:B1 0.000151816
19 *439:30 *2560:B 0.000265453
20 *439:30 *2610:A2 0.000409682
21 *439:30 *2610:C1 0
22 *439:30 *3225:A 0.000125528
23 *439:30 *477:18 0.000221159
24 *439:30 *597:22 0.000444673
25 *439:30 *809:165 7.61553e-05
26 *439:30 *826:16 0
27 *439:30 *830:26 0.000283723
28 *439:30 *830:30 0.00055416
29 *439:30 *841:12 2.04825e-05
30 *439:30 *895:10 0
31 *439:30 *895:12 0
32 *439:30 *915:39 0.000217756
33 *439:30 *917:70 0.000175502
34 *439:30 *920:177 0.000133237
35 *2524:B2 *3141:A 4.543e-05
36 *2633:B2 *439:30 0.000142856
37 *435:32 *439:30 0.000219888
*RES
1 *2418:Y *439:10 15.8268 
2 *439:10 *439:30 48.7946 
3 *439:30 *3140:A 16.05 
4 *439:10 *3141:A 23.2091 
*END

*D_NET *440 0.00881077
*CONN
*I *3138:A I *D sky130_fd_sc_hd__buf_2
*I *3139:A I *D sky130_fd_sc_hd__clkbuf_2
*I *2420:Y O *D sky130_fd_sc_hd__nand2_1
*CAP
1 *3138:A 0
2 *3139:A 0.000642268
3 *2420:Y 0
4 *440:37 0.00140945
5 *440:4 0.00205172
6 *3139:A *3057:D 5.33005e-05
7 *3139:A *3057:GATE_N 9.99644e-06
8 *3139:A *498:18 0.000127439
9 *3139:A *808:66 0.000118993
10 *3139:A *866:32 9.71197e-05
11 *3139:A *866:39 0.000266479
12 *3139:A *895:14 4.25809e-05
13 *3139:A *915:49 0.000914484
14 *3139:A *915:62 0
15 *440:37 *2541:A2 2.15245e-05
16 *440:37 *2563:A2 0.000124875
17 *440:37 *2851:GATE_N 6.74911e-05
18 *440:37 *3118:A 0.000354105
19 *440:37 *3134:A 0.000149937
20 *440:37 *3166:A 9.59532e-06
21 *440:37 *448:45 0.000137983
22 *440:37 *450:6 0.000347174
23 *440:37 *581:12 0
24 *440:37 *822:14 2.8266e-06
25 *440:37 *883:53 0.000110514
26 *440:37 *885:118 5.42958e-05
27 *440:37 *891:90 0.000811942
28 *440:37 *915:49 1.39841e-05
29 *440:37 *915:62 0.000393936
30 *440:37 *931:87 0.000476757
31 *3171:A *440:37 0
*RES
1 *2420:Y *440:4 9.3 
2 *440:4 *3139:A 33.55 
3 *440:4 *440:37 48.1429 
4 *440:37 *3138:A 9.3 
*END

*D_NET *441 0.00453821
*CONN
*I *3137:A I *D sky130_fd_sc_hd__dlymetal6s2s_1
*I *3136:A I *D sky130_fd_sc_hd__buf_2
*I *2422:Y O *D sky130_fd_sc_hd__nand2_1
*CAP
1 *3137:A 0
2 *3136:A 0.000504666
3 *2422:Y 0.000106634
4 *441:6 0.0006113
5 *3136:A *2418:A 5.33005e-05
6 *3136:A *2418:B 5.10524e-05
7 *3136:A *2510:A2 0.000208664
8 *3136:A *2519:B1 0.000620822
9 *3136:A *2609:A2 8.70693e-05
10 *3136:A *2609:B1 5.58941e-05
11 *3136:A *2610:C1 0.000479652
12 *3136:A *2881:D 8.96561e-05
13 *3136:A *485:10 3.98613e-05
14 *3136:A *491:10 5.52238e-05
15 *3136:A *826:10 0.000139907
16 *3136:A *830:102 0.000446597
17 *3136:A *867:90 0.00024425
18 *3136:A *912:23 3.98559e-05
19 *441:6 *2422:B 0.000116049
20 *441:6 *2519:B1 0.000268396
21 *441:6 *826:10 0.000125547
22 *441:6 *841:24 0.000161947
23 *441:6 *841:35 3.18676e-05
*RES
1 *2422:Y *441:6 13.9429 
2 *441:6 *3136:A 36.3 
3 *441:6 *3137:A 9.3 
*END

*D_NET *442 0.00582859
*CONN
*I *3134:A I *D sky130_fd_sc_hd__buf_2
*I *3135:A I *D sky130_fd_sc_hd__clkbuf_2
*I *2424:Y O *D sky130_fd_sc_hd__nand2_1
*CAP
1 *3134:A 0.00132688
2 *3135:A 0.00016517
3 *2424:Y 0.00036232
4 *442:6 0.00185436
5 *3134:A *2851:GATE_N 0.000125724
6 *3134:A *2930:D 2.89114e-05
7 *3134:A *3090:D 2.59355e-05
8 *3134:A *3090:GATE_N 3.98517e-05
9 *3134:A *3091:GATE_N 3.26772e-05
10 *3134:A *883:53 0.000102847
11 *3134:A *887:104 0.000340587
12 *3134:A *931:87 0
13 *3135:A *3121:A 0.000101545
14 *3135:A *3123:A 0.000107114
15 *3135:A *810:12 3.00537e-05
16 *3135:A *823:8 7.83659e-05
17 *3135:A *823:14 0.000192983
18 *442:6 *2424:B 1.21258e-05
19 *442:6 *3090:GATE_N 1.92789e-05
20 *442:6 *806:10 1.20865e-05
21 *442:6 *893:52 0.000139907
22 *442:6 *893:63 2.14658e-05
23 *2521:B2 *3134:A 1.51501e-05
24 *2523:A1 *3134:A 0.000182694
25 *3171:A *3134:A 0.000360617
26 *440:37 *3134:A 0.000149937
*RES
1 *2424:Y *442:6 13.5321 
2 *442:6 *3135:A 22.675 
3 *442:6 *3134:A 42.6571 
*END

*D_NET *443 0.00606712
*CONN
*I *3133:A I *D sky130_fd_sc_hd__dlymetal6s2s_1
*I *3132:A I *D sky130_fd_sc_hd__buf_2
*I *2426:Y O *D sky130_fd_sc_hd__nand2_1
*CAP
1 *3133:A 0.000318014
2 *3132:A 0.000555382
3 *2426:Y 0.000424146
4 *443:16 0.00129754
5 *3132:A *2525:B1 5.41794e-05
6 *3132:A *2528:A2 0.000213868
7 *3132:A *2540:A 0.000334585
8 *3132:A *2540:B 2.52423e-05
9 *3132:A *2540:C 0.000147204
10 *3132:A *2602:B1 0
11 *3132:A *2603:B1 6.17109e-05
12 *3132:A *3029:GATE_N 3.39084e-05
13 *3132:A *446:20 6.51069e-05
14 *3132:A *575:20 0.000138881
15 *3132:A *836:12 4.19624e-06
16 *3132:A *862:40 6.87476e-05
17 *3132:A *903:32 0.000308184
18 *3133:A *2525:B1 0.000442997
19 *3133:A *2528:A2 0.000566157
20 *3133:A *2978:GATE_N 5.52238e-05
21 *3133:A *3026:D 9.25014e-06
22 *3133:A *821:18 5.33005e-05
23 *3133:A *832:60 2.61099e-05
24 *3133:A *864:77 6.8194e-05
25 *443:16 *2525:A2 9.0145e-05
26 *443:16 *2527:A2 0.000151333
27 *443:16 *819:54 0.000388045
28 *443:16 *907:56 3.06878e-06
29 *2558:B2 *3132:A 7.22508e-05
30 *3146:A *3132:A 0
31 *436:8 *443:16 9.0145e-05
*RES
1 *2426:Y *443:16 30.7464 
2 *443:16 *3132:A 27.9607 
3 *443:16 *3133:A 22.5679 
*END

*D_NET *444 0.00308288
*CONN
*I *3131:A I *D sky130_fd_sc_hd__clkbuf_2
*I *3130:A I *D sky130_fd_sc_hd__buf_2
*I *2428:Y O *D sky130_fd_sc_hd__nand2_1
*CAP
1 *3131:A 0
2 *3130:A 0.000915707
3 *2428:Y 0.000134923
4 *444:12 0.00105063
5 *3130:A *2527:B1 0.00066861
6 *3130:A *818:10 0
7 *444:12 *2428:A 0.00011891
8 *444:12 *2527:B1 0.000175251
9 *444:12 *840:87 9.25014e-06
10 *437:16 *3130:A 9.59532e-06
*RES
1 *2428:Y *444:12 21.7107 
2 *444:12 *3130:A 35.7286 
3 *444:12 *3131:A 9.3 
*END

*D_NET *445 0.00309119
*CONN
*I *3128:A I *D sky130_fd_sc_hd__buf_2
*I *3129:A I *D sky130_fd_sc_hd__dlymetal6s2s_1
*I *2430:Y O *D sky130_fd_sc_hd__nand2_1
*CAP
1 *3128:A 0.000340295
2 *3129:A 0.000409019
3 *2430:Y 0
4 *445:4 0.000749314
5 *3128:A *2412:A 7.43578e-06
6 *3128:A *816:8 0.000353086
7 *3128:A *819:54 0.000114793
8 *3128:A *819:76 6.62983e-05
9 *3128:A *840:32 9.31011e-05
10 *3129:A *2412:A 2.42662e-05
11 *3129:A *817:17 0.000188944
12 *3129:A *817:29 0.000122935
13 *3147:A *3129:A 0.000313473
14 *436:8 *3129:A 0.000308234
*RES
1 *2430:Y *445:4 9.3 
2 *445:4 *3129:A 26.1929 
3 *445:4 *3128:A 16.8536 
*END

*D_NET *446 0.00659026
*CONN
*I *3127:A I *D sky130_fd_sc_hd__dlymetal6s2s_1
*I *3126:A I *D sky130_fd_sc_hd__buf_2
*I *2432:Y O *D sky130_fd_sc_hd__nand2_1
*CAP
1 *3127:A 7.8237e-05
2 *3126:A 0
3 *2432:Y 0
4 *446:20 0.00149686
5 *446:4 0.00157509
6 *3127:A *2428:B 0.000142856
7 *3127:A *2527:B1 5.922e-05
8 *3127:A *899:82 0.00010746
9 *446:20 *2416:B 0.000429932
10 *446:20 *2428:B 1.02504e-05
11 *446:20 *2517:A2 5.48248e-05
12 *446:20 *2517:B1 0
13 *446:20 *2518:D 0.000157603
14 *446:20 *2530:B2 9.59532e-06
15 *446:20 *2536:B1 0.000471749
16 *446:20 *2540:A 0.000136822
17 *446:20 *2602:B1 0
18 *446:20 *2603:B1 0.000179658
19 *446:20 *2869:GATE_N 0.000262388
20 *446:20 *2978:GATE_N 0.000216643
21 *446:20 *2997:D 0.000127949
22 *446:20 *3006:GATE_N 1.31516e-05
23 *446:20 *815:14 0
24 *446:20 *816:14 0.000101652
25 *446:20 *819:46 0
26 *446:20 *840:26 0.000118579
27 *446:20 *840:32 9.0566e-05
28 *446:20 *840:72 7.49188e-05
29 *446:20 *840:87 0
30 *446:20 *859:48 8.81911e-05
31 *446:20 *859:54 0.000163828
32 *446:20 *859:56 4.5539e-05
33 *446:20 *862:40 5.52238e-05
34 *446:20 *900:14 0.000109052
35 *446:20 *932:29 6.87181e-05
36 *2517:A1 *446:20 5.74562e-05
37 *3132:A *446:20 6.51069e-05
38 *438:14 *446:20 2.11419e-05
*RES
1 *2432:Y *446:4 9.3 
2 *446:4 *446:20 48.3377 
3 *446:20 *3126:A 9.3 
4 *446:4 *3127:A 11.925 
*END

*D_NET *447 0.00918027
*CONN
*I *3125:A I *D sky130_fd_sc_hd__clkbuf_2
*I *3124:A I *D sky130_fd_sc_hd__buf_2
*I *2434:Y O *D sky130_fd_sc_hd__nand2_1
*CAP
1 *3125:A 0.000314818
2 *3124:A 0
3 *2434:Y 0.00034536
4 *447:22 0.00200969
5 *447:10 0.00266987
6 *3125:A *2524:B1 0.000183713
7 *3125:A *2524:C1 8.25843e-06
8 *3125:A *865:60 2.88018e-06
9 *447:10 *2524:A2 2.84494e-05
10 *447:10 *830:16 5.33841e-05
11 *447:10 *841:35 5.52302e-05
12 *447:10 *841:48 9.44044e-05
13 *447:10 *995:12 0
14 *447:22 *2524:A2 3.15517e-05
15 *447:22 *2554:B1 0
16 *447:22 *2631:B1 0.000334644
17 *447:22 *2859:D 4.38244e-05
18 *447:22 *2972:GATE_N 0.00023047
19 *447:22 *806:60 0.000459407
20 *447:22 *827:52 0.000191139
21 *447:22 *843:40 0.00016853
22 *447:22 *858:40 2.04825e-05
23 *447:22 *895:50 1.94945e-05
24 *447:22 *912:35 0.000200297
25 *447:22 *912:37 0.000843802
26 *447:22 *917:44 8.92482e-05
27 *447:22 *917:48 0.000409684
28 *447:22 *995:12 0.000233651
29 *2524:A1 *3125:A 0.000137983
*RES
1 *2434:Y *447:10 19.3179 
2 *447:10 *447:22 47.1429 
3 *447:22 *3124:A 9.3 
4 *447:10 *3125:A 18.05 
*END

*D_NET *448 0.00657736
*CONN
*I *3122:A I *D sky130_fd_sc_hd__buf_2
*I *3123:A I *D sky130_fd_sc_hd__dlymetal6s2s_1
*I *2436:Y O *D sky130_fd_sc_hd__nand2_1
*CAP
1 *3122:A 0
2 *3123:A 0.000494252
3 *2436:Y 0.000257988
4 *448:45 0.00127065
5 *448:6 0.00202289
6 *3123:A *2521:A2 1.50181e-05
7 *3123:A *2523:B1 8.86911e-05
8 *3123:A *3042:D 0
9 *3123:A *3074:D 8.07951e-05
10 *3123:A *3120:A 0.000103974
11 *3123:A *3121:A 0.000311028
12 *3123:A *810:12 5.52238e-05
13 *3123:A *864:27 0
14 *3123:A *865:60 0
15 *448:6 *2512:B1 5.33005e-05
16 *448:6 *3074:GATE_N 5.75147e-05
17 *448:6 *449:14 5.74499e-06
18 *448:6 *895:88 1.98839e-05
19 *448:45 *2521:A2 9.91086e-05
20 *448:45 *2533:A2 1.46576e-05
21 *448:45 *2541:A2 1.11735e-05
22 *448:45 *2541:B1 9.43647e-05
23 *448:45 *2562:C1 5.15925e-05
24 *448:45 *2563:A2 4.13136e-05
25 *448:45 *2563:B2 5.52302e-05
26 *448:45 *2640:B1 5.8181e-05
27 *448:45 *2851:GATE_N 3.40844e-05
28 *448:45 *3059:GATE_N 3.10885e-05
29 *448:45 *3074:D 6.05161e-06
30 *448:45 *3074:GATE_N 3.69047e-06
31 *448:45 *3084:GATE_N 0.000127801
32 *448:45 *3091:GATE_N 0
33 *448:45 *3118:A 0
34 *448:45 *3120:A 0.000163578
35 *448:45 *581:12 6.69988e-05
36 *448:45 *822:14 9.87672e-05
37 *448:45 *827:10 5.33005e-05
38 *448:45 *859:103 0.000304394
39 *448:45 *863:31 0.000108179
40 *448:45 *863:44 4.08637e-05
41 *448:45 *864:27 2.87555e-06
42 *448:45 *864:51 4.46231e-06
43 *2532:A1 *448:45 1.72894e-05
44 *2533:B2 *448:45 6.26774e-06
45 *3135:A *3123:A 0.000107114
46 *440:37 *448:45 0.000137983
*RES
1 *2436:Y *448:6 12.3 
2 *448:6 *3123:A 29.2821 
3 *448:6 *448:45 43.6964 
4 *448:45 *3122:A 9.3 
*END

*D_NET *449 0.0045496
*CONN
*I *3121:A I *D sky130_fd_sc_hd__dlymetal6s2s_1
*I *3120:A I *D sky130_fd_sc_hd__buf_2
*I *2438:Y O *D sky130_fd_sc_hd__nand2_1
*CAP
1 *3121:A 0.000191594
2 *3120:A 0.000444177
3 *2438:Y 0.00017418
4 *449:14 0.000809952
5 *3120:A *2632:C1 6.05161e-06
6 *3120:A *3084:GATE_N 0.000376324
7 *3120:A *3119:A 0.000286128
8 *3120:A *598:26 5.17614e-05
9 *3120:A *915:62 0.00028119
10 *3121:A *2962:GATE_N 8.25843e-06
11 *3121:A *3058:D 0
12 *3121:A *3058:GATE_N 2.59355e-05
13 *3121:A *3119:A 0.000161411
14 *3121:A *808:12 3.63437e-05
15 *3121:A *823:14 1.66744e-05
16 *3121:A *864:8 0
17 *449:14 *2436:A 9.90367e-05
18 *449:14 *2440:A 0.000123811
19 *449:14 *2512:B1 2.05612e-05
20 *449:14 *3074:GATE_N 0.000137983
21 *449:14 *864:51 0.000386121
22 *449:14 *893:63 5.92845e-05
23 *449:14 *895:88 2.59355e-05
24 *3123:A *3120:A 0.000103974
25 *3123:A *3121:A 0.000311028
26 *3135:A *3121:A 0.000101545
27 *390:10 *3120:A 0.000141013
28 *448:6 *449:14 5.74499e-06
29 *448:45 *3120:A 0.000163578
*RES
1 *2438:Y *449:14 28.2643 
2 *449:14 *3120:A 27.3179 
3 *449:14 *3121:A 19.2464 
*END

*D_NET *450 0.00588861
*CONN
*I *3118:A I *D sky130_fd_sc_hd__buf_2
*I *3119:A I *D sky130_fd_sc_hd__clkbuf_2
*I *2440:Y O *D sky130_fd_sc_hd__nand2_1
*CAP
1 *3118:A 0.000991767
2 *3119:A 0.000214971
3 *2440:Y 0.000258124
4 *450:6 0.00146486
5 *3118:A *2640:B1 0.000291064
6 *3118:A *2640:B2 4.50033e-05
7 *3118:A *2937:D 5.52302e-05
8 *3118:A *2937:GATE_N 0
9 *3118:A *3091:GATE_N 0.000120236
10 *3118:A *671:8 8.33751e-05
11 *3118:A *822:22 1.18451e-05
12 *3118:A *828:37 0
13 *3118:A *850:36 3.34295e-05
14 *3118:A *850:57 0.000101545
15 *3118:A *858:40 1.48924e-05
16 *3118:A *863:31 0.00022495
17 *3118:A *863:44 0.000421697
18 *3118:A *930:10 0
19 *3119:A *808:12 9.79339e-05
20 *3119:A *808:14 0.000104067
21 *3119:A *915:62 5.41794e-05
22 *2561:B2 *3118:A 0.000150625
23 *3120:A *3119:A 0.000286128
24 *3121:A *3119:A 0.000161411
25 *440:37 *3118:A 0.000354105
26 *440:37 *450:6 0.000347174
27 *448:45 *3118:A 0
*RES
1 *2440:Y *450:6 12.7107 
2 *450:6 *3119:A 24.1929 
3 *450:6 *3118:A 40.8893 
*END

*D_NET *451 0.00147779
*CONN
*I *2798:D I *D sky130_fd_sc_hd__dfrtp_1
*I *2701:X O *D sky130_fd_sc_hd__a31o_1
*CAP
1 *2798:D 0.000580944
2 *2701:X 0.000580944
3 *2798:D *2404:A 1.32552e-05
4 *2798:D *2701:A2 1.90936e-05
5 *2798:D *2701:B1 7.14469e-05
6 *2798:D *675:30 0.000136951
7 *2798:D *952:56 7.51525e-05
*RES
1 *2701:X *2798:D 35.1045 
*END

*D_NET *452 0.00179183
*CONN
*I *2799:D I *D sky130_fd_sc_hd__dfrtp_1
*I *2710:X O *D sky130_fd_sc_hd__or4b_1
*CAP
1 *2799:D 0.000410286
2 *2710:X 0.000410286
3 *2799:D *2462:B 4.78056e-05
4 *2799:D *2464:D 0.000160883
5 *2799:D *2691:B 0.000189266
6 *2799:D *2710:C 6.41135e-05
7 *2799:D *2799:RESET_B 0.000353086
8 *2799:D *3243:A 0
9 *2799:D *772:23 0
10 *2799:D *947:27 0.000106568
11 *2799:D *947:38 3.92854e-05
12 *2799:D *950:94 1.02504e-05
*RES
1 *2710:X *2799:D 37.2071 
*END

*D_NET *453 0.000763537
*CONN
*I *2800:D I *D sky130_fd_sc_hd__dfrtp_1
*I *2712:X O *D sky130_fd_sc_hd__or4b_1
*CAP
1 *2800:D 0.000206184
2 *2712:X 0.000206184
3 *2800:D *2443:A 0.000145154
4 *2800:D *2699:A2 0
5 *2800:D *2700:A 0.00011746
6 *2800:D *2700:C_N 0
7 *2800:D *2799:RESET_B 4.70092e-05
8 *2800:D *502:10 0
9 *2800:D *949:80 3.07101e-05
10 *2800:D *950:37 1.08359e-05
*RES
1 *2712:X *2800:D 31.9036 
*END

*D_NET *454 0.0015154
*CONN
*I *2801:D I *D sky130_fd_sc_hd__dfrtp_1
*I *2714:X O *D sky130_fd_sc_hd__a21o_1
*CAP
1 *2801:D 0.000451995
2 *2714:X 0.000451995
3 *2801:D *2714:B1 5.33005e-05
4 *2801:D *3239:A 0
5 *2801:D *508:14 2.47833e-05
6 *2801:D *772:29 0.000148403
7 *2801:D *953:18 0.000121418
8 *2801:D *995:12 0.000263508
*RES
1 *2714:X *2801:D 35.0687 
*END

*D_NET *455 0.000283374
*CONN
*I *2802:D I *D sky130_fd_sc_hd__dfrtp_1
*I *2721:X O *D sky130_fd_sc_hd__mux2_1
*CAP
1 *2802:D 4.47022e-05
2 *2721:X 4.47022e-05
3 *2802:D *3187:A 6.65302e-05
4 *2802:D *881:46 0.000127439
*RES
1 *2721:X *2802:D 29.2429 
*END

*D_NET *456 0.000482823
*CONN
*I *2803:D I *D sky130_fd_sc_hd__dfrtp_1
*I *2726:X O *D sky130_fd_sc_hd__mux2_1
*CAP
1 *2803:D 0.000119233
2 *2726:X 0.000119233
3 *2803:D *786:25 9.96264e-05
4 *2803:D *788:49 4.87854e-05
5 *2803:D *868:14 9.59456e-05
*RES
1 *2726:X *2803:D 29.8857 
*END

*D_NET *457 0.000301546
*CONN
*I *2804:D I *D sky130_fd_sc_hd__dfrtp_1
*I *2734:X O *D sky130_fd_sc_hd__mux2_1
*CAP
1 *2804:D 0.000102099
2 *2734:X 0.000102099
3 *2804:D *2726:A1 0
4 *2804:D *2804:RESET_B 1.02504e-05
5 *2804:D *706:26 4.8936e-05
6 *2804:D *786:21 9.25014e-06
7 *2804:D *881:97 2.89114e-05
*RES
1 *2734:X *2804:D 29.475 
*END

*D_NET *458 0.000360995
*CONN
*I *2805:D I *D sky130_fd_sc_hd__dfrtp_1
*I *2738:X O *D sky130_fd_sc_hd__a22o_1
*CAP
1 *2805:D 0.000141969
2 *2738:X 0.000141969
3 *2805:D *2738:A2 0
4 *2805:D *2805:CLK 1.99099e-05
5 *2805:D *701:18 0
6 *2805:D *787:30 0
7 *2805:D *953:42 5.71472e-05
8 *2805:D *979:16 0
*RES
1 *2738:X *2805:D 30.3857 
*END

*D_NET *459 0.000958087
*CONN
*I *3101:D I *D sky130_fd_sc_hd__dfrtp_1
*I *2747:X O *D sky130_fd_sc_hd__mux2_1
*CAP
1 *3101:D 0.000388425
2 *2747:X 0.000388425
3 *3101:D *2659:A0 3.18676e-05
4 *3101:D *2747:A1 0
5 *3101:D *782:6 2.27416e-05
6 *383:8 *3101:D 0.000126629
*RES
1 *2747:X *3101:D 26.1357 
*END

*D_NET *460 0.00329768
*CONN
*I *3102:D I *D sky130_fd_sc_hd__dfrtp_1
*I *2752:X O *D sky130_fd_sc_hd__a22o_1
*CAP
1 *3102:D 0.00100386
2 *2752:X 0.00100386
3 *3102:D *2744:A1 0.000312215
4 *3102:D *2744:A2 5.33334e-05
5 *3102:D *2747:A1 9.41642e-05
6 *3102:D *2751:A2 8.43535e-06
7 *3102:D *2751:B2 9.41642e-05
8 *3102:D *2752:B1 8.12253e-05
9 *3102:D *3102:RESET_B 9.84792e-05
10 *3102:D *481:18 9.22103e-06
11 *3102:D *783:8 8.36594e-05
12 *380:14 *3102:D 0.00045506
*RES
1 *2752:X *3102:D 36.8321 
*END

*D_NET *461 0.00254263
*CONN
*I *3103:D I *D sky130_fd_sc_hd__dfrtp_1
*I *2757:X O *D sky130_fd_sc_hd__a22o_1
*CAP
1 *3103:D 0.00101935
2 *2757:X 0.00101935
3 *3103:D *2406:C 0.000138881
4 *3103:D *2407:D 6.71657e-05
5 *3103:D *784:8 0.000114164
6 *3103:D *784:25 0.00018372
*RES
1 *2757:X *3103:D 33.5464 
*END

*D_NET *462 0.0019573
*CONN
*I *3104:D I *D sky130_fd_sc_hd__dfrtp_1
*I *2762:X O *D sky130_fd_sc_hd__a22o_1
*CAP
1 *3104:D 0.000758228
2 *2762:X 0.000758228
3 *3104:D *2762:A1 5.30637e-06
4 *3104:D *3104:RESET_B 2.51837e-05
5 *3104:D *785:6 9.90367e-05
6 *3104:D *952:18 9.31893e-05
7 *3104:D *952:28 0
8 *3104:D *952:34 0
9 *3157:A *3104:D 0.000218123
*RES
1 *2762:X *3104:D 41.7607 
*END

*D_NET *463 0.000750517
*CONN
*I *3105:D I *D sky130_fd_sc_hd__dfrtp_1
*I *2767:X O *D sky130_fd_sc_hd__mux2_1
*CAP
1 *3105:D 0.000203171
2 *2767:X 0.000203171
3 *3105:D *2766:A1 3.2971e-05
4 *3105:D *2775:B1 7.12607e-05
5 *3105:D *3105:RESET_B 9.23592e-05
6 *3105:D *505:44 0.000147583
*RES
1 *2767:X *3105:D 32.1357 
*END

*D_NET *464 0.000631692
*CONN
*I *3106:D I *D sky130_fd_sc_hd__dfrtp_1
*I *2772:X O *D sky130_fd_sc_hd__o22a_1
*CAP
1 *3106:D 0.000150278
2 *2772:X 0.000150278
3 *3106:D *739:10 0.000138881
4 *3106:D *1033:60 0.000125724
5 *3106:D *1039:14 6.65302e-05
*RES
1 *2772:X *3106:D 30.6 
*END

*D_NET *465 0.00128844
*CONN
*I *3107:D I *D sky130_fd_sc_hd__dfrtp_1
*I *2775:X O *D sky130_fd_sc_hd__a22o_1
*CAP
1 *3107:D 0.000197617
2 *2775:X 0.000197617
3 *3107:D *2765:B 9.41642e-05
4 *3107:D *2768:B1 5.52238e-05
5 *3107:D *2769:B 1.07719e-05
6 *3107:D *972:10 0.000365667
7 *3107:D *1033:60 0.000367375
*RES
1 *2775:X *3107:D 33.7607 
*END

*D_NET *466 0.000395397
*CONN
*I *3108:D I *D sky130_fd_sc_hd__dfrtp_1
*I *2781:X O *D sky130_fd_sc_hd__mux2_1
*CAP
1 *3108:D 0.000166281
2 *2781:X 0.000166281
3 *3108:D *751:26 5.91452e-05
4 *3108:D *751:28 3.69047e-06
*RES
1 *2781:X *3108:D 20.7964 
*END

*D_NET *467 0.00106762
*CONN
*I *3109:D I *D sky130_fd_sc_hd__dfrtp_1
*I *2787:X O *D sky130_fd_sc_hd__a22o_1
*CAP
1 *3109:D 0.000330076
2 *2787:X 0.000330076
3 *3109:D *2786:A 5.33005e-05
4 *3109:D *2787:B2 0
5 *3109:D *2788:A2 4.58194e-05
6 *3109:D *2788:B1 1.0562e-05
7 *3109:D *3109:CLK 4.05411e-05
8 *3109:D *939:12 0.000175519
9 *3109:D *945:59 8.17274e-05
*RES
1 *2787:X *3109:D 34.0821 
*END

*D_NET *468 0.000771636
*CONN
*I *3110:D I *D sky130_fd_sc_hd__dfrtp_1
*I *2793:X O *D sky130_fd_sc_hd__a22o_1
*CAP
1 *3110:D 0.000192502
2 *2793:X 0.000192502
3 *3110:D *2437:C 8.46895e-05
4 *3110:D *3232:A 1.77525e-05
5 *3110:D *771:24 2.60984e-05
6 *3110:D *780:6 3.18676e-05
7 *3110:D *883:127 9.54798e-06
8 *3110:D *942:10 0.000216677
*RES
1 *2793:X *3110:D 32.2429 
*END

*D_NET *469 0.00236187
*CONN
*I *3111:D I *D sky130_fd_sc_hd__dfrtp_1
*I *2797:X O *D sky130_fd_sc_hd__a22o_1
*CAP
1 *3111:D 0.000803734
2 *2797:X 0.000803734
3 *3111:D *2793:B2 7.72916e-05
4 *3111:D *3229:A 9.31011e-05
5 *3111:D *771:24 0.000483415
6 *3111:D *780:6 6.57914e-05
7 *3111:D *939:35 3.48023e-05
*RES
1 *2797:X *3111:D 38.6714 
*END

*D_NET *470 0.00340281
*CONN
*I *2698:A1 I *D sky130_fd_sc_hd__o22ai_1
*I *2393:Y O *D sky130_fd_sc_hd__inv_2
*CAP
1 *2698:A1 0.00114706
2 *2393:Y 0.00114706
3 *2698:A1 *2743:B1 5.49589e-06
4 *2698:A1 *2743:C1 0.000559028
5 *2698:A1 *2777:A3 0.000316887
6 *2698:A1 *3242:A 0
7 *2698:A1 *471:14 9.99473e-05
8 *2698:A1 *672:49 9.49939e-05
9 *2698:A1 *1031:55 3.23395e-05
*RES
1 *2393:Y *2698:A1 45.6179 
*END

*D_NET *471 0.00640073
*CONN
*I *2698:B2 I *D sky130_fd_sc_hd__o22ai_1
*I *2394:Y O *D sky130_fd_sc_hd__inv_2
*CAP
1 *2698:B2 2.9759e-05
2 *2394:Y 0.00152497
3 *471:14 0.00155473
4 *2698:B2 *2702:D 0
5 *2698:B2 *2705:A1 1.3701e-05
6 *2698:B2 *929:38 1.04232e-05
7 *471:14 *2399:A 0
8 *471:14 *2458:B 0.000122933
9 *471:14 *2741:A 0.000177227
10 *471:14 *2742:A 0
11 *471:14 *2743:A1 0.000200413
12 *471:14 *2746:B1 9.11365e-06
13 *471:14 *2752:B2 8.56716e-05
14 *471:14 *2777:A3 0.000364245
15 *471:14 *2779:A 2.22795e-05
16 *471:14 *3242:A 0
17 *471:14 *3245:A 0.00105408
18 *471:14 *3359:A 0.000530936
19 *471:14 *483:10 0
20 *471:14 *672:65 0.000105682
21 *471:14 *718:10 4.80729e-05
22 *471:14 *718:36 9.40167e-05
23 *471:14 *718:42 0.000221163
24 *471:14 *720:12 0
25 *471:14 *722:8 5.97623e-05
26 *471:14 *929:8 0
27 *471:14 *929:38 7.15962e-05
28 *2698:A1 *471:14 9.99473e-05
*RES
1 *2394:Y *471:14 49.3 
2 *471:14 *2698:B2 10.0321 
*END

*D_NET *472 0.00157865
*CONN
*I *2715:A2_N I *D sky130_fd_sc_hd__o2bb2a_1
*I *2703:B I *D sky130_fd_sc_hd__or3_1
*I *2395:Y O *D sky130_fd_sc_hd__inv_2
*CAP
1 *2715:A2_N 0.000345833
2 *2703:B 0
3 *2395:Y 0.00011752
4 *472:6 0.000463354
5 *2715:A2_N *2395:A 0.000129515
6 *2715:A2_N *2703:A 1.98839e-05
7 *2715:A2_N *2715:B2 9.41642e-05
8 *2715:A2_N *2743:C1 9.25014e-06
9 *2715:A2_N *3116:A 3.13225e-05
10 *2715:A2_N *501:8 2.49484e-05
11 *2715:A2_N *672:26 4.98524e-05
12 *2715:A2_N *1031:35 5.58941e-05
13 *2715:A2_N *1031:41 7.90803e-05
14 *472:6 *2395:A 0.000144773
15 *472:6 *3115:A 1.32552e-05
*RES
1 *2395:Y *472:6 11.0679 
2 *472:6 *2703:B 9.3 
3 *472:6 *2715:A2_N 23.7643 
*END

*D_NET *473 0.00139974
*CONN
*I *2686:A1 I *D sky130_fd_sc_hd__o31a_4
*I *2396:Y O *D sky130_fd_sc_hd__inv_2
*CAP
1 *2686:A1 0.000400682
2 *2396:Y 0.000400682
3 *2686:A1 *2688:A 4.44789e-05
4 *2686:A1 *2764:A1 0.000153382
5 *2686:A1 *503:36 6.42095e-05
6 *2686:A1 *504:12 3.52028e-05
7 *2686:A1 *738:14 0
8 *2686:A1 *885:22 0.000177815
9 *2686:A1 *950:116 0.000123288
*RES
1 *2396:Y *2686:A1 34.6714 
*END

*D_NET *474 0.00618947
*CONN
*I *2462:B I *D sky130_fd_sc_hd__and3b_1
*I *2695:A I *D sky130_fd_sc_hd__and3_1
*I *2713:A1 I *D sky130_fd_sc_hd__a31o_1
*I *2398:C_N I *D sky130_fd_sc_hd__or3b_2
*I *2397:X O *D sky130_fd_sc_hd__and2b_1
*CAP
1 *2462:B 0.000594535
2 *2695:A 0.000155041
3 *2713:A1 6.91811e-05
4 *2398:C_N 0.000321074
5 *2397:X 0
6 *474:16 0.000562556
7 *474:10 0.000743725
8 *474:4 0.00101092
9 *2398:C_N *2443:B 7.69776e-06
10 *2398:C_N *2714:A2 0.00011326
11 *2398:C_N *2799:RESET_B 3.51393e-05
12 *2398:C_N *502:21 2.97021e-05
13 *2398:C_N *502:44 8.6086e-06
14 *2462:B *2462:A_N 5.52302e-05
15 *2462:B *2799:RESET_B 0
16 *2462:B *3239:A 0
17 *2462:B *511:16 0.000139913
18 *2462:B *772:23 3.52562e-05
19 *2462:B *772:29 4.94455e-05
20 *2462:B *776:31 0.000343485
21 *2695:A *2695:C 5.52238e-05
22 *2695:A *510:14 2.06178e-05
23 *2695:A *675:30 2.89016e-05
24 *2695:A *947:14 4.5539e-05
25 *2695:A *948:81 7.01154e-05
26 *2695:A *948:94 3.10819e-05
27 *2695:A *953:18 6.85411e-05
28 *2713:A1 *2443:B 0
29 *2713:A1 *2697:B 9.25014e-06
30 *2713:A1 *2713:A2 3.20085e-05
31 *2713:A1 *2713:B1 5.40901e-06
32 *2713:A1 *2714:A2 9.66555e-05
33 *2713:A1 *2714:B1 2.28598e-05
34 *2713:A1 *502:21 0
35 *2713:A1 *502:44 6.05161e-06
36 *474:10 *2713:B1 2.13481e-06
37 *474:10 *508:14 2.51343e-06
38 *474:10 *947:14 5.48083e-05
39 *474:10 *948:12 6.48387e-06
40 *474:10 *948:16 0.000208309
41 *474:10 *948:25 0.000214198
42 *474:10 *953:18 9.2539e-06
43 *474:16 *3243:A 0.000564011
44 *474:16 *883:119 0.000312927
45 *2799:D *2462:B 4.78056e-05
*RES
1 *2397:X *474:4 9.3 
2 *474:4 *474:10 10.1339 
3 *474:10 *474:16 7.7318 
4 *474:16 *2398:C_N 18.2554 
5 *474:16 *2713:A1 15.9518 
6 *474:10 *2695:A 17.6482 
7 *474:4 *2462:B 27.6393 
*END

*D_NET *475 0.00623979
*CONN
*I *2399:A I *D sky130_fd_sc_hd__inv_2
*I *2778:B1 I *D sky130_fd_sc_hd__a21oi_1
*I *2409:A1 I *D sky130_fd_sc_hd__o21ai_1
*I *2705:A2 I *D sky130_fd_sc_hd__o31ai_1
*I *2398:X O *D sky130_fd_sc_hd__or3b_2
*CAP
1 *2399:A 3.38861e-05
2 *2778:B1 0
3 *2409:A1 0.000222863
4 *2705:A2 5.36066e-05
5 *2398:X 0.000581247
6 *475:31 0.000535946
7 *475:25 0.000818736
8 *475:10 0.00110662
9 *2399:A *2716:A 7.69776e-06
10 *2399:A *929:8 6.21521e-06
11 *2409:A1 *2409:A2 6.8646e-06
12 *2409:A1 *2776:A2 1.50904e-05
13 *2409:A1 *2778:A2 1.02504e-05
14 *2409:A1 *2782:B 0.000334463
15 *2409:A1 *771:10 8.01812e-05
16 *2409:A1 *887:47 2.84398e-05
17 *2705:A2 *2698:B1 7.66879e-05
18 *475:10 *2443:A 0
19 *475:10 *2699:A1 4.32309e-05
20 *475:10 *2699:A2 1.03483e-05
21 *475:10 *2699:B1 0
22 *475:10 *2700:B 0.00017218
23 *475:10 *2700:C_N 0.000144722
24 *475:10 *2799:RESET_B 0.000356028
25 *475:10 *3242:A 0
26 *475:10 *690:26 1.21955e-05
27 *475:10 *949:74 0
28 *475:10 *949:80 0
29 *475:25 *2702:B 0
30 *475:25 *2778:A2 0.000666954
31 *475:25 *3242:A 0
32 *475:31 *2712:A 6.59103e-06
33 *475:31 *2778:A2 0.000552241
34 *475:31 *2782:B 0.000340235
35 *475:31 *929:8 1.62672e-05
36 *471:14 *2399:A 0
*RES
1 *2398:X *475:10 23.7107 
2 *475:10 *2705:A2 14.5411 
3 *475:10 *475:25 6.02907 
4 *475:25 *475:31 8.41619 
5 *475:31 *2409:A1 19.3179 
6 *475:31 *2778:B1 13.8 
7 *475:25 *2399:A 17.7904 
*END

*D_NET *476 0.00374089
*CONN
*I *3228:A I *D sky130_fd_sc_hd__clkbuf_2
*I *3320:A I *D sky130_fd_sc_hd__clkbuf_1
*I *2400:Y O *D sky130_fd_sc_hd__nor4_1
*CAP
1 *3228:A 0.00015239
2 *3320:A 0.000148805
3 *2400:Y 0.000410222
4 *476:8 0.000711417
5 *3228:A *2529:A 9.76689e-05
6 *3228:A *3195:A 5.52238e-05
7 *3228:A *3315:A 0.00014285
8 *3228:A *493:12 8.41815e-05
9 *3228:A *908:12 0.000528343
10 *3320:A *3207:A 0
11 *3320:A *3219:A 0.000166656
12 *3320:A *488:10 2.15339e-05
13 *3320:A *832:60 2.89016e-05
14 *3320:A *933:22 5.71472e-05
15 *476:8 *2429:B_N 0.000408189
16 *476:8 *3207:A 0
17 *476:8 *488:10 0.000335724
18 *476:8 *938:25 1.19309e-05
19 *476:8 *938:29 7.72502e-05
20 *476:8 *940:60 0
21 *476:8 *940:77 0.000121573
22 *476:8 *940:90 0.000134788
23 *386:14 *476:8 4.61002e-05
*RES
1 *2400:Y *476:8 24.55 
2 *476:8 *3320:A 16.8893 
3 *476:8 *3228:A 19.6929 
*END

*D_NET *477 0.0144182
*CONN
*I *3226:A I *D sky130_fd_sc_hd__buf_2
*I *3225:A I *D sky130_fd_sc_hd__clkbuf_4
*I *2401:X O *D sky130_fd_sc_hd__or4_1
*CAP
1 *3226:A 0
2 *3225:A 0.00320611
3 *2401:X 0.00200947
4 *477:18 0.00521558
5 *3225:A *2530:B2 9.08889e-06
6 *3225:A *2639:A 0
7 *3225:A *2640:B1 0.000324426
8 *3225:A *2965:GATE_N 0
9 *3225:A *3065:GATE_N 0.000324426
10 *3225:A *3068:GATE_N 0.000297755
11 *3225:A *580:22 3.49286e-05
12 *3225:A *810:43 0.00105963
13 *3225:A *822:22 6.05161e-06
14 *3225:A *830:26 2.11419e-05
15 *3225:A *858:40 0.000154876
16 *3225:A *887:22 1.36662e-05
17 *3225:A *915:79 1.39702e-05
18 *477:18 *2418:A 1.94879e-05
19 *477:18 *2922:D 1.90936e-05
20 *477:18 *812:59 0
21 *477:18 *830:26 9.54798e-06
22 *477:18 *830:102 0.0006617
23 *477:18 *841:12 1.53472e-05
24 *477:18 *841:24 2.65052e-05
25 *477:18 *878:25 9.50068e-05
26 *477:18 *878:44 0.000187717
27 *477:18 *897:109 0.000110018
28 *477:18 *917:25 0.000102027
29 *3157:A *477:18 2.59355e-05
30 *439:10 *477:18 0.00010798
31 *439:30 *3225:A 0.000125528
32 *439:30 *477:18 0.000221159
*RES
1 *2401:X *477:18 31.5184 
2 *477:18 *3225:A 39.6535 
3 *477:18 *3226:A 13.8 
*END

*D_NET *478 0.00397042
*CONN
*I *2403:B I *D sky130_fd_sc_hd__nor2_1
*I *2448:A I *D sky130_fd_sc_hd__nand2_1
*I *2449:A1 I *D sky130_fd_sc_hd__a211oi_1
*I *2706:A I *D sky130_fd_sc_hd__and3_1
*I *2402:X O *D sky130_fd_sc_hd__or3b_1
*CAP
1 *2403:B 1.72105e-05
2 *2448:A 0
3 *2449:A1 0.000141226
4 *2706:A 2.23854e-05
5 *2402:X 0.000172721
6 *478:35 0.000635196
7 *478:14 0.000593514
8 *478:8 0.00026709
9 *2403:B *2706:B 4.66511e-05
10 *2403:B *972:10 5.59013e-05
11 *2449:A1 *2449:A2 5.52238e-05
12 *2449:A1 *880:37 8.8777e-05
13 *2449:A1 *1009:22 0.000246057
14 *2706:A *2706:C 0
15 *478:8 *2403:A 0.000136958
16 *478:8 *3189:A 5.33005e-05
17 *478:8 *1033:14 1.02821e-05
18 *478:14 *2706:B 7.83587e-05
19 *478:14 *972:10 7.6644e-05
20 *478:35 *2448:B 9.41642e-05
21 *478:35 *2451:C 9.60939e-05
22 *478:35 *3336:A 0.000413094
23 *478:35 *507:12 4.75908e-05
24 *478:35 *883:31 0.000222666
25 *478:35 *965:6 7.32272e-05
26 *478:35 *965:12 7.48091e-05
27 *478:35 *1009:22 5.58941e-05
28 PADDR[2] *2449:A1 7.07702e-05
29 *2453:A *478:35 5.10822e-05
30 *433:10 *478:14 1.40306e-05
31 *433:10 *478:35 5.95056e-05
*RES
1 *2402:X *478:8 15.9786 
2 *478:8 *478:14 6.07143 
3 *478:14 *2706:A 9.72857 
4 *478:14 *478:35 20.375 
5 *478:35 *2449:A1 22.4071 
6 *478:35 *2448:A 9.3 
7 *478:8 *2403:B 14.5321 
*END

*D_NET *479 0.00169154
*CONN
*I *3189:A I *D sky130_fd_sc_hd__clkbuf_4
*I *2403:Y O *D sky130_fd_sc_hd__nor2_1
*CAP
1 *3189:A 0.000440598
2 *2403:Y 0.000440598
3 *3189:A *2403:A 0
4 *3189:A *2839:D 0.000154225
5 *3189:A *767:23 0.000133012
6 *3189:A *794:14 1.41029e-05
7 *3189:A *883:10 0.000253429
8 *3189:A *883:14 0.000142871
9 *3189:A *885:106 3.34687e-05
10 *3189:A *1007:22 0
11 *3189:A *1033:14 2.59355e-05
12 *431:10 *3189:A 0
13 *478:8 *3189:A 5.33005e-05
*RES
1 *2403:Y *3189:A 36.85 
*END

*D_NET *480 0.00287171
*CONN
*I *2699:C1 I *D sky130_fd_sc_hd__o311a_1
*I *2409:B1 I *D sky130_fd_sc_hd__o21ai_1
*I *2404:Y O *D sky130_fd_sc_hd__nand2_1
*CAP
1 *2699:C1 0.000711365
2 *2409:B1 0.000354434
3 *2404:Y 0
4 *480:4 0.0010658
5 *2409:B1 *2409:A2 5.35423e-05
6 *2409:B1 *2776:A3 1.72079e-05
7 *2409:B1 *2779:D 8.6229e-06
8 *2409:B1 *485:10 5.33334e-05
9 *2409:B1 *672:65 0
10 *2409:B1 *883:119 5.66004e-05
11 *2409:B1 *929:10 6.13683e-05
12 *2699:C1 *2404:A 0.000266479
13 *2699:C1 *675:30 0.000222954
*RES
1 *2404:Y *480:4 9.3 
2 *480:4 *2409:B1 25.1393 
3 *480:4 *2699:C1 18.7821 
*END

*D_NET *481 0.00318109
*CONN
*I *2748:A1 I *D sky130_fd_sc_hd__o21ai_1
*I *2751:A1 I *D sky130_fd_sc_hd__a221o_1
*I *2405:Y O *D sky130_fd_sc_hd__nor2_1
*CAP
1 *2748:A1 0.000430323
2 *2751:A1 6.30536e-05
3 *2405:Y 0.000403363
4 *481:18 0.00089674
5 *2748:A1 *2406:A 0
6 *2748:A1 *2458:A 0
7 *2748:A1 *2745:B2 0.00043032
8 *2748:A1 *482:12 4.71964e-05
9 *2748:A1 *720:12 0.000193118
10 *2748:A1 *722:8 1.41706e-05
11 *2748:A1 *722:17 1.5942e-05
12 *2751:A1 *2458:A 0
13 *2751:A1 *2752:A1 2.34204e-05
14 *2751:A1 *804:39 9.91086e-05
15 *481:18 *2744:A1 5.91452e-05
16 *481:18 *2744:A2 4.21497e-05
17 *481:18 *2744:B1_N 5.33334e-05
18 *481:18 *2745:B2 9.80173e-05
19 *481:18 *2752:A2 9.41642e-05
20 *481:18 *782:43 7.83587e-05
21 *481:18 *783:8 5.33005e-05
22 *481:18 *804:39 7.6644e-05
23 *3102:D *481:18 9.22103e-06
*RES
1 *2405:Y *481:18 25.4786 
2 *481:18 *2751:A1 19.6393 
3 *481:18 *2748:A1 25.9964 
*END

*D_NET *482 0.00100042
*CONN
*I *2756:A1 I *D sky130_fd_sc_hd__o21ai_1
*I *2758:A1 I *D sky130_fd_sc_hd__a21bo_1
*I *2406:X O *D sky130_fd_sc_hd__or3_1
*CAP
1 *2756:A1 0
2 *2758:A1 5.54194e-05
3 *2406:X 0.000150425
4 *482:12 0.000205844
5 *2758:A1 *2745:B2 0.00022459
6 *2758:A1 *722:23 2.14658e-05
7 *2758:A1 *722:25 9.60939e-05
8 *2758:A1 *722:29 9.60875e-05
9 *482:12 *2458:A 7.2754e-05
10 *482:12 *2757:A2 3.05446e-05
11 *2748:A1 *482:12 4.71964e-05
*RES
1 *2406:X *482:12 21.1929 
2 *482:12 *2758:A1 11.4786 
3 *482:12 *2756:A1 9.3 
*END

*D_NET *483 0.00450564
*CONN
*I *3319:A I *D sky130_fd_sc_hd__buf_1
*I *2408:A I *D sky130_fd_sc_hd__inv_2
*I *2776:B1 I *D sky130_fd_sc_hd__a32o_1
*I *2407:Y O *D sky130_fd_sc_hd__nor4_1
*CAP
1 *3319:A 0
2 *2408:A 0.000167093
3 *2776:B1 0.00035148
4 *2407:Y 0.00055462
5 *483:14 0.000660946
6 *483:10 0.000696993
7 *2408:A *2778:A1 0.000230482
8 *2408:A *3115:A 5.71472e-05
9 *2408:A *484:6 0.000210223
10 *2776:B1 *2776:A2 2.63793e-05
11 *2776:B1 *2776:B2 1.33343e-05
12 *2776:B1 *2778:A1 0.000443358
13 *2776:B1 *3117:A 4.80729e-05
14 *2776:B1 *680:16 0
15 *2776:B1 *751:18 1.5921e-05
16 *2776:B1 *771:10 0.000271958
17 *2776:B1 *804:10 0.000153054
18 *483:10 *2406:A 2.34204e-05
19 *483:10 *2406:C 9.22103e-06
20 *483:10 *2458:A 0
21 *483:10 *2743:A1 0
22 *483:10 *2757:A2 0.000397918
23 *483:10 *722:8 0
24 *483:10 *783:52 8.16625e-05
25 *483:10 *784:25 1.72894e-05
26 *483:14 *2458:A 0
27 *483:14 *2743:A1 0
28 *483:14 *929:8 7.50697e-05
29 *471:14 *483:10 0
*RES
1 *2407:Y *483:10 21.7286 
2 *483:10 *483:14 7.35714 
3 *483:14 *2776:B1 27.7732 
4 *483:14 *2408:A 13.5321 
5 *483:10 *3319:A 13.8 
*END

*D_NET *484 0.00394509
*CONN
*I *2743:A1 I *D sky130_fd_sc_hd__o221a_2
*I *2778:A1 I *D sky130_fd_sc_hd__a21oi_1
*I *2408:Y O *D sky130_fd_sc_hd__inv_2
*CAP
1 *2743:A1 0.000104117
2 *2778:A1 0.000598889
3 *2408:Y 7.04718e-05
4 *484:6 0.000773478
5 *2778:A1 *2457:A 0.000137983
6 *2778:A1 *2778:A2 5.33005e-05
7 *2778:A1 *2779:D 5.06354e-05
8 *2778:A1 *737:16 0.000345291
9 *2778:A1 *751:18 0.000120724
10 *2778:A1 *771:10 6.68371e-05
11 *2778:A1 *801:10 0.000140933
12 *2778:A1 *801:21 0
13 *2778:A1 *801:34 0
14 *2778:A1 *804:10 0.000177941
15 *2778:A1 *883:127 5.81579e-05
16 *484:6 *3115:A 2.44318e-05
17 *484:6 *737:16 0.000137427
18 *2408:A *2778:A1 0.000230482
19 *2408:A *484:6 0.000210223
20 *2776:B1 *2778:A1 0.000443358
21 *471:14 *2743:A1 0.000200413
22 *483:10 *2743:A1 0
23 *483:14 *2743:A1 0
*RES
1 *2408:Y *484:6 11.8893 
2 *484:6 *2778:A1 34.6929 
3 *484:6 *2743:A1 20.8536 
*END

*D_NET *485 0.00916794
*CONN
*I *3151:A I *D sky130_fd_sc_hd__dlymetal6s2s_1
*I *3150:A I *D sky130_fd_sc_hd__buf_2
*I *2409:Y O *D sky130_fd_sc_hd__o21ai_1
*CAP
1 *3151:A 0.000404291
2 *3150:A 0.0010777
3 *2409:Y 0.000707637
4 *485:10 0.00218963
5 *3150:A *2615:B1 4.66545e-05
6 *3150:A *2807:GATE_N 0.000137568
7 *3150:A *492:18 0.000658852
8 *3150:A *565:20 0.0021719
9 *3150:A *647:20 0
10 *3150:A *812:47 2.86824e-05
11 *3150:A *812:59 0.000423258
12 *3150:A *832:64 0
13 *3150:A *840:130 3.18676e-05
14 *3150:A *866:8 0
15 *3150:A *887:22 2.08409e-05
16 *3150:A *893:16 2.8196e-05
17 *3151:A *2881:D 1.02504e-05
18 *3151:A *3041:D 5.76121e-05
19 *3151:A *3213:A 0.00032278
20 *3151:A *498:10 7.49387e-06
21 *3151:A *651:14 0.000232547
22 *3151:A *812:47 3.58772e-05
23 *3151:A *812:59 6.05161e-06
24 *3151:A *866:8 0.000145868
25 *485:10 *2409:A2 7.43578e-06
26 *485:10 *2609:B1 6.5185e-05
27 *485:10 *2807:GATE_N 0.000190789
28 *485:10 *2881:GATE_N 9.59532e-06
29 *485:10 *3213:A 0
30 *485:10 *887:47 0
31 *485:10 *897:84 1.78353e-05
32 *485:10 *925:10 0
33 *2409:B1 *485:10 5.33334e-05
34 *2609:A1 *485:10 3.83576e-05
35 *3136:A *485:10 3.98613e-05
*RES
1 *2409:Y *485:10 25.9071 
2 *485:10 *3150:A 30.6077 
3 *485:10 *3151:A 32.5321 
*END

*D_NET *486 0.00275669
*CONN
*I *3318:A I *D sky130_fd_sc_hd__clkbuf_1
*I *3224:A I *D sky130_fd_sc_hd__buf_2
*I *2411:Y O *D sky130_fd_sc_hd__nor4b_1
*CAP
1 *3318:A 0.000307225
2 *3224:A 0.000306529
3 *2411:Y 0.000183142
4 *486:8 0.000796896
5 *3224:A *2528:C1 9.66526e-05
6 *3224:A *3205:A 1.59689e-05
7 *3224:A *848:43 5.80706e-06
8 *3224:A *848:58 2.39876e-05
9 *3224:A *848:71 7.85886e-05
10 *3224:A *905:16 0
11 *3224:A *905:22 0.000130625
12 *3224:A *905:97 0
13 *3318:A *2428:B 0
14 *3318:A *848:43 9.74492e-05
15 *3318:A *905:97 0
16 *3318:A *928:12 0
17 *486:8 *3208:A 5.52238e-05
18 *486:8 *905:8 9.41642e-05
19 *2516:B2 *3224:A 0.000338351
20 *2612:B2 *3318:A 0
21 *3175:A *486:8 0.000226078
*RES
1 *2411:Y *486:8 18.0321 
2 *486:8 *3224:A 21.5679 
3 *486:8 *3318:A 19.3179 
*END

*D_NET *487 0.00432678
*CONN
*I *3317:A I *D sky130_fd_sc_hd__clkbuf_1
*I *3221:A I *D sky130_fd_sc_hd__clkbuf_4
*I *2413:Y O *D sky130_fd_sc_hd__nor4b_1
*CAP
1 *3317:A 8.97135e-05
2 *3221:A 0.00060887
3 *2413:Y 0.000426537
4 *487:10 0.00112512
5 *3221:A *2400:D 4.08637e-05
6 *3221:A *2432:A 0.00010096
7 *3221:A *2527:B1 3.9846e-05
8 *3221:A *2612:A2 5.52238e-05
9 *3221:A *815:14 2.89114e-05
10 *3221:A *848:43 0.000470633
11 *3221:A *899:82 0.000207233
12 *3221:A *936:25 0.00040381
13 *3317:A *848:43 4.25716e-05
14 *3317:A *936:10 0
15 *3317:A *936:34 2.24646e-05
16 *3317:A *938:25 0
17 *487:10 *3207:A 2.34204e-05
18 *487:10 *848:43 2.19684e-05
19 *487:10 *936:34 0.000171368
20 *487:10 *938:29 0
21 *487:10 *943:39 2.44318e-05
22 *487:10 *943:46 2.89016e-05
23 *3175:A *487:10 0.000393936
*RES
1 *2413:Y *487:10 20.6929 
2 *487:10 *3221:A 27.8893 
3 *487:10 *3317:A 15.7464 
*END

*D_NET *488 0.008108
*CONN
*I *3220:A I *D sky130_fd_sc_hd__buf_2
*I *3219:A I *D sky130_fd_sc_hd__clkbuf_4
*I *2415:X O *D sky130_fd_sc_hd__and4bb_1
*CAP
1 *3220:A 0.000926498
2 *3219:A 0.00125784
3 *2415:X 0.000252752
4 *488:10 0.00243709
5 *3219:A *2635:A2 0.000146
6 *3219:A *2636:B1 0.000237742
7 *3219:A *2638:C1 0.000246656
8 *3219:A *3207:A 0
9 *3219:A *805:84 0.00058389
10 *3219:A *832:64 0
11 *3219:A *833:91 0
12 *3219:A *833:177 0.000125057
13 *3219:A *840:12 0.000103267
14 *3219:A *898:127 3.0285e-05
15 *3219:A *920:17 0.000227532
16 *3219:A *933:22 0
17 *3219:A *933:28 0
18 *3220:A *2615:A2 2.95642e-05
19 *3220:A *2615:B1 0.000177204
20 *3220:A *2970:GATE_N 8.39471e-05
21 *3220:A *3315:A 6.05161e-06
22 *3220:A *847:37 0.000107974
23 *3220:A *921:16 5.33005e-05
24 *3220:A *921:26 0.000119185
25 *3220:A *927:22 0.000289671
26 *488:10 *940:60 0
27 *488:10 *943:6 1.92905e-05
28 *2484:A1 *3219:A 0.000123288
29 *2616:B2 *3220:A 0
30 *2637:A1 *3219:A 0
31 *3320:A *3219:A 0.000166656
32 *3320:A *488:10 2.15339e-05
33 *476:8 *488:10 0.000335724
*RES
1 *2415:X *488:10 19.0143 
2 *488:10 *3219:A 44.3357 
3 *488:10 *3220:A 39.425 
*END

*D_NET *489 0.00135888
*CONN
*I *3370:A I *D sky130_fd_sc_hd__clkbuf_1
*I *2417:Y O *D sky130_fd_sc_hd__nor4b_1
*CAP
1 *3370:A 0.000453763
2 *2417:Y 0.000453763
3 *3370:A *2401:D 0.000146474
4 *3370:A *2417:A 9.90367e-05
5 *3370:A *2421:C 4.46231e-06
6 *3370:A *2433:D 0.000125731
7 *3370:A *937:61 5.38242e-05
8 *3370:A *944:10 2.18262e-05
9 *3157:A *3370:A 0
10 *383:12 *3370:A 0
*RES
1 *2417:Y *3370:A 34.6714 
*END

*D_NET *490 0.00953967
*CONN
*I *3216:A I *D sky130_fd_sc_hd__buf_2
*I *3215:A I *D sky130_fd_sc_hd__clkbuf_4
*I *2419:X O *D sky130_fd_sc_hd__and4bb_1
*CAP
1 *3216:A 0.000344467
2 *3215:A 0.00141939
3 *2419:X 0.000671261
4 *490:8 0.00243512
5 *3215:A *2638:A2 0
6 *3215:A *2640:B2 0
7 *3215:A *2862:GATE_N 5.26224e-05
8 *3215:A *2874:GATE_N 7.40571e-05
9 *3215:A *2942:GATE_N 0.000672161
10 *3215:A *2953:D 0.000220596
11 *3215:A *2963:GATE_N 0.000168954
12 *3215:A *3168:A 0.000225609
13 *3215:A *499:22 0
14 *3215:A *811:78 0
15 *3215:A *827:94 6.27058e-05
16 *3215:A *832:79 6.90424e-05
17 *3215:A *844:95 0
18 *3215:A *849:10 7.57056e-05
19 *3215:A *849:43 0.0001387
20 *3215:A *860:10 1.33343e-05
21 *3215:A *862:30 0
22 *3215:A *889:34 9.66225e-05
23 *3215:A *896:16 0
24 *3216:A *2958:GATE_N 3.19477e-05
25 *3216:A *873:33 1.92789e-05
26 *3216:A *873:71 5.38242e-05
27 *3216:A *915:16 3.81416e-06
28 *490:8 *2874:GATE_N 0.000790219
29 *490:8 *2942:GATE_N 5.54204e-05
30 *490:8 *499:8 0.000463133
31 *490:8 *499:22 0.000112323
32 *490:8 *823:38 0
33 *490:8 *832:79 1.37429e-05
34 *490:8 *834:68 0.000983522
35 *490:8 *893:16 0
36 *490:8 *915:16 2.56694e-05
37 *2480:B2 *490:8 0
38 *2482:B2 *490:8 5.26091e-05
39 *2600:B2 *3215:A 0
40 *3162:A *3215:A 0.000193814
*RES
1 *2419:X *490:8 33.3536 
2 *490:8 *3215:A 43.5679 
3 *490:8 *3216:A 18.2464 
*END

*D_NET *491 0.0059493
*CONN
*I *3214:A I *D sky130_fd_sc_hd__clkbuf_2
*I *3213:A I *D sky130_fd_sc_hd__clkbuf_4
*I *2421:X O *D sky130_fd_sc_hd__and4bb_1
*CAP
1 *3214:A 0
2 *3213:A 0.00081118
3 *2421:X 0.00115564
4 *491:10 0.00196682
5 *3213:A *2609:B1 2.61337e-05
6 *3213:A *2881:D 0.000143446
7 *3213:A *2946:D 9.60875e-05
8 *3213:A *651:14 0.00017655
9 *3213:A *651:22 0.000140393
10 *3213:A *841:12 5.52238e-05
11 *3213:A *897:84 0.000350136
12 *491:10 *2421:D 1.67323e-05
13 *491:10 *2609:A2 0.000203743
14 *491:10 *2609:B1 5.94896e-06
15 *491:10 *2610:C1 4.43256e-05
16 *491:10 *2922:D 1.58163e-05
17 *491:10 *897:59 0.000117553
18 *491:10 *897:84 0.000146523
19 *2524:B2 *3213:A 9.90431e-05
20 *3136:A *491:10 5.52238e-05
21 *3151:A *3213:A 0.00032278
22 *485:10 *3213:A 0
*RES
1 *2421:X *491:10 24.55 
2 *491:10 *3213:A 35.1571 
3 *491:10 *3214:A 9.3 
*END

*D_NET *492 0.00985294
*CONN
*I *3212:A I *D sky130_fd_sc_hd__clkbuf_2
*I *3211:A I *D sky130_fd_sc_hd__clkbuf_4
*I *2423:X O *D sky130_fd_sc_hd__and4b_1
*CAP
1 *3212:A 3.04135e-05
2 *3211:A 0
3 *2423:X 0.000513937
4 *492:34 0.00196173
5 *492:18 0.00250608
6 *3212:A *910:8 5.33005e-05
7 *492:18 *2435:C 0
8 *492:18 *812:59 0.000349657
9 *492:18 *918:12 6.97736e-05
10 *492:18 *939:73 4.86429e-05
11 *492:18 *940:6 5.33433e-05
12 *492:34 *2479:A2 0.00124829
13 *492:34 *2535:C1 0.000304232
14 *492:34 *2601:A2 7.25545e-05
15 *492:34 *2606:A 5.52302e-05
16 *492:34 *2616:A2 7.25293e-05
17 *492:34 *2622:A2 0.000105163
18 *492:34 *2623:C1 0.00010096
19 *492:34 *3054:GATE_N 6.8646e-06
20 *492:34 *3067:D 3.67142e-05
21 *492:34 *3067:GATE_N 3.14048e-05
22 *492:34 *3201:A 0
23 *492:34 *829:32 0
24 *492:34 *850:57 0
25 *492:34 *916:21 4.42887e-05
26 *492:34 *917:70 0.000218675
27 *492:34 *918:12 0.00102948
28 *2481:A1 *492:34 5.18717e-05
29 *2534:A1 *492:34 0.000165904
30 *2622:B2 *492:34 6.30551e-05
31 *3150:A *492:18 0.000658852
*RES
1 *2423:X *492:18 25.9081 
2 *492:18 *492:34 48.9464 
3 *492:34 *3211:A 9.3 
4 *492:18 *3212:A 14.3357 
*END

*D_NET *493 0.00134078
*CONN
*I *3210:A I *D sky130_fd_sc_hd__clkbuf_2
*I *3315:A I *D sky130_fd_sc_hd__clkbuf_1
*I *2425:Y O *D sky130_fd_sc_hd__nor4b_1
*CAP
1 *3210:A 0
2 *3315:A 0.000105802
3 *2425:Y 0.000255298
4 *493:12 0.000361101
5 *493:12 *2429:C 0.000149911
6 *493:12 *2614:C1 2.40261e-05
7 *493:12 *3195:A 5.52238e-05
8 *493:12 *500:10 7.04617e-05
9 *493:12 *565:20 4.32957e-05
10 *493:12 *903:14 0
11 *493:12 *933:101 0
12 *493:12 *940:16 4.25809e-05
13 *3220:A *3315:A 6.05161e-06
14 *3228:A *3315:A 0.00014285
15 *3228:A *493:12 8.41815e-05
*RES
1 *2425:Y *493:12 24.2464 
2 *493:12 *3315:A 11.4964 
3 *493:12 *3210:A 9.3 
*END

*D_NET *494 0.0052399
*CONN
*I *3207:A I *D sky130_fd_sc_hd__clkbuf_4
*I *3208:A I *D sky130_fd_sc_hd__clkbuf_2
*I *2427:X O *D sky130_fd_sc_hd__and4bb_1
*CAP
1 *3207:A 0.00115424
2 *3208:A 0.000266036
3 *2427:X 0
4 *494:4 0.00142028
5 *3207:A *2429:A_N 9.24299e-05
6 *3207:A *2429:B_N 7.53568e-05
7 *3207:A *2483:A2 4.46186e-06
8 *3207:A *2484:C1 6.05161e-06
9 *3207:A *2636:B1 0.00016479
10 *3207:A *3196:A 2.78056e-05
11 *3207:A *500:10 0.000249589
12 *3207:A *834:68 8.25512e-05
13 *3207:A *848:43 0.000282443
14 *3207:A *889:16 0.000106921
15 *3207:A *904:8 3.32631e-05
16 *3207:A *907:14 0.000295911
17 *3207:A *907:26 2.61337e-05
18 *3207:A *936:36 0
19 *3207:A *938:29 0.000144038
20 *3208:A *2411:C 5.97623e-05
21 *3208:A *2612:A2 8.50152e-05
22 *3208:A *2614:B1 6.79722e-05
23 *3208:A *848:43 0.000366445
24 *3208:A *899:74 4.89264e-05
25 *2612:A1 *3208:A 0.000100831
26 *3219:A *3207:A 0
27 *3320:A *3207:A 0
28 *476:8 *3207:A 0
29 *486:8 *3208:A 5.52238e-05
30 *487:10 *3207:A 2.34204e-05
*RES
1 *2427:X *494:4 9.3 
2 *494:4 *3208:A 25.2286 
3 *494:4 *3207:A 40.8893 
*END

*D_NET *495 0.00235174
*CONN
*I *3206:A I *D sky130_fd_sc_hd__clkbuf_2
*I *3205:A I *D sky130_fd_sc_hd__clkbuf_4
*I *2429:X O *D sky130_fd_sc_hd__and4bb_1
*CAP
1 *3206:A 0
2 *3205:A 0.000343646
3 *2429:X 0.000318236
4 *495:8 0.000661882
5 *3205:A *2528:C1 0.000100831
6 *3205:A *848:71 0.000137939
7 *3205:A *848:77 0.000214449
8 *3205:A *905:16 9.41642e-05
9 *3205:A *905:22 0
10 *3205:A *933:101 0.00015732
11 *495:8 *2614:C1 0.000269296
12 *495:8 *933:101 2.24079e-05
13 *495:8 *940:16 1.56e-05
14 *3224:A *3205:A 1.59689e-05
*RES
1 *2429:X *495:8 13.55 
2 *495:8 *3205:A 25.9786 
3 *495:8 *3206:A 9.3 
*END

*D_NET *496 0.0066597
*CONN
*I *3204:A I *D sky130_fd_sc_hd__clkbuf_2
*I *3203:A I *D sky130_fd_sc_hd__clkbuf_4
*I *2431:X O *D sky130_fd_sc_hd__and4b_1
*CAP
1 *3204:A 0
2 *3203:A 0
3 *2431:X 0.000307147
4 *496:24 0.00111877
5 *496:14 0.00142592
6 *496:14 *2411:B 7.17136e-05
7 *496:14 *2411:C 1.58163e-05
8 *496:14 *2431:D 5.33005e-05
9 *496:14 *2614:B1 0.00012401
10 *496:14 *867:76 7.32173e-05
11 *496:14 *899:74 0.000113285
12 *496:24 *2559:A2 6.05161e-06
13 *496:24 *2637:B1 9.86351e-05
14 *496:24 *2901:GATE_N 0.000269422
15 *496:24 *2988:GATE_N 9.22222e-06
16 *496:24 *3020:GATE_N 6.97409e-05
17 *496:24 *3036:GATE_N 0.000107493
18 *496:24 *3098:D 6.33359e-05
19 *496:24 *3098:GATE_N 0.000150618
20 *496:24 *859:44 1.90936e-05
21 *496:24 *862:30 0.000190666
22 *496:24 *867:76 2.89114e-05
23 *496:24 *899:8 0.000134201
24 *496:24 *899:10 5.57982e-05
25 *496:24 *899:12 0.000152536
26 *496:24 *899:74 1.78353e-05
27 *496:24 *904:36 3.92854e-05
28 *496:24 *928:12 0.0017062
29 *2477:B2 *496:24 0.000229979
30 *3175:A *496:14 7.49387e-06
*RES
1 *2431:X *496:14 23.8893 
2 *496:14 *496:24 41.3929 
3 *496:24 *3203:A 9.3 
4 *496:14 *3204:A 9.3 
*END

*D_NET *497 0.00789888
*CONN
*I *3202:A I *D sky130_fd_sc_hd__buf_2
*I *3201:A I *D sky130_fd_sc_hd__clkbuf_4
*I *2433:X O *D sky130_fd_sc_hd__and4bb_1
*CAP
1 *3202:A 0.000172662
2 *3201:A 0.00137496
3 *2433:X 0.000347565
4 *497:20 0.00189519
5 *3201:A *2435:A_N 6.24997e-05
6 *3201:A *2479:A2 2.88635e-05
7 *3201:A *2481:A2 0.000499055
8 *3201:A *2485:A 6.42338e-05
9 *3201:A *2485:C 0.000107035
10 *3201:A *2534:B1 0.000183141
11 *3201:A *2535:A2 0.000402684
12 *3201:A *2616:A2 1.67389e-05
13 *3201:A *3054:GATE_N 0.000326499
14 *3201:A *812:69 6.6189e-05
15 *3201:A *896:138 0
16 *3201:A *910:18 0
17 *3201:A *917:70 0.000244855
18 *3201:A *918:12 0
19 *3201:A *921:16 9.54536e-05
20 *3201:A *921:103 0.000298756
21 *3201:A *941:51 1.88578e-05
22 *3202:A *834:76 0.000185814
23 *3202:A *847:12 9.25014e-06
24 *3202:A *847:27 0.000122091
25 *3202:A *918:12 1.63058e-05
26 *497:20 *3050:D 5.33005e-05
27 *497:20 *3050:GATE_N 5.52238e-05
28 *497:20 *3233:A 0.000290264
29 *497:20 *834:76 0.000137983
30 *497:20 *847:12 9.69119e-06
31 *497:20 *941:38 0.000181796
32 *497:20 *941:49 9.97648e-05
33 *497:20 *941:51 0.000116147
34 *497:20 *941:66 5.74499e-06
35 *2481:A1 *3201:A 8.08244e-05
36 *2481:B2 *3201:A 0.000121411
37 *2534:A1 *3201:A 7.80714e-06
38 *2535:A1 *3201:A 9.96264e-05
39 *2616:A1 *3201:A 0.000100596
40 *492:34 *3201:A 0
*RES
1 *2433:X *497:20 31.1125 
2 *497:20 *3201:A 47.1661 
3 *497:20 *3202:A 17.9161 
*END

*D_NET *498 0.00859714
*CONN
*I *3200:A I *D sky130_fd_sc_hd__clkbuf_2
*I *3199:A I *D sky130_fd_sc_hd__clkbuf_4
*I *2435:X O *D sky130_fd_sc_hd__and4b_1
*CAP
1 *3200:A 5.2347e-05
2 *3199:A 0
3 *2435:X 0.000691815
4 *498:18 0.00163073
5 *498:10 0.0023749
6 *3200:A *565:20 6.62868e-05
7 *3200:A *931:16 8.64035e-05
8 *498:10 *2954:D 5.52238e-05
9 *498:10 *2954:GATE_N 5.52302e-05
10 *498:10 *3041:D 0.000186662
11 *498:10 *565:20 5.74499e-06
12 *498:10 *812:47 9.57872e-05
13 *498:10 *812:59 4.33822e-05
14 *498:10 *839:10 2.59355e-05
15 *498:10 *931:16 0.000693877
16 *498:18 *2555:A2 0
17 *498:18 *2555:C1 2.06112e-05
18 *498:18 *2560:B 7.83587e-05
19 *498:18 *2610:C1 0.000163475
20 *498:18 *2622:B1 5.30637e-06
21 *498:18 *2633:A2 1.90936e-05
22 *498:18 *2633:B1 0
23 *498:18 *2846:GATE_N 0.000487184
24 *498:18 *3093:GATE_N 0.000197103
25 *498:18 *565:20 0.000110238
26 *498:18 *805:22 3.47641e-06
27 *498:18 *809:165 0.000547037
28 *498:18 *839:10 2.51989e-05
29 *498:18 *842:50 6.13706e-05
30 *498:18 *895:12 0
31 *498:18 *895:14 0
32 *2510:B2 *498:10 1.15172e-05
33 *2511:B2 *498:18 4.15914e-05
34 *2554:A1 *498:18 0.00016116
35 *2609:B2 *498:10 1.40306e-05
36 *3139:A *498:18 0.000127439
37 *3149:A *3200:A 5.33005e-05
38 *3149:A *498:18 0.000276368
39 *3151:A *498:10 7.49387e-06
40 *435:32 *498:18 0.000121456
*RES
1 *2435:X *498:10 23.425 
2 *498:10 *498:18 45.4821 
3 *498:18 *3199:A 9.3 
4 *498:10 *3200:A 11.0679 
*END

*D_NET *499 0.00828797
*CONN
*I *3198:A I *D sky130_fd_sc_hd__clkbuf_2
*I *3197:A I *D sky130_fd_sc_hd__clkbuf_4
*I *2437:X O *D sky130_fd_sc_hd__and4b_1
*CAP
1 *3198:A 6.96551e-05
2 *3197:A 0
3 *2437:X 0.000261523
4 *499:22 0.00157495
5 *499:8 0.00190612
6 *3198:A *2970:GATE_N 1.3701e-05
7 *3198:A *840:130 2.72859e-05
8 *3198:A *893:8 5.71472e-05
9 *499:8 *2423:A_N 8.56716e-05
10 *499:8 *2615:B1 3.07006e-05
11 *499:8 *647:20 0.000224301
12 *499:8 *834:68 6.7257e-05
13 *499:8 *893:16 6.20091e-06
14 *499:8 *927:22 7.69776e-06
15 *499:8 *937:19 1.76135e-05
16 *499:22 *2482:B1 0.00012501
17 *499:22 *2518:D 0.000375617
18 *499:22 *2534:B1 0
19 *499:22 *2897:GATE_N 1.09026e-05
20 *499:22 *2915:GATE_N 0
21 *499:22 *2963:D 6.94152e-05
22 *499:22 *2963:GATE_N 9.61199e-05
23 *499:22 *2970:GATE_N 0.000146692
24 *499:22 *3054:D 0.000224108
25 *499:22 *3081:GATE_N 0.000125057
26 *499:22 *823:38 0.000325409
27 *499:22 *893:16 3.91789e-05
28 *499:22 *896:16 0.000384641
29 *499:22 *896:138 6.04176e-05
30 *499:22 *921:26 0.000370485
31 *499:22 *923:53 2.04825e-05
32 *2600:A1 *499:22 0.000383123
33 *3155:A *499:22 0.000227532
34 *3215:A *499:22 0
35 *435:14 *499:22 0.000378498
36 *490:8 *499:8 0.000463133
37 *490:8 *499:22 0.000112323
*RES
1 *2437:X *499:8 21.5143 
2 *499:8 *499:22 46.2471 
3 *499:22 *3197:A 9.3 
4 *499:8 *3198:A 15.4786 
*END

*D_NET *500 0.010138
*CONN
*I *3195:A I *D sky130_fd_sc_hd__clkbuf_4
*I *3196:A I *D sky130_fd_sc_hd__buf_2
*I *2439:X O *D sky130_fd_sc_hd__and4_1
*CAP
1 *3195:A 1.1624e-05
2 *3196:A 0.00157767
3 *2439:X 0.000341607
4 *500:10 0.0019309
5 *3196:A *2518:A 5.52238e-05
6 *3196:A *2518:B 0.000111922
7 *3196:A *2518:D 0.0021941
8 *3196:A *2530:B2 0.00165735
9 *3196:A *2614:C1 0
10 *3196:A *830:26 6.53397e-05
11 *3196:A *866:22 6.53397e-05
12 *3196:A *889:10 6.33204e-05
13 *3196:A *907:14 6.28948e-05
14 *3196:A *910:70 9.70533e-05
15 *3196:A *927:22 0.00104151
16 *500:10 *2429:C 0.000213841
17 *500:10 *2614:C1 0
18 *500:10 *936:36 5.01213e-05
19 *500:10 *936:82 0.000139913
20 *3207:A *3196:A 2.78056e-05
21 *3207:A *500:10 0.000249589
22 *3228:A *3195:A 5.52238e-05
23 *493:12 *3195:A 5.52238e-05
24 *493:12 *500:10 7.04617e-05
*RES
1 *2439:X *500:10 21.6571 
2 *500:10 *3196:A 32.5101 
3 *500:10 *3195:A 14.3357 
*END

*D_NET *501 0.00534712
*CONN
*I *2447:A I *D sky130_fd_sc_hd__nand2_1
*I *2755:A1 I *D sky130_fd_sc_hd__o32a_1
*I *2745:A2 I *D sky130_fd_sc_hd__o22a_1
*I *2741:A I *D sky130_fd_sc_hd__nand2_1
*I *2442:A I *D sky130_fd_sc_hd__inv_2
*I *2715:B2 I *D sky130_fd_sc_hd__o2bb2a_1
*I *2441:X O *D sky130_fd_sc_hd__or4b_4
*CAP
1 *2447:A 4.73356e-05
2 *2755:A1 8.84193e-05
3 *2745:A2 0
4 *2741:A 8.09512e-05
5 *2442:A 0
6 *2715:B2 3.27365e-05
7 *2441:X 0.000155465
8 *501:42 0.000221736
9 *501:40 0.00048206
10 *501:36 0.000432443
11 *501:25 0.000470704
12 *501:8 0.000526653
13 *2447:A *2447:B 2.39876e-05
14 *2447:A *3187:A 0
15 *2447:A *964:20 0
16 *2715:B2 *672:26 7.24721e-05
17 *2741:A *2756:B1 5.33005e-05
18 *2741:A *3359:A 0.000175512
19 *2755:A1 *2719:A1_N 6.8646e-06
20 *2755:A1 *2727:B1 3.10885e-05
21 *2755:A1 *2756:B1 8.16036e-05
22 *2755:A1 *2759:B 4.30584e-06
23 *2755:A1 *737:16 9.57064e-05
24 *2755:A1 *957:22 6.607e-06
25 *2755:A1 *974:14 2.06178e-05
26 *501:8 *679:14 0.000352923
27 *501:8 *1031:10 3.21204e-05
28 *501:8 *1031:35 5.16014e-05
29 *501:8 *1031:41 5.58941e-05
30 *501:25 *2395:A 0.000108917
31 *501:25 *2690:B 0.000114759
32 *501:25 *2719:A1_N 0.000114893
33 *501:25 *679:14 0.000327749
34 *501:25 *1031:41 0.000191403
35 *501:36 *2447:B 1.52978e-05
36 *501:36 *2719:A1_N 2.89016e-05
37 *501:36 *1001:8 5.0725e-05
38 *501:40 *2447:B 9.71197e-05
39 *501:40 *2759:A 0.000137983
40 *501:40 *2759:B 7.61932e-05
41 *501:42 *2756:B1 0.000183726
42 *2715:A2_N *2715:B2 9.41642e-05
43 *2715:A2_N *501:8 2.49484e-05
44 *471:14 *2741:A 0.000177227
*RES
1 *2441:X *501:8 18.4786 
2 *501:8 *2715:B2 14.7464 
3 *501:8 *501:25 13.2321 
4 *501:25 *2442:A 9.3 
5 *501:25 *501:36 7.28571 
6 *501:36 *501:40 9.14286 
7 *501:40 *501:42 2.58929 
8 *501:42 *2741:A 21.0857 
9 *501:42 *2745:A2 9.3 
10 *501:40 *2755:A1 21.1571 
11 *501:36 *2447:A 14.5321 
*END

*D_NET *502 0.00369931
*CONN
*I *2695:B I *D sky130_fd_sc_hd__and3_1
*I *2704:A2 I *D sky130_fd_sc_hd__o311a_1
*I *2713:A2 I *D sky130_fd_sc_hd__a31o_1
*I *2699:A2 I *D sky130_fd_sc_hd__o311a_1
*I *2697:A I *D sky130_fd_sc_hd__nor2_1
*I *2443:Y O *D sky130_fd_sc_hd__nand2_1
*CAP
1 *2695:B 0.000136034
2 *2704:A2 0
3 *2713:A2 4.11139e-05
4 *2699:A2 0.000188747
5 *2697:A 0
6 *2443:Y 0.000166167
7 *502:59 0.000234149
8 *502:44 0.000393401
9 *502:21 0.000492545
10 *502:10 0.000215793
11 *2695:B *508:14 9.71197e-05
12 *2695:B *675:30 0.000266479
13 *2699:A2 *2443:B 0.00016641
14 *2699:A2 *2700:A 0.000271339
15 *2699:A2 *2700:C_N 9.73566e-05
16 *2699:A2 *949:80 8.29104e-05
17 *2699:A2 *950:37 2.14658e-05
18 *2713:A2 *2713:A3 3.36025e-05
19 *2713:A2 *2713:B1 1.66277e-05
20 *502:10 *2443:A 0
21 *502:10 *2443:B 0.000316281
22 *502:10 *2799:RESET_B 7.71205e-05
23 *502:10 *950:37 4.46186e-06
24 *502:21 *2713:A3 0
25 *502:44 *2443:B 9.90367e-05
26 *502:44 *2697:B 7.4316e-05
27 *502:44 *2714:A1 4.08555e-06
28 *502:44 *2714:A2 2.42662e-05
29 *502:44 *508:14 4.46186e-06
30 *502:59 *2697:B 0
31 *502:59 *2713:A3 4.10504e-05
32 *502:59 *2714:A1 4.60232e-06
33 *502:59 *508:14 4.16481e-05
34 *2398:C_N *502:21 2.97021e-05
35 *2398:C_N *502:44 8.6086e-06
36 *2713:A1 *2713:A2 3.20085e-05
37 *2713:A1 *502:21 0
38 *2713:A1 *502:44 6.05161e-06
39 *2800:D *2699:A2 0
40 *2800:D *502:10 0
41 *475:10 *2699:A2 1.03483e-05
*RES
1 *2443:Y *502:10 22.3714 
2 *502:10 *2697:A 9.3 
3 *502:10 *502:21 1.39286 
4 *502:21 *2699:A2 23.3536 
5 *502:21 *502:44 9 
6 *502:44 *2713:A2 14.7643 
7 *502:44 *502:59 6.14286 
8 *502:59 *2704:A2 9.3 
9 *502:59 *2695:B 12.3179 
*END

*D_NET *503 0.0106757
*CONN
*I *2735:A1 I *D sky130_fd_sc_hd__a21bo_1
*I *2773:B I *D sky130_fd_sc_hd__and4b_1
*I *2454:B I *D sky130_fd_sc_hd__or2_1
*I *2446:B I *D sky130_fd_sc_hd__nor2_2
*I *2707:B I *D sky130_fd_sc_hd__and3b_1
*I *2717:A2 I *D sky130_fd_sc_hd__o32a_1
*I *2444:X O *D sky130_fd_sc_hd__and3b_2
*CAP
1 *2735:A1 0.000169772
2 *2773:B 0.000792429
3 *2454:B 0.000306772
4 *2446:B 0
5 *2707:B 0
6 *2717:A2 0.000299236
7 *2444:X 8.22268e-05
8 *503:36 0.0016126
9 *503:30 0.000715809
10 *503:12 0.000542106
11 *503:8 0.000357739
12 *2454:B *794:14 0.000738141
13 *2454:B *972:10 0.000151223
14 *2717:A2 *2717:A3 0.000111956
15 *2717:A2 *885:22 5.04705e-05
16 *2717:A2 *947:51 2.14658e-05
17 *2717:A2 *947:61 7.41239e-05
18 *2735:A1 *2396:A 1.37292e-05
19 *2735:A1 *2707:C 0.000148911
20 *2735:A1 *2709:C 0.000378429
21 *2735:A1 *2735:A2 5.52238e-05
22 *2735:A1 *701:44 5.52238e-05
23 *2735:A1 *772:23 0
24 *2735:A1 *868:14 5.34835e-05
25 *2773:B *2772:A1 9.01238e-05
26 *2773:B *2775:A1 7.83659e-05
27 *2773:B *505:18 7.07167e-05
28 *2773:B *505:44 0.000205594
29 *2773:B *880:31 0.000354105
30 *2773:B *1007:22 0.000874493
31 *503:8 *2709:C 9.8232e-05
32 *503:8 *772:23 0
33 *503:12 *885:22 0.000247342
34 *503:30 *2709:C 5.31158e-05
35 *503:30 *772:23 0
36 *503:36 *2396:A 0.000137983
37 *503:36 *2446:A 5.7661e-06
38 *503:36 *2694:A 0.000618483
39 *503:36 *2695:C 8.40933e-05
40 *503:36 *880:20 0.000131385
41 *503:36 *880:31 3.9846e-05
42 *503:36 *885:22 0.000345257
43 *2686:A1 *503:36 6.42095e-05
44 *2765:A *2773:B 6.05161e-06
45 *2773:D *2773:B 0.000170692
46 *2839:GATE_N *2454:B 0.000101198
47 *115:51 *2773:B 2.14658e-05
48 *115:53 *2773:B 8.18631e-05
49 *432:8 *2454:B 6.42338e-05
*RES
1 *2444:X *503:8 15.1393 
2 *503:8 *503:12 7.91071 
3 *503:12 *2717:A2 13.675 
4 *503:12 *2707:B 9.3 
5 *503:8 *503:30 0.732143 
6 *503:30 *503:36 17.375 
7 *503:36 *2446:B 9.3 
8 *503:36 *2454:B 27.8357 
9 *503:36 *2773:B 36.8893 
10 *503:30 *2735:A1 19.3179 
*END

*D_NET *504 0.00274135
*CONN
*I *2771:A I *D sky130_fd_sc_hd__and2_1
*I *3194:A I *D sky130_fd_sc_hd__buf_2
*I *2445:Y O *D sky130_fd_sc_hd__nand3b_1
*CAP
1 *2771:A 0.000768726
2 *3194:A 0
3 *2445:Y 0.000259626
4 *504:12 0.00102835
5 *2771:A *2772:A1 2.28598e-05
6 *2771:A *2772:B2 0.000184745
7 *2771:A *739:6 1.21289e-05
8 *2771:A *739:10 0.000138682
9 *2771:A *888:10 5.25774e-05
10 *2771:A *888:105 9.77274e-05
11 *504:12 *2687:A 0
12 *504:12 *2710:D_N 5.52238e-05
13 *504:12 *2764:A1 0
14 *504:12 *738:14 0
15 *504:12 *880:20 5.57914e-05
16 *504:12 *980:10 0
17 *2686:A1 *504:12 3.52028e-05
18 *2771:B *2771:A 2.97021e-05
*RES
1 *2445:Y *504:12 22.9071 
2 *504:12 *3194:A 9.3 
3 *504:12 *2771:A 21.2821 
*END

*D_NET *505 0.0114225
*CONN
*I *2766:B1 I *D sky130_fd_sc_hd__a221o_1
*I *2774:B1 I *D sky130_fd_sc_hd__a221o_1
*I *2725:B1 I *D sky130_fd_sc_hd__a221o_1
*I *2733:B1 I *D sky130_fd_sc_hd__a221o_1
*I *2449:A2 I *D sky130_fd_sc_hd__a211oi_1
*I *2448:B I *D sky130_fd_sc_hd__nand2_1
*I *2446:Y O *D sky130_fd_sc_hd__nor2_2
*CAP
1 *2766:B1 0.000339843
2 *2774:B1 9.01286e-05
3 *2725:B1 0.000161722
4 *2733:B1 0.000320077
5 *2449:A2 5.35216e-05
6 *2448:B 0.000230895
7 *2446:Y 0.000152848
8 *505:70 0.000552213
9 *505:48 0.00114277
10 *505:44 0.0015057
11 *505:18 0.000837729
12 *505:8 0.00142864
13 *2448:B *2449:B1 0.000100831
14 *2448:B *2449:C1 2.82057e-05
15 *2448:B *2451:B 6.05161e-06
16 *2448:B *2451:C 2.28499e-05
17 *2448:B *3336:A 8.71059e-06
18 *2448:B *1009:22 0.000104236
19 *2725:B1 *2725:A1 5.57185e-05
20 *2725:B1 *2725:A2 0.000208569
21 *2725:B1 *3186:A 8.08022e-05
22 *2725:B1 *3360:A 0
23 *2725:B1 *962:6 9.42181e-05
24 *2733:B1 *2733:A1 0.000291745
25 *2733:B1 *2733:C1 3.38229e-05
26 *2733:B1 *3186:A 6.60268e-05
27 *2733:B1 *3251:A 0
28 *2733:B1 *787:8 0.000104974
29 *2733:B1 *788:14 0
30 *2733:B1 *881:97 7.71617e-05
31 *2766:B1 *2766:A2 4.46186e-06
32 *2766:B1 *2766:B2 1.02504e-05
33 *2766:B1 *962:6 0.00019243
34 *2766:B1 *1007:22 0
35 *2774:B1 *2774:A1 1.02504e-05
36 *2774:B1 *2774:A2 2.61337e-05
37 *2774:B1 *1007:22 5.63007e-05
38 *505:8 *880:31 0.000227532
39 *505:18 *3335:A 8.15843e-05
40 *505:18 *794:14 0
41 *505:18 *880:31 7.45591e-05
42 *505:18 *1007:22 0
43 *505:18 *1009:22 7.73607e-05
44 *505:44 *2766:A1 9.87983e-06
45 *505:44 *2770:A2_N 1.59782e-05
46 *505:44 *2772:A1 0.000175519
47 *505:44 *2774:A1 1.53725e-05
48 *505:44 *2774:A2 2.84398e-05
49 *505:44 *2775:A1 0.000101586
50 *505:44 *2775:B1 5.12344e-05
51 *505:44 *739:16 0.00029293
52 *505:44 *794:14 0
53 *505:44 *1007:22 0
54 *505:48 *962:6 0.000482786
55 *505:70 *962:6 9.92409e-05
56 PADDR[1] *2766:B1 6.92434e-05
57 rdata[5] *2725:B1 0.000271339
58 *2449:A1 *2449:A2 5.52238e-05
59 *2773:B *505:18 7.07167e-05
60 *2773:B *505:44 0.000205594
61 *2838:D *2448:B 2.8266e-06
62 *2838:D *505:18 1.40849e-05
63 *3105:D *505:44 0.000147583
64 *3272:A *2725:B1 9.54385e-05
65 *3272:A *2733:B1 0.000122446
66 *3281:A *505:44 0
67 *374:10 *505:18 0.000140011
68 *478:35 *2448:B 9.41642e-05
*RES
1 *2446:Y *505:8 15.9786 
2 *505:8 *505:18 18.9464 
3 *505:18 *2448:B 18.9607 
4 *505:18 *2449:A2 14.7464 
5 *505:8 *505:44 22.5357 
6 *505:44 *505:48 13.25 
7 *505:48 *2733:B1 22.425 
8 *505:48 *2725:B1 19.3714 
9 *505:44 *505:70 1.76786 
10 *505:70 *2774:B1 20.55 
11 *505:70 *2766:B1 23.6571 
*END

*D_NET *506 0.00110292
*CONN
*I *2720:A2 I *D sky130_fd_sc_hd__o21ai_1
*I *2737:A1_N I *D sky130_fd_sc_hd__a2bb2o_1
*I *2447:Y O *D sky130_fd_sc_hd__nand2_1
*CAP
1 *2720:A2 8.42119e-05
2 *2737:A1_N 0
3 *2447:Y 0.000128346
4 *506:8 0.000212558
5 *2720:A2 *2720:A1 2.11419e-05
6 *2720:A2 *2737:A2_N 7.9564e-05
7 *2720:A2 *2737:B2 3.18676e-05
8 *2720:A2 *3187:A 0.000177948
9 *506:8 *2737:B2 2.95641e-05
10 *506:8 *2738:B1 5.7661e-06
11 *506:8 *2759:A 4.43256e-05
12 *506:8 *2761:B1 0.000144773
13 *506:8 *964:20 0.00014285
*RES
1 *2447:Y *506:8 12.7286 
2 *506:8 *2737:A1_N 9.3 
3 *506:8 *2720:A2 21.0857 
*END

*D_NET *507 0.00311136
*CONN
*I *2451:C I *D sky130_fd_sc_hd__and3b_1
*I *2453:B I *D sky130_fd_sc_hd__and2_1
*I *2452:C I *D sky130_fd_sc_hd__and3_1
*I *2450:B I *D sky130_fd_sc_hd__and3b_1
*I *2448:Y O *D sky130_fd_sc_hd__nand2_1
*CAP
1 *2451:C 9.7628e-05
2 *2453:B 0
3 *2452:C 0.000119186
4 *2450:B 0.000179685
5 *2448:Y 0
6 *507:29 0.000202992
7 *507:12 0.000425498
8 *507:4 0.000259634
9 *2450:B *2689:B 0.000353079
10 *2450:B *3338:A 0.000268396
11 *2452:C *2452:B 0.000346632
12 *2452:C *2675:A1 3.94968e-06
13 *2452:C *880:43 0.000184626
14 *507:12 *880:37 0.000208772
15 *507:12 *880:43 9.87983e-06
16 *507:12 *1009:22 1.02504e-05
17 *507:29 *2452:B 4.80729e-05
18 *507:29 *880:43 0.000108684
19 *2448:B *2451:C 2.28499e-05
20 *2453:A *2450:B 9.87983e-06
21 *2453:A *507:12 5.66564e-05
22 *2453:A *507:29 5.13214e-05
23 *478:35 *2451:C 9.60939e-05
24 *478:35 *507:12 4.75908e-05
*RES
1 *2448:Y *507:4 9.3 
2 *507:4 *507:12 9.08036 
3 *507:12 *2450:B 18.4518 
4 *507:12 *507:29 2.70536 
5 *507:29 *2452:C 18.3714 
6 *507:29 *2453:B 13.8 
7 *507:4 *2451:C 11.0857 
*END

*D_NET *508 0.00362909
*CONN
*I *2704:A3 I *D sky130_fd_sc_hd__o311a_1
*I *2696:C I *D sky130_fd_sc_hd__or3_1
*I *2699:A3 I *D sky130_fd_sc_hd__o311a_1
*I *2697:B I *D sky130_fd_sc_hd__nor2_1
*I *2455:Y O *D sky130_fd_sc_hd__nand2b_1
*CAP
1 *2704:A3 2.3967e-05
2 *2696:C 0.000118122
3 *2699:A3 0.000253686
4 *2697:B 0.000127553
5 *2455:Y 0.000263368
6 *508:33 0.000482367
7 *508:18 0.000341209
8 *508:14 0.000390431
9 *2696:C *2704:C1 1.11775e-05
10 *2696:C *2712:B 5.66471e-06
11 *2696:C *2712:C 6.8544e-05
12 *2696:C *2712:D_N 0.000143167
13 *2696:C *950:27 9.25014e-06
14 *2697:B *2443:B 2.72455e-05
15 *2697:B *2713:A3 3.07021e-05
16 *2697:B *2714:A1 0
17 *2697:B *2714:A2 0.00010096
18 *2699:A3 *675:30 0.000355002
19 *2699:A3 *950:37 4.19624e-06
20 *2704:A3 *2712:B 0
21 *508:14 *2713:B1 0.000307343
22 *508:14 *2714:A1 9.34707e-05
23 *508:14 *2714:A2 2.59355e-05
24 *508:14 *2714:B1 4.16984e-05
25 *508:14 *675:30 2.28499e-05
26 *508:18 *2712:B 5.52302e-05
27 *508:18 *675:30 4.43256e-05
28 *508:33 *2712:B 1.90936e-05
29 *508:33 *2713:A3 8.44271e-06
30 *2695:B *508:14 9.71197e-05
31 *2713:A1 *2697:B 9.25014e-06
32 *2801:D *508:14 2.47833e-05
33 *474:10 *508:14 2.51343e-06
34 *502:44 *2697:B 7.4316e-05
35 *502:44 *508:14 4.46186e-06
36 *502:59 *2697:B 0
37 *502:59 *508:14 4.16481e-05
*RES
1 *2455:Y *508:14 23.9964 
2 *508:14 *508:18 5.85714 
3 *508:18 *2697:B 16.6929 
4 *508:18 *508:33 1.52679 
5 *508:33 *2699:A3 18.5589 
6 *508:33 *2696:C 16.5054 
7 *508:14 *2704:A3 9.72857 
*END

*D_NET *509 0.00144472
*CONN
*I *3193:A I *D sky130_fd_sc_hd__clkbuf_4
*I *2456:X O *D sky130_fd_sc_hd__or4bb_1
*CAP
1 *3193:A 0.000533244
2 *2456:X 0.000533244
3 *3193:A *2462:C 0
4 *3193:A *2522:A2 3.25247e-05
5 *3193:A *2655:B 0
6 *3193:A *2811:GATE_N 0
7 *3193:A *3324:A 0
8 *3193:A *511:16 0.000149905
9 *3193:A *774:10 8.00806e-05
10 *3193:A *776:31 8.22896e-05
11 *3193:A *887:22 3.34295e-05
*RES
1 *2456:X *3193:A 38.6536 
*END

*D_NET *510 0.0154886
*CONN
*I *2709:B I *D sky130_fd_sc_hd__and3_1
*I *2701:A2 I *D sky130_fd_sc_hd__a31o_1
*I *2776:A2 I *D sky130_fd_sc_hd__a32o_1
*I *2783:A2 I *D sky130_fd_sc_hd__o21a_1
*I *2784:C I *D sky130_fd_sc_hd__or3_1
*I *2464:X O *D sky130_fd_sc_hd__and4b_1
*CAP
1 *2709:B 9.55542e-05
2 *2701:A2 4.22823e-05
3 *2776:A2 0.00020649
4 *2783:A2 0.000482204
5 *2784:C 8.8652e-05
6 *2464:X 0
7 *510:20 0.00204775
8 *510:16 0.00185786
9 *510:14 0.00104983
10 *510:4 0.000928623
11 *2701:A2 *2701:B1 1.8791e-05
12 *2701:A2 *672:65 5.20298e-05
13 *2709:B *2680:C 0.000137983
14 *2776:A2 *2776:A1 2.80815e-05
15 *2776:A2 *2776:A3 1.24368e-05
16 *2776:A2 *2778:A2 0.000214991
17 *2776:A2 *2782:B 4.00349e-05
18 *2776:A2 *929:10 0.000285997
19 *2783:A2 *2783:B1 0.000141318
20 *2783:A2 *2787:A2 2.89016e-05
21 *2783:A2 *2787:B1 4.36551e-06
22 *2783:A2 *2787:B2 0
23 *2783:A2 *2792:A 2.89016e-05
24 *2783:A2 *2792:B 0.00014183
25 *2783:A2 *2793:B2 7.49387e-06
26 *2783:A2 *2797:B2 8.37216e-05
27 *2783:A2 *755:10 0
28 *2783:A2 *939:12 0.000120969
29 *2783:A2 *942:61 5.10955e-05
30 *2784:C *2797:B2 9.82557e-05
31 *2784:C *3229:A 5.71472e-05
32 *2784:C *753:23 2.72449e-05
33 *510:14 *2680:C 0.000225609
34 *510:14 *2691:B 0.000209906
35 *510:14 *675:30 3.43708e-05
36 *510:14 *883:119 0.00175852
37 *510:14 *948:81 1.90936e-05
38 *510:14 *1002:12 0.000517091
39 *510:14 *1002:27 0.000845719
40 *510:16 *883:119 0.000352538
41 *510:16 *1002:12 0.000431838
42 *510:20 *1002:12 0.00256802
43 *2409:A1 *2776:A2 1.50904e-05
44 *2695:A *510:14 2.06178e-05
45 *2776:B1 *2776:A2 2.63793e-05
46 *2798:D *2701:A2 1.90936e-05
47 *386:14 *2783:A2 1.60269e-05
48 *386:14 *2784:C 4.78466e-05
*RES
1 *2464:X *510:4 9.3 
2 *510:4 *510:14 14.0444 
3 *510:14 *510:16 0.6956 
4 *510:16 *510:20 7.5648 
5 *510:20 *2784:C 16.1304 
6 *510:20 *2783:A2 23.5946 
7 *510:16 *2776:A2 22.652 
8 *510:14 *2701:A2 18.0939 
9 *510:4 *2709:B 10.6571 
*END

*D_NET *511 0.00954838
*CONN
*I *3191:A I *D sky130_fd_sc_hd__clkbuf_4
*I *2487:A I *D sky130_fd_sc_hd__nor2_1
*I *2465:Y O *D sky130_fd_sc_hd__nand4b_2
*CAP
1 *3191:A 0.000242061
2 *2487:A 0.00139202
3 *2465:Y 0.000475692
4 *511:16 0.00210977
5 *2487:A *2619:B 0
6 *2487:A *2663:A0 4.02943e-05
7 *2487:A *2677:S 6.97972e-05
8 *2487:A *531:37 0.000252859
9 *2487:A *738:14 0.000171368
10 *2487:A *794:14 0
11 *2487:A *813:30 0
12 *2487:A *931:81 0
13 *2487:A *931:85 4.51691e-05
14 *2487:A *931:87 0.00108513
15 *2487:A *1039:14 0.000557537
16 *3191:A *738:14 0.000537028
17 *3191:A *885:8 0.000178847
18 *3191:A *885:106 1.21258e-05
19 *3191:A *1039:14 0.000544556
20 *511:16 *2462:A_N 0.000161693
21 *511:16 *2689:B 0.000227526
22 *511:16 *774:10 7.79781e-06
23 *511:16 *776:31 0.000227532
24 *511:16 *948:49 9.71197e-05
25 *511:16 *1033:14 0.000361075
26 *2462:B *511:16 0.000139913
27 *2811:D *2487:A 0.000194649
28 *2835:D *2487:A 0
29 *3173:A *2487:A 4.71964e-05
30 *3193:A *511:16 0.000149905
31 *431:10 *3191:A 0.000219711
*RES
1 *2465:Y *511:16 35.3357 
2 *511:16 *2487:A 45.9607 
3 *511:16 *3191:A 23.0857 
*END

*D_NET *512 0.00254785
*CONN
*I *2467:C1 I *D sky130_fd_sc_hd__a221o_1
*I *2466:X O *D sky130_fd_sc_hd__a22o_1
*CAP
1 *2467:C1 0.000325011
2 *2466:X 0.000325011
3 *2467:C1 *2467:A2 5.15925e-05
4 *2467:C1 *2596:B2 0.000125243
5 *2467:C1 *2845:D 0.00031248
6 *2467:C1 *822:78 0.000268396
7 *2467:C1 *838:61 0.00014183
8 *2467:C1 *872:42 0.000268396
9 *2467:C1 *876:19 0.000205741
10 *2467:C1 *876:38 6.81083e-05
11 *2467:C1 *894:73 0.000139907
12 *2467:C1 *916:57 0.000216304
13 *2588:A1 *2467:C1 9.98242e-05
*RES
1 *2466:X *2467:C1 39.2607 
*END

*D_NET *513 0.00066103
*CONN
*I *2475:B1 I *D sky130_fd_sc_hd__o22ai_2
*I *2467:X O *D sky130_fd_sc_hd__a221o_1
*CAP
1 *2475:B1 0.000153998
2 *2467:X 0.000153998
3 *2475:B1 *2467:A2 5.16989e-05
4 *2475:B1 *2475:B2 5.71472e-05
5 *2475:B1 *521:26 4.58976e-05
6 *2475:B1 *631:28 1.35455e-05
7 *2475:B1 *856:47 0
8 *2475:B1 *930:66 0.000184745
*RES
1 *2467:X *2475:B1 31.1357 
*END

*D_NET *514 0.0012773
*CONN
*I *2469:C1 I *D sky130_fd_sc_hd__a221o_1
*I *2468:X O *D sky130_fd_sc_hd__a22o_1
*CAP
1 *2469:C1 0.000388396
2 *2468:X 0.000388396
3 *2469:C1 *3037:GATE_N 0
4 *2469:C1 *3160:A 0.000229151
5 *2469:C1 *851:110 3.7929e-05
6 *2469:C1 *852:19 7.6644e-05
7 *2469:C1 *876:50 0
8 *2469:C1 *914:32 9.96385e-05
9 *3179:A *2469:C1 5.71472e-05
*RES
1 *2468:X *2469:C1 34.9393 
*END

*D_NET *515 0.00677746
*CONN
*I *1043:DIODE I *D sky130_fd_sc_hd__diode_2
*I *2474:A I *D sky130_fd_sc_hd__or3_1
*I *2469:X O *D sky130_fd_sc_hd__a221o_1
*CAP
1 *1043:DIODE 8.91298e-05
2 *2474:A 0
3 *2469:X 0.00202525
4 *515:18 0.00211438
5 *1043:DIODE *2495:A2 0
6 *515:18 *2589:B1 0
7 *515:18 *2590:B1 0.000206283
8 *515:18 *2888:GATE_N 5.6468e-05
9 *515:18 *3080:GATE_N 0.000497942
10 *515:18 *540:18 0.000911167
11 *515:18 *816:45 0.000329341
12 *515:18 *876:50 0.000297339
13 *515:18 *900:51 0
14 *2590:B2 *515:18 0.000115132
15 *3178:A *1043:DIODE 0.000135028
*RES
1 *2469:X *515:18 37.2844 
2 *515:18 *2474:A 9.3 
3 *515:18 *1043:DIODE 11.0857 
*END

*D_NET *516 0.00116701
*CONN
*I *2471:C1 I *D sky130_fd_sc_hd__a221o_1
*I *2470:X O *D sky130_fd_sc_hd__a22o_1
*CAP
1 *2471:C1 0.000264118
2 *2470:X 0.000264118
3 *2471:C1 *2494:B1 0
4 *2471:C1 *3007:D 0.000170301
5 *2471:C1 *814:48 5.5321e-05
6 *2471:C1 *814:56 0.000168569
7 *2471:C1 *816:53 0
8 *2471:C1 *871:10 4.73656e-05
9 *2471:C1 *871:12 0.00016648
10 *2471:C1 *875:62 9.11048e-06
11 *2470:A1 *2471:C1 2.16315e-05
*RES
1 *2470:X *2471:C1 34.4036 
*END

*D_NET *517 0.00161312
*CONN
*I *2474:B I *D sky130_fd_sc_hd__or3_1
*I *2471:X O *D sky130_fd_sc_hd__a221o_1
*CAP
1 *2474:B 0.000517544
2 *2471:X 0.000517544
3 *2474:B *2474:C 7.83587e-05
4 *2474:B *2495:C1 5.59013e-05
5 *2474:B *816:45 0.000128951
6 *2474:B *871:38 0.000191063
7 *2474:B *898:34 0
8 *2474:B *898:47 7.04538e-05
9 *2495:A1 *2474:B 0
10 *3178:A *2474:B 5.33005e-05
*RES
1 *2471:X *2474:B 36.85 
*END

*D_NET *518 0.00102628
*CONN
*I *2473:B1 I *D sky130_fd_sc_hd__a211o_1
*I *2472:X O *D sky130_fd_sc_hd__a22o_1
*CAP
1 *2473:B1 0.000330275
2 *2472:X 0.000330275
3 *2473:B1 *2472:A2 0.000119135
4 *2473:B1 *898:34 0.000123295
5 *2473:B1 *926:58 0.000123295
*RES
1 *2472:X *2473:B1 32.6536 
*END

*D_NET *519 0.00139642
*CONN
*I *2474:C I *D sky130_fd_sc_hd__or3_1
*I *2473:X O *D sky130_fd_sc_hd__a211o_1
*CAP
1 *2474:C 0.000302832
2 *2473:X 0.000302832
3 *2474:C *2495:C1 2.99773e-05
4 *2474:C *2496:B 0.000200406
5 *2474:C *816:45 0.000340052
6 *2474:C *820:41 7.43578e-06
7 *2474:C *820:65 0.000134529
8 *2474:B *2474:C 7.83587e-05
*RES
1 *2473:X *2474:C 34.5643 
*END

*D_NET *520 0.0116784
*CONN
*I *2475:B2 I *D sky130_fd_sc_hd__o22ai_2
*I *2474:X O *D sky130_fd_sc_hd__or3_1
*CAP
1 *2475:B2 0.00297652
2 *2474:X 0.00297652
3 *2475:B2 *2856:GATE_N 6.67439e-05
4 *2475:B2 *3014:GATE_N 0
5 *2475:B2 *521:26 5.52238e-05
6 *2475:B2 *540:18 0.00178957
7 *2475:B2 *630:20 0.00283785
8 *2475:B2 *816:45 1.91894e-05
9 *2475:B2 *855:152 0.000111763
10 *2475:B2 *856:47 1.90936e-05
11 *2475:B2 *871:57 0.000643524
12 *2475:B2 *900:51 2.34337e-05
13 *2475:B2 *999:18 0
14 *2475:B1 *2475:B2 5.71472e-05
15 *3169:A *2475:B2 0
16 *3178:A *2475:B2 0.000101825
*RES
1 *2474:X *2475:B2 46.3095 
*END

*D_NET *521 0.0076924
*CONN
*I *2476:B I *D sky130_fd_sc_hd__nor2_1
*I *2642:B I *D sky130_fd_sc_hd__nor2_1
*I *2475:Y O *D sky130_fd_sc_hd__o22ai_2
*CAP
1 *2476:B 0.000368759
2 *2642:B 2.08127e-05
3 *2475:Y 0.00162105
4 *521:30 0.000490185
5 *521:26 0.00172166
6 *2476:B *2476:A 0.000119135
7 *2476:B *3362:A 0.000150718
8 *2476:B *3364:A 0.000362048
9 *2476:B *884:47 0.000128419
10 *2642:B *2575:A 3.99614e-06
11 *2642:B *2575:B 0
12 *521:26 *2497:A2 0.000300551
13 *521:26 *2498:B 1.25104e-05
14 *521:26 *2574:A2 1.04232e-05
15 *521:26 *2574:B1 0.000405727
16 *521:26 *2574:B2 6.87245e-05
17 *521:26 *2644:B 1.08359e-05
18 *521:26 *2847:GATE_N 0.000126639
19 *521:26 *631:28 0.000212623
20 *521:26 *838:39 0
21 *521:26 *838:51 0
22 *521:26 *877:130 0.000245356
23 *521:26 *886:41 2.26424e-05
24 *521:26 *930:54 0.000106403
25 *521:26 *930:60 0.000114118
26 *521:26 *930:66 5.95692e-05
27 *521:26 *1024:18 0.000200413
28 *521:30 *884:47 6.34436e-05
29 *521:30 *884:53 2.59355e-05
30 PWDATA[11] *2476:B 6.76337e-05
31 rdata[11] *2476:B 0.0001399
32 *2475:B1 *521:26 4.58976e-05
33 *2475:B2 *521:26 5.52238e-05
34 *2497:A1 *521:26 7.57312e-05
35 *2806:D *2476:B 1.98839e-05
36 *2806:D *521:30 6.05161e-06
37 *2822:D *2476:B 0.000119135
38 *2824:D *521:26 0.000135028
39 *3308:A *2476:B 5.52238e-05
*RES
1 *2475:Y *521:26 49.9071 
2 *521:26 *521:30 6.26786 
3 *521:30 *2642:B 9.72857 
4 *521:30 *2476:B 28.9786 
*END

*D_NET *522 0.00168495
*CONN
*I *2484:B1 I *D sky130_fd_sc_hd__a211o_1
*I *2477:X O *D sky130_fd_sc_hd__a22o_1
*CAP
1 *2484:B1 0.000350332
2 *2477:X 0.000350332
3 *2484:B1 *2483:A2 1.50087e-05
4 *2484:B1 *2484:C1 0.000310307
5 *2484:B1 *889:16 4.99064e-05
6 *2484:B1 *889:28 0.00010326
7 *2484:B1 *904:14 2.56694e-05
8 *2484:B1 *907:26 5.59013e-05
9 *2484:B1 *923:72 0.000177821
10 *2484:B1 *934:20 0.000120678
11 *2483:B2 *2484:B1 0.000125731
*RES
1 *2477:X *2484:B1 36.1714 
*END

*D_NET *523 0.00171279
*CONN
*I *2479:C1 I *D sky130_fd_sc_hd__a221o_1
*I *2478:X O *D sky130_fd_sc_hd__a22o_1
*CAP
1 *2479:C1 0.000701709
2 *2478:X 0.000701709
3 *2479:C1 *2486:B1 3.52194e-05
4 *2479:C1 *2535:A2 1.05731e-05
5 *2479:C1 *2910:D 9.3336e-05
6 *2479:C1 *873:86 1.58163e-05
7 *2479:C1 *912:95 3.97902e-05
8 *2479:C1 *917:70 6.97494e-05
9 *2478:B2 *2479:C1 1.56051e-05
10 *2807:D *2479:C1 2.92863e-05
*RES
1 *2478:X *2479:C1 36.9036 
*END

*D_NET *524 0.00250746
*CONN
*I *2486:B1 I *D sky130_fd_sc_hd__o22ai_2
*I *2479:X O *D sky130_fd_sc_hd__a221o_1
*CAP
1 *2486:B1 0.00063469
2 *2479:X 0.00063469
3 *2486:B1 *2535:A2 1.02821e-05
4 *2486:B1 *2643:A 0
5 *2486:B1 *2846:D 5.21516e-05
6 *2486:B1 *2910:D 2.20906e-05
7 *2486:B1 *3066:GATE_N 2.3704e-05
8 *2486:B1 *3369:A 2.11419e-05
9 *2486:B1 *859:30 3.0591e-05
10 *2486:B1 *897:12 0.000630205
11 *2486:B1 *912:95 0.00027278
12 *2479:A1 *2486:B1 0.000139913
13 *2479:C1 *2486:B1 3.52194e-05
*RES
1 *2479:X *2486:B1 40.1536 
*END

*D_NET *525 0.000387511
*CONN
*I *2481:C1 I *D sky130_fd_sc_hd__a221o_1
*I *2480:X O *D sky130_fd_sc_hd__a22o_1
*CAP
1 *2481:C1 9.85593e-05
2 *2480:X 9.85593e-05
3 *2481:C1 *2481:B1 5.52302e-05
4 *2481:C1 *915:16 0
5 *2481:C1 *915:39 0.000135162
*RES
1 *2480:X *2481:C1 21.1 
*END

*D_NET *526 0.000999593
*CONN
*I *2485:A I *D sky130_fd_sc_hd__or3_1
*I *2481:X O *D sky130_fd_sc_hd__a221o_1
*CAP
1 *2485:A 0.000281928
2 *2481:X 0.000281928
3 *2485:A *910:18 6.32633e-05
4 *2485:A *915:39 0.00030824
5 *3201:A *2485:A 6.42338e-05
*RES
1 *2481:X *2485:A 32.2429 
*END

*D_NET *527 0.000133673
*CONN
*I *2485:B I *D sky130_fd_sc_hd__or3_1
*I *2482:X O *D sky130_fd_sc_hd__a22o_1
*CAP
1 *2485:B 3.92213e-05
2 *2482:X 3.92213e-05
3 *2485:B *808:66 5.52302e-05
*RES
1 *2482:X *2485:B 19.1357 
*END

*D_NET *528 0.00146848
*CONN
*I *2484:C1 I *D sky130_fd_sc_hd__a211o_1
*I *2483:X O *D sky130_fd_sc_hd__a221o_1
*CAP
1 *2484:C1 0.000308945
2 *2483:X 0.000308945
3 *2484:C1 *2483:A2 7.13226e-06
4 *2484:C1 *840:24 4.58194e-05
5 *2484:C1 *864:77 0
6 *2484:C1 *889:16 0.000311021
7 *2484:C1 *904:8 7.17108e-06
8 *2484:C1 *907:26 9.41642e-05
9 *2483:A1 *2484:C1 5.52238e-05
10 *2484:A1 *2484:C1 1.3701e-05
11 *2484:B1 *2484:C1 0.000310307
12 *3207:A *2484:C1 6.05161e-06
*RES
1 *2483:X *2484:C1 34.8143 
*END

*D_NET *529 0.00390061
*CONN
*I *2485:C I *D sky130_fd_sc_hd__or3_1
*I *2484:X O *D sky130_fd_sc_hd__a211o_1
*CAP
1 *2485:C 0.0011761
2 *2484:X 0.0011761
3 *2485:C *2410:A 5.33334e-05
4 *2485:C *2897:GATE_N 3.72551e-05
5 *2485:C *2906:D 6.81335e-05
6 *2485:C *823:28 0.000222666
7 *2485:C *832:73 3.80277e-05
8 *2485:C *847:52 2.77258e-05
9 *2485:C *847:54 0.000107648
10 *2485:C *864:77 0.000307343
11 *2485:C *910:18 0.00031275
12 *2484:A1 *2485:C 0.000266479
13 *3201:A *2485:C 0.000107035
*RES
1 *2484:X *2485:C 47.1357 
*END

*D_NET *530 0.00106355
*CONN
*I *2486:B2 I *D sky130_fd_sc_hd__o22ai_2
*I *2485:X O *D sky130_fd_sc_hd__or3_1
*CAP
1 *2486:B2 0.000251093
2 *2485:X 0.000251093
3 *2486:B2 *2482:A2 0.00022767
4 *2486:B2 *2486:A2 3.99614e-06
5 *2486:B2 *808:66 0.0003297
*RES
1 *2485:X *2486:B2 25.3321 
*END

*D_NET *531 0.00980242
*CONN
*I *2487:B I *D sky130_fd_sc_hd__nor2_1
*I *2643:B I *D sky130_fd_sc_hd__nor2_1
*I *2486:Y O *D sky130_fd_sc_hd__o22ai_2
*CAP
1 *2487:B 0
2 *2643:B 0.000216725
3 *2486:Y 0.000248049
4 *531:37 0.00286674
5 *531:10 0.00333152
6 *2643:B *2643:A 9.54798e-06
7 *2643:B *2807:GATE_N 7.75022e-05
8 *2643:B *917:70 0.000124826
9 *531:10 *2486:A2 4.88637e-05
10 *531:10 *2643:A 0
11 *531:10 *2807:GATE_N 0.000307323
12 *531:10 *808:66 0.000146523
13 *531:37 *2478:B1 0.000183035
14 *531:37 *2634:A2 0.00012338
15 *531:37 *2851:D 0.000511239
16 *531:37 *3075:D 5.52238e-05
17 *531:37 *3075:GATE_N 2.89114e-05
18 *531:37 *808:20 9.0145e-05
19 *531:37 *863:16 0.000307343
20 *531:37 *863:64 0.000181796
21 *531:37 *917:52 0.000240801
22 *531:37 *917:70 0.000122091
23 *2478:A1 *2643:B 0
24 *2478:B2 *2643:B 1.04114e-05
25 *2486:A1 *531:10 0.0001148
26 *2487:A *531:37 0.000252859
27 *2532:B2 *531:37 9.60875e-05
28 *2541:A1 *531:37 7.77751e-05
29 *2807:D *2643:B 0
30 *2823:D *531:37 2.89016e-05
*RES
1 *2486:Y *531:10 20.4607 
2 *531:10 *2643:B 17.925 
3 *531:10 *531:37 46.7143 
4 *531:37 *2487:B 9.3 
*END

*D_NET *532 0.00134948
*CONN
*I *2489:C1 I *D sky130_fd_sc_hd__a221o_1
*I *2488:X O *D sky130_fd_sc_hd__a22o_1
*CAP
1 *2489:C1 0.000505853
2 *2488:X 0.000505853
3 *2813:D *2489:C1 0.000167246
4 *426:10 *2489:C1 0.000170523
*RES
1 *2488:X *2489:C1 35.9036 
*END

*D_NET *533 0.000684496
*CONN
*I *2497:B1 I *D sky130_fd_sc_hd__o22ai_1
*I *2489:X O *D sky130_fd_sc_hd__a221o_1
*CAP
1 *2497:B1 0.000175876
2 *2489:X 0.000175876
3 *2497:B1 *2575:B 0.000181803
4 *2497:B1 *2654:B 5.01117e-05
5 *2813:D *2497:B1 0.000100831
*RES
1 *2489:X *2497:B1 30.7071 
*END

*D_NET *534 0.00102931
*CONN
*I *2491:C1 I *D sky130_fd_sc_hd__a221o_1
*I *2490:X O *D sky130_fd_sc_hd__a22o_1
*CAP
1 *2491:C1 0.000160989
2 *2490:X 0.000160989
3 *2491:C1 *2567:A2 0.000332516
4 *2491:C1 *896:60 5.33005e-05
5 *2491:C1 *911:87 0.000298237
6 *2491:C1 *911:95 1.30241e-05
7 *2491:B2 *2491:C1 1.02504e-05
*RES
1 *2490:X *2491:C1 32.5107 
*END

*D_NET *535 0.00882016
*CONN
*I *2496:A I *D sky130_fd_sc_hd__or3_1
*I *2491:X O *D sky130_fd_sc_hd__a221o_1
*CAP
1 *2496:A 0.000701748
2 *2491:X 0.0014366
3 *535:14 0.00213835
4 *2496:A *2572:A2 1.32552e-05
5 *2496:A *2572:C1 0.000697684
6 *2496:A *2870:D 0.000227532
7 *2496:A *2870:GATE_N 0.0004652
8 *2496:A *2888:D 9.71197e-05
9 *535:14 *2491:A2 7.13226e-06
10 *535:14 *2491:B1 4.04042e-05
11 *535:14 *2572:A2 6.97409e-05
12 *535:14 *2572:C1 0.000445571
13 *535:14 *2573:C 2.65105e-05
14 *535:14 *3071:GATE_N 5.33005e-05
15 *535:14 *3080:D 0.00052833
16 *535:14 *809:68 8.50152e-05
17 *535:14 *852:31 0.000467325
18 *535:14 *871:61 5.52302e-05
19 *535:14 *871:92 0.000443654
20 *2491:B2 *535:14 0.000227539
21 *2589:A1 *535:14 5.71472e-05
22 *2589:B2 *535:14 0.000434819
23 *2593:A1 *2496:A 0.00010096
*RES
1 *2491:X *535:14 48.6393 
2 *535:14 *2496:A 34.7286 
*END

*D_NET *536 0.00057878
*CONN
*I *2493:C1 I *D sky130_fd_sc_hd__a221o_1
*I *2492:X O *D sky130_fd_sc_hd__a22o_1
*CAP
1 *2493:C1 0.000167919
2 *2492:X 0.000167919
3 *2493:C1 *2471:B1 1.00375e-05
4 *2493:C1 *2492:A2 7.0774e-05
5 *2493:C1 *814:48 0.000123489
6 *2493:C1 *920:77 2.83916e-05
7 *2493:B2 *2493:C1 1.02504e-05
*RES
1 *2492:X *2493:C1 30.6 
*END

*D_NET *537 0.00177049
*CONN
*I *2496:B I *D sky130_fd_sc_hd__or3_1
*I *2493:X O *D sky130_fd_sc_hd__a221o_1
*CAP
1 *2496:B 0.000510817
2 *2493:X 0.000510817
3 *2496:B *2495:C1 0.000320031
4 *2496:B *816:45 9.65075e-05
5 *2496:B *875:43 0.000131915
6 *2474:C *2496:B 0.000200406
*RES
1 *2493:X *2496:B 37.225 
*END

*D_NET *538 0.000259291
*CONN
*I *2495:B1 I *D sky130_fd_sc_hd__a211o_1
*I *2494:X O *D sky130_fd_sc_hd__a22o_1
*CAP
1 *2495:B1 6.80203e-05
2 *2494:X 6.80203e-05
3 *2495:B1 *2495:A2 1.3701e-05
4 *2495:B1 *2495:C1 3.87303e-05
5 *2495:B1 *898:34 5.52302e-05
6 *3178:A *2495:B1 1.55885e-05
*RES
1 *2494:X *2495:B1 20.4036 
*END

*D_NET *539 0.000446166
*CONN
*I *2496:C I *D sky130_fd_sc_hd__or3_1
*I *2495:X O *D sky130_fd_sc_hd__a211o_1
*CAP
1 *2496:C 0.000146559
2 *2495:X 0.000146559
3 *2496:C *2495:C1 0.000153047
4 *2496:C *898:34 0
*RES
1 *2495:X *2496:C 30.4929 
*END

*D_NET *540 0.0154416
*CONN
*I *2497:B2 I *D sky130_fd_sc_hd__o22ai_1
*I *2496:X O *D sky130_fd_sc_hd__or3_1
*CAP
1 *2497:B2 0
2 *2496:X 0.00522158
3 *540:18 0.00522158
4 *540:18 *2870:GATE_N 0.000103646
5 *540:18 *3080:GATE_N 0.00139583
6 *540:18 *3087:GATE_N 0.000185024
7 *540:18 *3184:A 0
8 *540:18 *871:92 0.000101825
9 *540:18 *876:50 0.000299611
10 *540:18 *886:84 0
11 *540:18 *900:51 6.27272e-06
12 *2475:B2 *540:18 0.00178957
13 *2813:D *540:18 0.000157584
14 *426:10 *540:18 4.79007e-05
15 *515:18 *540:18 0.000911167
*RES
1 *2496:X *540:18 41.0185 
2 *540:18 *2497:B2 9.3 
*END

*D_NET *541 0.00283821
*CONN
*I *2498:B I *D sky130_fd_sc_hd__nor2_1
*I *2644:B I *D sky130_fd_sc_hd__nor2_1
*I *2497:Y O *D sky130_fd_sc_hd__o22ai_1
*CAP
1 *2498:B 0.000194705
2 *2644:B 0.000857818
3 *2497:Y 0
4 *541:4 0.00105252
5 *2644:B *2497:A2 0.000110971
6 *2644:B *2670:A0 0
7 *2644:B *2808:GATE_N 4.59352e-05
8 *2644:B *2847:D 7.07445e-05
9 *2644:B *3321:A 9.25014e-06
10 *2644:B *838:51 0
11 *2644:B *886:90 1.34907e-05
12 *2644:B *930:54 0.000108118
13 *2497:A1 *2498:B 6.42696e-05
14 *2497:A1 *2644:B 0.000182875
15 *2808:D *2644:B 9.10139e-05
16 *2818:D *2644:B 1.31516e-05
17 *521:26 *2498:B 1.25104e-05
18 *521:26 *2644:B 1.08359e-05
*RES
1 *2497:Y *541:4 9.3 
2 *541:4 *2644:B 31.4607 
3 *541:4 *2498:B 12.1036 
*END

*D_NET *542 0.00118312
*CONN
*I *2500:C1 I *D sky130_fd_sc_hd__a221o_1
*I *2499:X O *D sky130_fd_sc_hd__a22o_1
*CAP
1 *2500:C1 0.000232007
2 *2499:X 0.000232007
3 *2500:C1 *2552:B2 0.000165419
4 *2500:C1 *809:119 4.58919e-05
5 *2500:C1 *811:18 2.11419e-05
6 *2500:C1 *811:35 0.000442852
7 *2500:B2 *2500:C1 4.37992e-05
*RES
1 *2499:X *2500:C1 36.0448 
*END

*D_NET *543 0.00092126
*CONN
*I *2508:B1 I *D sky130_fd_sc_hd__o22ai_2
*I *2500:X O *D sky130_fd_sc_hd__a221o_1
*CAP
1 *2508:B1 0.000370658
2 *2500:X 0.000370658
3 *2508:B1 *2508:B2 4.1331e-06
4 *2508:B1 *2948:GATE_N 0
5 *2508:B1 *811:18 0
6 *2499:B2 *2508:B1 0.00017581
*RES
1 *2500:X *2508:B1 32.5464 
*END

*D_NET *544 0.00173449
*CONN
*I *2502:C1 I *D sky130_fd_sc_hd__a221o_1
*I *2501:X O *D sky130_fd_sc_hd__a22o_1
*CAP
1 *2502:C1 0.000582665
2 *2501:X 0.000582665
3 *2502:C1 *2928:D 0
4 *2502:C1 *2928:GATE_N 1.02504e-05
5 *2502:C1 *829:53 0.000306311
6 *2502:C1 *870:25 7.15962e-05
7 *2501:B2 *2502:C1 3.36651e-05
8 *2502:B2 *2502:C1 0.000147332
*RES
1 *2501:X *2502:C1 35.8321 
*END

*D_NET *545 0.00384292
*CONN
*I *2507:A I *D sky130_fd_sc_hd__or3_1
*I *2502:X O *D sky130_fd_sc_hd__a221o_1
*CAP
1 *2507:A 0.000987772
2 *2502:X 0.000987772
3 *2507:A *2502:A2 7.61109e-05
4 *2507:A *2502:B1 5.65415e-05
5 *2507:A *2551:A 0.00112699
6 *2507:A *811:70 9.60875e-05
7 *2507:A *811:78 5.52302e-05
8 *2507:A *861:10 8.90314e-05
9 *2507:A *861:58 0.000317783
10 *2502:B2 *2507:A 1.28809e-05
11 *2545:A1 *2507:A 3.67257e-05
*RES
1 *2502:X *2507:A 40.5286 
*END

*D_NET *546 0.00144314
*CONN
*I *2504:C1 I *D sky130_fd_sc_hd__a221o_1
*I *2503:X O *D sky130_fd_sc_hd__a22o_1
*CAP
1 *2504:C1 0.000473293
2 *2503:X 0.000473293
3 *2504:C1 *2504:B1 1.41029e-05
4 *2504:C1 *904:142 0
5 *2504:C1 *920:29 0
6 *2504:C1 *920:69 0.000404707
7 *2504:B2 *2504:C1 1.02504e-05
8 *2506:A1 *2504:C1 6.74911e-05
*RES
1 *2503:X *2504:C1 35.4929 
*END

*D_NET *547 0.000405257
*CONN
*I *2507:B I *D sky130_fd_sc_hd__or3_1
*I *2504:X O *D sky130_fd_sc_hd__a221o_1
*CAP
1 *2507:B 0.000107701
2 *2504:X 0.000107701
3 *2507:B *2507:C 3.14163e-05
4 *2507:B *805:34 7.83587e-05
5 *381:10 *2507:B 8.00806e-05
*RES
1 *2504:X *2507:B 29.5821 
*END

*D_NET *548 0.000987511
*CONN
*I *2506:B1 I *D sky130_fd_sc_hd__a211o_1
*I *2505:X O *D sky130_fd_sc_hd__a22o_1
*CAP
1 *2506:B1 0.00041855
2 *2505:X 0.00041855
3 *2506:B1 *2505:B1 2.89114e-05
4 *2506:B1 *2627:C1 9.25014e-06
5 *2506:B1 *2896:D 3.97657e-05
6 *2506:B1 *904:121 0
7 *2506:A1 *2506:B1 7.24849e-05
*RES
1 *2505:X *2506:B1 33.3679 
*END

*D_NET *549 0.000518482
*CONN
*I *2507:C I *D sky130_fd_sc_hd__or3_1
*I *2506:X O *D sky130_fd_sc_hd__a211o_1
*CAP
1 *2507:C 0.000147049
2 *2506:X 0.000147049
3 *2507:C *2551:A 0.000189276
4 *2504:B2 *2507:C 3.69047e-06
5 *2507:B *2507:C 3.14163e-05
*RES
1 *2506:X *2507:C 22.0107 
*END

*D_NET *550 0.00755595
*CONN
*I *2508:B2 I *D sky130_fd_sc_hd__o22ai_2
*I *2507:X O *D sky130_fd_sc_hd__or3_1
*CAP
1 *2508:B2 0.00167278
2 *2507:X 0.00167278
3 *2508:B2 *2552:B2 0.00194135
4 *2508:B2 *2948:GATE_N 3.09814e-05
5 *2508:B2 *620:18 0
6 *2508:B2 *805:28 0.000125817
7 *2508:B2 *805:32 0.00155162
8 *2508:B2 *811:18 0
9 *2508:B2 *811:78 1.95091e-05
10 *2508:B2 *827:94 0
11 *2508:B2 *920:23 4.00983e-05
12 *2508:B1 *2508:B2 4.1331e-06
13 *3169:A *2508:B2 0.000496894
*RES
1 *2507:X *2508:B2 43.1118 
*END

*D_NET *551 0.0089969
*CONN
*I *2509:B I *D sky130_fd_sc_hd__nor2_1
*I *2645:B I *D sky130_fd_sc_hd__nor2_1
*I *2508:Y O *D sky130_fd_sc_hd__o22ai_2
*CAP
1 *2509:B 0.000247134
2 *2645:B 0.000353281
3 *2508:Y 0.00131856
4 *551:12 0.00191898
5 *2509:B *2509:A 1.46128e-05
6 *2509:B *2630:B 8.83643e-06
7 *2509:B *878:85 0.000606625
8 *2509:B *878:93 6.73939e-05
9 *2645:B *2645:A 5.52238e-05
10 *2645:B *878:93 7.71596e-05
11 *2645:B *878:107 2.11419e-05
12 *2645:B *884:39 0.000248486
13 *551:12 *2508:A2 0.0010031
14 *551:12 *2544:A2 3.33174e-05
15 *551:12 *2544:B1 0
16 *551:12 *2552:B1 3.26409e-05
17 *551:12 *2608:B 1.98839e-05
18 *551:12 *621:14 0.000768534
19 *551:12 *827:160 0.0004613
20 *551:12 *894:130 9.39067e-05
21 *551:12 *894:143 2.77258e-05
22 *551:12 *930:48 0.000530041
23 *2508:A1 *551:12 4.72917e-05
24 *2544:B2 *551:12 2.84269e-05
25 *2820:D *551:12 0.000301438
26 *2834:D *551:12 2.88018e-06
27 *431:35 *2509:B 0.000369104
28 *431:39 *2509:B 0.000200413
29 *431:43 *2509:B 1.81709e-05
30 *431:43 *2645:B 8.78502e-05
31 *431:49 *2645:B 3.34366e-05
*RES
1 *2508:Y *551:12 40.9607 
2 *551:12 *2645:B 20.9964 
3 *551:12 *2509:B 23.1571 
*END

*D_NET *552 0.00335999
*CONN
*I *2519:B1 I *D sky130_fd_sc_hd__o22ai_2
*I *2510:X O *D sky130_fd_sc_hd__a22o_1
*CAP
1 *2519:B1 0.00052922
2 *2510:X 0.00052922
3 *2519:B1 *2422:B 0.000213172
4 *2519:B1 *2946:D 0
5 *2519:B1 *912:23 0.000662712
6 *2519:B1 *912:35 0
7 *2519:B1 *917:42 0.000489824
8 *2519:B1 *995:12 4.66203e-05
9 *3136:A *2519:B1 0.000620822
10 *441:6 *2519:B1 0.000268396
*RES
1 *2510:X *2519:B1 43.6536 
*END

*D_NET *553 0.00120328
*CONN
*I *2518:A I *D sky130_fd_sc_hd__or4_1
*I *2511:X O *D sky130_fd_sc_hd__a22o_1
*CAP
1 *2518:A 0.000200368
2 *2511:X 0.000200368
3 *2518:A *2518:C 0.000348207
4 *2518:A *895:12 0.000119767
5 *2518:A *910:70 0.000223112
6 *3149:A *2518:A 4.66391e-05
7 *3196:A *2518:A 5.52238e-05
8 *435:32 *2518:A 9.59532e-06
*RES
1 *2511:X *2518:A 33.475 
*END

*D_NET *554 0.000362257
*CONN
*I *2513:C1 I *D sky130_fd_sc_hd__a221o_1
*I *2512:X O *D sky130_fd_sc_hd__a22o_1
*CAP
1 *2513:C1 7.3198e-05
2 *2512:X 7.3198e-05
3 *2513:C1 *2420:A 2.21972e-05
4 *2513:C1 *841:50 4.41212e-05
5 *2513:B2 *2513:C1 0.000149543
*RES
1 *2512:X *2513:C1 29.5464 
*END

*D_NET *555 0.00178649
*CONN
*I *2518:B I *D sky130_fd_sc_hd__or4_1
*I *2513:X O *D sky130_fd_sc_hd__a221o_1
*CAP
1 *2518:B 0.000364438
2 *2513:X 0.000364438
3 *2518:B *2518:D 2.63501e-05
4 *2518:B *2530:B2 0.000163061
5 *2518:B *2972:GATE_N 6.98971e-05
6 *2518:B *810:20 0.000237695
7 *2518:B *830:26 4.38058e-05
8 *2518:B *840:130 0.000275313
9 *2518:B *917:44 8.36741e-05
10 *3196:A *2518:B 0.000111922
11 *439:30 *2518:B 4.5894e-05
*RES
1 *2513:X *2518:B 39.2247 
*END

*D_NET *556 0.00161388
*CONN
*I *2518:C I *D sky130_fd_sc_hd__or4_1
*I *2514:X O *D sky130_fd_sc_hd__a22o_1
*CAP
1 *2518:C 0.000394545
2 *2514:X 0.000394545
3 *2518:C *2858:D 9.41642e-05
4 *2518:C *812:47 0
5 *2518:C *910:70 8.15531e-05
6 *2518:C *923:32 0.000138992
7 *2518:A *2518:C 0.000348207
8 *2610:A1 *2518:C 0.000161878
*RES
1 *2514:X *2518:C 36.2429 
*END

*D_NET *557 0.00063239
*CONN
*I *2517:B1 I *D sky130_fd_sc_hd__a211o_1
*I *2515:X O *D sky130_fd_sc_hd__a22o_1
*CAP
1 *2517:B1 0.0001996
2 *2515:X 0.0001996
3 *2517:B1 *2517:A2 1.08192e-05
4 *2517:B1 *2517:C1 1.02504e-05
5 *2517:B1 *819:46 6.44832e-05
6 *2517:B1 *832:60 0.00014183
7 *2517:A1 *2517:B1 5.80706e-06
8 *446:20 *2517:B1 0
*RES
1 *2515:X *2517:B1 30.9036 
*END

*D_NET *558 0.000424849
*CONN
*I *2517:C1 I *D sky130_fd_sc_hd__a211o_1
*I *2516:X O *D sky130_fd_sc_hd__a221o_1
*CAP
1 *2517:C1 0.000100415
2 *2516:X 0.000100415
3 *2517:C1 *819:46 0.000123288
4 *2517:C1 *927:60 5.52238e-05
5 *2517:A1 *2517:C1 3.52562e-05
6 *2517:B1 *2517:C1 1.02504e-05
*RES
1 *2516:X *2517:C1 29.7786 
*END

*D_NET *559 0.0117377
*CONN
*I *2518:D I *D sky130_fd_sc_hd__or4_1
*I *2517:X O *D sky130_fd_sc_hd__a211o_1
*CAP
1 *2518:D 0.00252437
2 *2517:X 0.00252437
3 *2518:D *2530:B2 9.04425e-05
4 *2518:D *2974:GATE_N 0
5 *2518:D *830:26 2.06112e-05
6 *2518:D *840:72 9.03461e-05
7 *2518:D *840:130 0.00242223
8 *2518:D *864:77 0.000471756
9 *2518:D *927:22 0.000397923
10 *2518:B *2518:D 2.63501e-05
11 *3196:A *2518:D 0.0021941
12 *435:14 *2518:D 0.000421367
13 *439:30 *2518:D 2.06112e-05
14 *446:20 *2518:D 0.000157603
15 *499:22 *2518:D 0.000375617
*RES
1 *2517:X *2518:D 45.5621 
*END

*D_NET *560 0.0012934
*CONN
*I *2519:B2 I *D sky130_fd_sc_hd__o22ai_2
*I *2518:X O *D sky130_fd_sc_hd__or4_1
*CAP
1 *2519:B2 0.000234346
2 *2518:X 0.000234346
3 *2519:B2 *2519:A2 1.3701e-05
4 *2519:B2 *826:12 0.000171398
5 *2519:B2 *839:43 8.45527e-05
6 *2519:B2 *912:35 5.63404e-05
7 *2519:B2 *931:48 0.000437749
8 *2519:A1 *2519:B2 6.09658e-05
*RES
1 *2518:X *2519:B2 34.9214 
*END

*D_NET *561 0.00626194
*CONN
*I *2520:B I *D sky130_fd_sc_hd__nor2_1
*I *2646:B I *D sky130_fd_sc_hd__nor2_1
*I *2519:Y O *D sky130_fd_sc_hd__o22ai_2
*CAP
1 *2520:B 0.000137354
2 *2646:B 0
3 *2519:Y 0.00116852
4 *561:28 0.000326264
5 *561:20 0.00135743
6 *2520:B *878:85 0.000177941
7 *2520:B *883:31 4.72917e-05
8 *561:20 *2519:A2 3.57366e-05
9 *561:20 *2523:B1 0.000177821
10 *561:20 *2530:B1 0.000350117
11 *561:20 *2619:B 1.57523e-05
12 *561:20 *2647:A 1.24368e-05
13 *561:20 *2647:B 0.000259586
14 *561:20 *3042:GATE_N 0.000137447
15 *561:20 *839:43 0.00022266
16 *561:20 *839:60 1.97756e-05
17 *561:20 *865:10 0.000218932
18 *561:20 *865:16 5.52302e-05
19 *561:20 *931:48 2.27416e-05
20 *561:20 *931:81 0.000381557
21 *561:28 *2531:B 7.60306e-05
22 *561:28 *2619:B 0.000125684
23 *561:28 *2646:A 3.76337e-05
24 *561:28 *2647:B 7.34455e-06
25 *561:28 *794:14 7.6644e-05
26 *561:28 *878:73 0.000150611
27 *561:28 *883:31 0.000137983
28 *2519:A1 *561:20 0.000150072
29 *2522:A1 *561:20 5.71472e-05
30 *2523:B2 *561:20 0.000100831
31 *2530:A1 *561:20 1.33343e-05
32 *2810:D *2520:B 2.60984e-05
33 *431:10 *2520:B 0.000177941
*RES
1 *2519:Y *561:20 47.0143 
2 *561:20 *561:28 10.3571 
3 *561:28 *2646:B 9.3 
4 *561:28 *2520:B 22.3179 
*END

*D_NET *562 0.00177425
*CONN
*I *2522:C1 I *D sky130_fd_sc_hd__a221o_1
*I *2521:X O *D sky130_fd_sc_hd__a22o_1
*CAP
1 *2522:C1 0.000546132
2 *2521:X 0.000546132
3 *2522:C1 *2522:B1 0.000149444
4 *2522:C1 *2523:B1 4.26759e-05
5 *2522:C1 *2930:GATE_N 0.00016003
6 *2522:C1 *3090:D 0
7 *2522:C1 *3091:GATE_N 0.000106533
8 *2522:C1 *864:27 0
9 *2522:C1 *865:60 0
10 *2522:A1 *2522:C1 5.33882e-05
11 *2522:B2 *2522:C1 0.000169911
*RES
1 *2521:X *2522:C1 39.6536 
*END

*D_NET *563 0.00113845
*CONN
*I *2530:B1 I *D sky130_fd_sc_hd__o22ai_1
*I *2522:X O *D sky130_fd_sc_hd__a221o_1
*CAP
1 *2530:B1 0.00036231
2 *2522:X 0.00036231
3 *2530:B1 *2522:B1 3.92757e-05
4 *2523:A1 *2530:B1 0
5 *2530:A1 *2530:B1 2.44318e-05
6 *561:20 *2530:B1 0.000350117
*RES
1 *2522:X *2530:B1 32.8857 
*END

*D_NET *564 0.0023802
*CONN
*I *2524:C1 I *D sky130_fd_sc_hd__a221o_1
*I *2523:X O *D sky130_fd_sc_hd__a22o_1
*CAP
1 *2524:C1 0.000306341
2 *2523:X 0.000306341
3 *2524:C1 *2523:B1 0.000619769
4 *2524:C1 *2524:B1 1.58163e-05
5 *2524:C1 *810:12 0.000274294
6 *2524:C1 *865:60 0.000576112
7 *2524:C1 *931:81 0.000273269
8 *3125:A *2524:C1 8.25843e-06
*RES
1 *2523:X *2524:C1 29.725 
*END

*D_NET *565 0.0129644
*CONN
*I *2529:A I *D sky130_fd_sc_hd__or3_1
*I *2524:X O *D sky130_fd_sc_hd__a221o_1
*CAP
1 *2529:A 0.000614855
2 *2524:X 0.00238525
3 *565:20 0.00300011
4 *2529:A *2517:A2 0.000109328
5 *2529:A *2528:A2 0
6 *2529:A *2528:C1 0.000647985
7 *2529:A *3018:GATE_N 0.000319267
8 *2529:A *908:12 2.42516e-05
9 *565:20 *2530:B2 0.00141373
10 *565:20 *2610:C1 3.67452e-05
11 *565:20 *2614:C1 2.39923e-05
12 *565:20 *2946:D 1.92905e-05
13 *565:20 *647:20 0.00114412
14 *565:20 *830:16 1.74903e-05
15 *565:20 *830:20 0.000101169
16 *565:20 *839:10 0.000139468
17 *565:20 *865:60 0.000147157
18 *565:20 *887:22 0.000101515
19 *565:20 *923:32 1.5942e-05
20 *565:20 *931:16 5.30209e-05
21 *565:20 *931:48 1.01875e-05
22 *2510:B2 *565:20 4.46186e-06
23 *2614:A1 *2529:A 0.000139913
24 *3150:A *565:20 0.0021719
25 *3200:A *565:20 6.62868e-05
26 *3228:A *2529:A 9.76689e-05
27 *493:12 *565:20 4.32957e-05
28 *498:10 *565:20 5.74499e-06
29 *498:18 *565:20 0.000110238
*RES
1 *2524:X *565:20 46.3609 
2 *565:20 *2529:A 23.4071 
*END

*D_NET *566 0.00136669
*CONN
*I *2526:C1 I *D sky130_fd_sc_hd__a221o_1
*I *2525:X O *D sky130_fd_sc_hd__a22o_1
*CAP
1 *2526:C1 0.000457857
2 *2525:X 0.000457857
3 *2526:C1 *2527:A2 2.23987e-05
4 *2526:C1 *2898:GATE_N 3.04311e-05
5 *2526:C1 *832:60 0.000131874
6 *2526:C1 *834:16 2.45864e-05
7 *2526:C1 *864:81 0.000107309
8 *2525:A1 *2526:C1 2.08695e-05
9 *2526:B2 *2526:C1 1.02504e-05
10 *2528:A1 *2526:C1 0.00010326
*RES
1 *2525:X *2526:C1 34.6 
*END

*D_NET *567 0.000821017
*CONN
*I *2529:B I *D sky130_fd_sc_hd__or3_1
*I *2526:X O *D sky130_fd_sc_hd__a221o_1
*CAP
1 *2529:B 0.000240311
2 *2526:X 0.000240311
3 *2529:B *2528:A2 1.39726e-05
4 *2529:B *2528:C1 5.74499e-06
5 *2529:B *3018:GATE_N 9.41642e-05
6 *2528:A1 *2529:B 0.000226513
*RES
1 *2526:X *2529:B 22.85 
*END

*D_NET *568 0.00154207
*CONN
*I *2528:B1 I *D sky130_fd_sc_hd__a211o_1
*I *2527:X O *D sky130_fd_sc_hd__a22o_1
*CAP
1 *2528:B1 0.000270843
2 *2527:X 0.000270843
3 *2528:B1 *2527:A2 6.05161e-06
4 *2528:B1 *2528:A2 9.7049e-06
5 *2528:B1 *2528:C1 0.000165019
6 *2528:B1 *2866:GATE_N 0.000139907
7 *2528:B1 *3026:D 0.000121573
8 *2528:B1 *837:27 0.000139907
9 *2528:B1 *837:39 0
10 *2528:B1 *867:12 0
11 *2528:B1 *922:22 0.000225616
12 *2528:A1 *2528:B1 2.86259e-05
13 *3147:A *2528:B1 0.000163979
*RES
1 *2527:X *2528:B1 35.6357 
*END

*D_NET *569 0.000120121
*CONN
*I *2529:C I *D sky130_fd_sc_hd__or3_1
*I *2528:X O *D sky130_fd_sc_hd__a211o_1
*CAP
1 *2529:C 2.04425e-05
2 *2528:X 2.04425e-05
3 *2529:C *2528:C1 2.59355e-05
4 *2529:C *3018:GATE_N 5.33005e-05
*RES
1 *2528:X *2529:C 19.1357 
*END

*D_NET *570 0.0158386
*CONN
*I *2530:B2 I *D sky130_fd_sc_hd__o22ai_1
*I *2529:X O *D sky130_fd_sc_hd__or3_1
*CAP
1 *2530:B2 0.00420478
2 *2529:X 0.00420478
3 *2530:B2 *2663:A0 0.000764915
4 *2530:B2 *647:20 0.00114096
5 *2530:B2 *840:72 1.21859e-05
6 *2530:B2 *840:130 1.64815e-05
7 *2530:B2 *864:77 6.74424e-06
8 *2530:B2 *878:44 0
9 *2530:B2 *887:22 0
10 *2530:B2 *927:22 0.00212391
11 *2530:B2 *931:87 2.06178e-05
12 *2518:B *2530:B2 0.000163061
13 *2518:D *2530:B2 9.04425e-05
14 *3196:A *2530:B2 0.00165735
15 *3225:A *2530:B2 9.08889e-06
16 *446:20 *2530:B2 9.59532e-06
17 *565:20 *2530:B2 0.00141373
*RES
1 *2529:X *2530:B2 48.2088 
*END

*D_NET *571 0.00319058
*CONN
*I *2647:B I *D sky130_fd_sc_hd__nor2_1
*I *2531:B I *D sky130_fd_sc_hd__nor2_1
*I *2530:Y O *D sky130_fd_sc_hd__o22ai_1
*CAP
1 *2647:B 0.000232615
2 *2531:B 0.000186236
3 *2530:Y 0.000301245
4 *571:8 0.000720095
5 *2531:B *2619:B 0
6 *2531:B *885:106 0.000306644
7 *2531:B *885:118 3.34295e-05
8 *2647:B *2619:B 0.000219818
9 *2647:B *2677:S 7.86964e-05
10 *2647:B *878:73 0.000198698
11 *2647:B *885:106 0.000221163
12 *571:8 *794:8 2.15245e-05
13 *571:8 *865:10 0.000193171
14 *571:8 *878:73 5.52238e-05
15 *2530:A1 *571:8 7.90597e-05
16 *561:20 *2647:B 0.000259586
17 *561:28 *2531:B 7.60306e-05
18 *561:28 *2647:B 7.34455e-06
*RES
1 *2530:Y *571:8 19.3625 
2 *571:8 *2531:B 18.175 
3 *571:8 *2647:B 22.1214 
*END

*D_NET *572 0.000952356
*CONN
*I *2533:C1 I *D sky130_fd_sc_hd__a221o_1
*I *2532:X O *D sky130_fd_sc_hd__a22o_1
*CAP
1 *2533:C1 0.000217527
2 *2532:X 0.000217527
3 *2533:C1 *828:37 0
4 *2533:C1 *839:60 0.000202816
5 *2532:A1 *2533:C1 0.000160924
6 *2533:B2 *2533:C1 0.000153563
*RES
1 *2532:X *2533:C1 34.4036 
*END

*D_NET *573 0.000465627
*CONN
*I *2541:B1 I *D sky130_fd_sc_hd__o22ai_1
*I *2533:X O *D sky130_fd_sc_hd__a221o_1
*CAP
1 *2541:B1 0.000109969
2 *2533:X 0.000109969
3 *2541:B1 *2541:A2 5.52302e-05
4 *2541:B1 *2851:GATE_N 9.60939e-05
5 *448:45 *2541:B1 9.43647e-05
*RES
1 *2533:X *2541:B1 21.1893 
*END

*D_NET *574 0.000990718
*CONN
*I *2535:C1 I *D sky130_fd_sc_hd__a221o_1
*I *2534:X O *D sky130_fd_sc_hd__a22o_1
*CAP
1 *2535:C1 0.000163512
2 *2534:X 0.000163512
3 *2535:C1 *918:12 0.000304232
4 *2535:C1 *920:177 5.52302e-05
5 *492:34 *2535:C1 0.000304232
*RES
1 *2534:X *2535:C1 32.2071 
*END

*D_NET *575 0.00770151
*CONN
*I *2540:A I *D sky130_fd_sc_hd__or3_1
*I *2535:X O *D sky130_fd_sc_hd__a221o_1
*CAP
1 *2540:A 0.000115933
2 *2535:X 0.00252292
3 *575:20 0.00263886
4 *2540:A *2603:B1 1.27625e-05
5 *575:20 *2638:A2 1.74352e-05
6 *575:20 *2638:C1 6.09919e-05
7 *575:20 *2908:GATE_N 3.67142e-05
8 *575:20 *3029:GATE_N 0.000136951
9 *575:20 *3036:D 9.43376e-05
10 *575:20 *3036:GATE_N 0.000183726
11 *575:20 *3043:D 0.00012173
12 *575:20 *3043:GATE_N 0.000141985
13 *575:20 *3209:A 1.99449e-05
14 *575:20 *820:8 5.33005e-05
15 *575:20 *862:30 0.000300186
16 *575:20 *862:40 5.66392e-05
17 *2535:B2 *575:20 0.000166426
18 *2558:B2 *2540:A 0.000170887
19 *2559:A1 *575:20 0.00014183
20 *2638:A1 *575:20 9.7659e-05
21 *3132:A *2540:A 0.000334585
22 *3132:A *575:20 0.000138881
23 *446:20 *2540:A 0.000136822
*RES
1 *2535:X *575:20 49.2643 
2 *575:20 *2540:A 18.175 
*END

*D_NET *576 0.00177054
*CONN
*I *2537:C1 I *D sky130_fd_sc_hd__a221o_1
*I *2536:X O *D sky130_fd_sc_hd__a22o_1
*CAP
1 *2537:C1 0.00040511
2 *2536:X 0.00040511
3 *2537:C1 *2527:A2 9.25014e-06
4 *2537:C1 *2536:A2 0.000158942
5 *2537:C1 *2537:B1 5.33005e-05
6 *2537:C1 *2539:B1 0.000146184
7 *2537:C1 *2602:A2 0.000447142
8 *2537:C1 *922:32 4.26808e-05
9 *2537:A1 *2537:C1 8.58191e-05
10 *2537:B2 *2537:C1 1.69961e-05
*RES
1 *2536:X *2537:C1 36.8902 
*END

*D_NET *577 0.00125823
*CONN
*I *2540:B I *D sky130_fd_sc_hd__or3_1
*I *2537:X O *D sky130_fd_sc_hd__a221o_1
*CAP
1 *2540:B 0.000306362
2 *2537:X 0.000306362
3 *2540:B *2538:A2 0.000312026
4 *2540:B *2540:C 7.6644e-05
5 *2540:B *903:32 0.000123594
6 *2540:B *905:30 0.000107996
7 *3132:A *2540:B 2.52423e-05
*RES
1 *2537:X *2540:B 33.3679 
*END

*D_NET *578 0.000539183
*CONN
*I *2539:B1 I *D sky130_fd_sc_hd__a211o_1
*I *2538:X O *D sky130_fd_sc_hd__a22o_1
*CAP
1 *2539:B1 0.000144409
2 *2538:X 0.000144409
3 *2539:B1 *2538:A2 3.32631e-05
4 *2539:B1 *922:32 7.09186e-05
5 *2537:C1 *2539:B1 0.000146184
*RES
1 *2538:X *2539:B1 30.4929 
*END

*D_NET *579 0.000625803
*CONN
*I *2540:C I *D sky130_fd_sc_hd__or3_1
*I *2539:X O *D sky130_fd_sc_hd__a211o_1
*CAP
1 *2540:C 0.00013681
2 *2539:X 0.00013681
3 *2540:C *2538:A2 3.417e-05
4 *2540:C *2539:C1 9.41642e-05
5 *2540:B *2540:C 7.6644e-05
6 *3132:A *2540:C 0.000147204
*RES
1 *2539:X *2540:C 30.4929 
*END

*D_NET *580 0.0179573
*CONN
*I *2541:B2 I *D sky130_fd_sc_hd__o22ai_1
*I *2540:X O *D sky130_fd_sc_hd__or3_1
*CAP
1 *2541:B2 0
2 *2540:X 0.00436092
3 *580:22 0.00436092
4 *580:22 *2536:A2 2.83129e-05
5 *580:22 *2536:B1 7.75881e-05
6 *580:22 *2538:B1 0.000772134
7 *580:22 *2558:A2 1.94879e-05
8 *580:22 *2563:A2 1.49084e-05
9 *580:22 *2603:B1 2.09826e-05
10 *580:22 *2633:A2 0
11 *580:22 *2637:A2 0.00141621
12 *580:22 *2926:GATE_N 0.00149069
13 *580:22 *3068:GATE_N 2.65481e-05
14 *580:22 *3166:A 0.000141675
15 *580:22 *3369:A 1.31686e-05
16 *580:22 *581:12 4.5539e-05
17 *580:22 *827:25 0.00126127
18 *580:22 *842:50 0
19 *580:22 *859:30 0.00278634
20 *580:22 *912:95 0.000840181
21 *580:22 *915:79 0.00023946
22 *2558:A1 *580:22 6.05161e-06
23 *3225:A *580:22 3.49286e-05
*RES
1 *2540:X *580:22 41.2009 
2 *580:22 *2541:B2 9.3 
*END

*D_NET *581 0.0044374
*CONN
*I *2542:B I *D sky130_fd_sc_hd__nor2_1
*I *2648:B I *D sky130_fd_sc_hd__nor2_1
*I *2541:Y O *D sky130_fd_sc_hd__o22ai_1
*CAP
1 *2542:B 7.94207e-05
2 *2648:B 0.000237526
3 *2541:Y 0.000556557
4 *581:12 0.000873504
5 *2542:B *2664:A1 0.000227117
6 *2648:B *2664:A1 9.41642e-05
7 *2648:B *2664:S 3.51442e-05
8 *2648:B *887:123 0.000598732
9 *2648:B *996:26 6.89111e-05
10 *581:12 *2541:A2 5.52238e-05
11 *581:12 *2562:A2 0.000198998
12 *581:12 *2562:C1 3.40133e-05
13 *581:12 *2563:A2 0
14 *581:12 *2650:B 0.000449719
15 *581:12 *3166:A 5.7836e-06
16 *581:12 *601:12 0.000115474
17 *581:12 *809:12 0.000100831
18 *581:12 *809:35 0
19 *581:12 *885:118 0
20 *581:12 *887:123 0.000105545
21 *2541:A1 *581:12 8.07879e-05
22 *2563:A1 *581:12 0
23 *2814:D *581:12 1.90936e-05
24 *2828:D *2542:B 7.43578e-06
25 *3159:A *2648:B 0.000380886
26 *440:37 *581:12 0
27 *448:45 *581:12 6.69988e-05
28 *580:22 *581:12 4.5539e-05
*RES
1 *2541:Y *581:12 31.7107 
2 *581:12 *2648:B 26.9607 
3 *581:12 *2542:B 11.4786 
*END

*D_NET *582 0.00135527
*CONN
*I *2544:C1 I *D sky130_fd_sc_hd__a221o_1
*I *2543:X O *D sky130_fd_sc_hd__a22o_1
*CAP
1 *2544:C1 0.000416784
2 *2543:X 0.000416784
3 *2544:C1 *2657:B 0.000145154
4 *2544:C1 *3060:GATE_N 3.67142e-05
5 *2544:C1 *838:37 0.000145154
6 *2544:C1 *861:88 0.000112798
7 *2544:C1 *861:95 8.18868e-05
*RES
1 *2543:X *2544:C1 34.1893 
*END

*D_NET *583 0.000521326
*CONN
*I *2552:B1 I *D sky130_fd_sc_hd__o22ai_1
*I *2544:X O *D sky130_fd_sc_hd__a221o_1
*CAP
1 *2552:B1 4.80467e-05
2 *2544:X 4.80467e-05
3 *2552:B1 *2552:A2 0.00010096
4 *2552:B1 *621:14 9.35522e-05
5 *2552:B1 *930:48 5.52238e-05
6 *2552:B1 *930:102 0.000142856
7 *551:12 *2552:B1 3.26409e-05
*RES
1 *2544:X *2552:B1 21.1893 
*END

*D_NET *584 0.000515105
*CONN
*I *2546:C1 I *D sky130_fd_sc_hd__a221o_1
*I *2545:X O *D sky130_fd_sc_hd__a22o_1
*CAP
1 *2546:C1 0.000117372
2 *2545:X 0.000117372
3 *2546:C1 *585:10 0
4 *2546:C1 *811:62 2.89114e-05
5 *2546:C1 *896:20 0.000150618
6 *2546:C1 *914:32 0.000100831
*RES
1 *2545:X *2546:C1 30.0821 
*END

*D_NET *585 0.00801725
*CONN
*I *2551:A I *D sky130_fd_sc_hd__or3_1
*I *2546:X O *D sky130_fd_sc_hd__a221o_1
*CAP
1 *2551:A 0.0020823
2 *2546:X 0.000235795
3 *585:10 0.00231809
4 *2551:A *2625:B1 5.52238e-05
5 *2551:A *818:61 7.50342e-05
6 *2551:A *900:116 0.00135195
7 *585:10 *2916:D 0
8 *585:10 *829:36 0.000216809
9 *585:10 *892:10 0.000152143
10 *585:10 *896:20 0
11 *2504:B2 *2551:A 2.87555e-06
12 *2507:A *2551:A 0.00112699
13 *2507:C *2551:A 0.000189276
14 *2546:A1 *585:10 3.79467e-05
15 *2546:C1 *585:10 0
16 *3169:A *585:10 2.21972e-05
17 *3177:A *585:10 0.000150618
*RES
1 *2546:X *585:10 24.4964 
2 *585:10 *2551:A 38.9071 
*END

*D_NET *586 0.00135948
*CONN
*I *2548:C1 I *D sky130_fd_sc_hd__a221o_1
*I *2547:X O *D sky130_fd_sc_hd__a22o_1
*CAP
1 *2548:C1 0.000264705
2 *2547:X 0.000264705
3 *2548:C1 *2547:A2 9.76435e-06
4 *2548:C1 *2896:GATE_N 4.70981e-05
5 *2548:C1 *814:24 5.33005e-05
6 *2548:C1 *814:30 0.000137799
7 *2548:C1 *814:48 0.000121623
8 *2548:C1 *831:114 0.000307344
9 *2548:C1 *904:56 1.32056e-05
10 *2548:A1 *2548:C1 1.17921e-05
11 *2548:B2 *2548:C1 0.000128146
*RES
1 *2547:X *2548:C1 35.0464 
*END

*D_NET *587 0.00189142
*CONN
*I *2551:B I *D sky130_fd_sc_hd__or3_1
*I *2548:X O *D sky130_fd_sc_hd__a221o_1
*CAP
1 *2551:B 0.000621096
2 *2548:X 0.000621096
3 *2551:B *2980:D 6.26078e-05
4 *2551:B *2980:GATE_N 3.1521e-05
5 *2551:B *818:61 3.06878e-06
6 *2551:B *860:91 5.38242e-05
7 *2551:B *898:24 0.000266943
8 *2551:B *922:51 9.32756e-05
9 *2549:B2 *2551:B 0.000137983
*RES
1 *2548:X *2551:B 37.35 
*END

*D_NET *588 0.0010881
*CONN
*I *2550:B1 I *D sky130_fd_sc_hd__a211o_1
*I *2549:X O *D sky130_fd_sc_hd__a22o_1
*CAP
1 *2550:B1 0.000340906
2 *2549:X 0.000340906
3 *2550:B1 *836:72 7.17932e-05
4 *2550:B1 *920:69 0.00018631
5 *2550:B1 *932:43 0.000148189
*RES
1 *2549:X *2550:B1 32.9571 
*END

*D_NET *589 0.000737582
*CONN
*I *2551:C I *D sky130_fd_sc_hd__or3_1
*I *2550:X O *D sky130_fd_sc_hd__a211o_1
*CAP
1 *2551:C 0.000142548
2 *2550:X 0.000142548
3 *2551:C *816:39 4.52914e-05
4 *2551:C *836:68 0.000197984
5 *2551:C *900:45 0.000125987
6 *2551:C *932:37 8.32242e-05
*RES
1 *2550:X *2551:C 31.975 
*END

*D_NET *590 0.0138731
*CONN
*I *2552:B2 I *D sky130_fd_sc_hd__o22ai_1
*I *2551:X O *D sky130_fd_sc_hd__or3_1
*CAP
1 *2552:B2 0.00517569
2 *2551:X 0.00517569
3 *2552:B2 *2670:S 8.33041e-06
4 *2552:B2 *2673:S 0.000102992
5 *2552:B2 *2896:GATE_N 0.000235858
6 *2552:B2 *620:18 0
7 *2552:B2 *805:32 6.03803e-05
8 *2552:B2 *809:35 2.06178e-05
9 *2552:B2 *811:35 0.000133293
10 *2552:B2 *822:141 0.000336012
11 *2552:B2 *829:129 0
12 *2552:B2 *833:119 7.44645e-06
13 *2552:B2 *900:45 1.21859e-05
14 *2500:C1 *2552:B2 0.000165419
15 *2508:B2 *2552:B2 0.00194135
16 *3169:A *2552:B2 0.000497857
*RES
1 *2551:X *2552:B2 47.7043 
*END

*D_NET *591 0.00241579
*CONN
*I *2553:B I *D sky130_fd_sc_hd__nor2_1
*I *2649:B I *D sky130_fd_sc_hd__nor2_1
*I *2552:Y O *D sky130_fd_sc_hd__o22ai_1
*CAP
1 *2553:B 0.000220753
2 *2649:B 0.000177224
3 *2552:Y 0.00016548
4 *591:10 0.000563457
5 *2553:B *2670:S 0.000218734
6 *2553:B *2673:A1 0.000350311
7 *2649:B *2654:B 0
8 *2649:B *2670:A1 0
9 *2649:B *2670:S 0.000153047
10 *591:10 *2552:A2 6.40384e-05
11 *591:10 *621:14 4.85033e-05
12 *2813:D *2649:B 4.85049e-06
13 *2829:D *2553:B 3.69047e-06
14 *3159:A *2553:B 0.000211205
15 *3159:A *2649:B 0.00010326
16 *426:10 *2649:B 0.000131237
*RES
1 *2552:Y *591:10 16.4071 
2 *591:10 *2649:B 18.7107 
3 *591:10 *2553:B 20.0679 
*END

*D_NET *592 0.00156232
*CONN
*I *2555:C1 I *D sky130_fd_sc_hd__a221o_1
*I *2554:X O *D sky130_fd_sc_hd__a22o_1
*CAP
1 *2555:C1 0.000249033
2 *2554:X 0.000249033
3 *2555:C1 *2639:A 0.000479912
4 *2555:C1 *2640:B2 0.000180557
5 *2555:C1 *2885:D 1.94054e-05
6 *2555:C1 *858:46 1.68315e-05
7 *2555:C1 *920:177 0.000203513
8 *2554:A1 *2555:C1 2.06112e-05
9 *2555:B2 *2555:C1 0.000122814
10 *498:18 *2555:C1 2.06112e-05
*RES
1 *2554:X *2555:C1 38.1698 
*END

*D_NET *593 0.000271524
*CONN
*I *2560:A I *D sky130_fd_sc_hd__or3_1
*I *2555:X O *D sky130_fd_sc_hd__a221o_1
*CAP
1 *2560:A 5.82065e-05
2 *2555:X 5.82065e-05
3 *2560:A *2560:C 8.78375e-05
4 *2560:A *842:50 5.33005e-05
5 *2560:A *863:48 1.39726e-05
*RES
1 *2555:X *2560:A 19.975 
*END

*D_NET *594 0.000829202
*CONN
*I *2560:B I *D sky130_fd_sc_hd__or3_1
*I *2556:X O *D sky130_fd_sc_hd__a22o_1
*CAP
1 *2560:B 0.000229865
2 *2556:X 0.000229865
3 *2560:B *2633:B1 2.56601e-05
4 *439:30 *2560:B 0.000265453
5 *498:18 *2560:B 7.83587e-05
*RES
1 *2556:X *2560:B 31.225 
*END

*D_NET *595 0.000572239
*CONN
*I *2559:B1 I *D sky130_fd_sc_hd__a211o_1
*I *2557:X O *D sky130_fd_sc_hd__a22o_1
*CAP
1 *2559:B1 0.000166854
2 *2557:X 0.000166854
3 *2559:B1 *2557:A2 4.55597e-05
4 *2559:B1 *2559:C1 1.00733e-05
5 *2559:B1 *2869:GATE_N 1.74852e-05
6 *2559:B1 *3004:GATE_N 9.82379e-05
7 *2559:B1 *926:6 6.71755e-05
*RES
1 *2557:X *2559:B1 31.1536 
*END

*D_NET *596 0.00138877
*CONN
*I *2559:C1 I *D sky130_fd_sc_hd__a211o_1
*I *2558:X O *D sky130_fd_sc_hd__a221o_1
*CAP
1 *2559:C1 0.000543615
2 *2558:X 0.000543615
3 *2559:C1 *2558:A2 9.20635e-06
4 *2559:C1 *2558:C1 5.52238e-05
5 *2559:C1 *2604:B1 2.88045e-05
6 *2559:C1 *2869:D 4.13496e-05
7 *2559:C1 *2869:GATE_N 2.76171e-05
8 *2559:C1 *859:54 4.87953e-05
9 *2559:C1 *900:30 7.14469e-05
10 *2559:C1 *926:6 9.01775e-06
11 *2559:B1 *2559:C1 1.00733e-05
*RES
1 *2558:X *2559:C1 34.7964 
*END

*D_NET *597 0.00923589
*CONN
*I *2560:C I *D sky130_fd_sc_hd__or3_1
*I *2559:X O *D sky130_fd_sc_hd__a211o_1
*CAP
1 *2560:C 0.000137317
2 *2559:X 7.02794e-05
3 *597:22 0.00304226
4 *597:10 0.00297522
5 *2560:C *2555:A2 7.13226e-06
6 *2560:C *863:48 7.77523e-05
7 *597:10 *2559:A2 2.61494e-05
8 *597:10 *3004:GATE_N 0.00014576
9 *597:10 *3036:GATE_N 0.000194491
10 *597:22 *2556:B1 0.000125241
11 *597:22 *2876:GATE_N 6.57032e-05
12 *597:22 *2894:D 4.8843e-05
13 *597:22 *2908:GATE_N 0.000919731
14 *597:22 *2915:GATE_N 0.000314749
15 *597:22 *3004:D 8.18868e-05
16 *597:22 *3004:GATE_N 6.05161e-06
17 *597:22 *842:98 5.54432e-05
18 *597:22 *842:100 5.19805e-05
19 *597:22 *863:48 0.000102316
20 *597:22 *917:70 7.47252e-05
21 *597:22 *934:20 2.90075e-05
22 *2481:A1 *597:22 1.48545e-05
23 *2555:B2 *597:22 1.28809e-05
24 *2556:A1 *597:22 0.000123594
25 *2560:A *2560:C 8.78375e-05
26 *439:30 *597:22 0.000444673
*RES
1 *2559:X *597:10 20.8536 
2 *597:10 *597:22 48.6964 
3 *597:22 *2560:C 12.3357 
*END

*D_NET *598 0.00556111
*CONN
*I *2563:B1 I *D sky130_fd_sc_hd__o22ai_1
*I *2560:X O *D sky130_fd_sc_hd__or3_1
*CAP
1 *2563:B1 0
2 *2560:X 0.00191602
3 *598:26 0.00191602
4 *598:26 *2561:A2 0.000110546
5 *598:26 *2561:B1 2.42516e-05
6 *598:26 *2631:B1 0.00051847
7 *598:26 *2632:C1 3.90148e-05
8 *598:26 *2634:C1 0.000123259
9 *598:26 *2639:A 5.33005e-05
10 *598:26 *2933:D 0.000121322
11 *598:26 *3068:D 0.000107985
12 *598:26 *807:10 9.41642e-05
13 *598:26 *826:16 0
14 *598:26 *827:10 4.38605e-05
15 *598:26 *842:50 0.00031119
16 *2562:A1 *598:26 5.33005e-05
17 *2633:B2 *598:26 7.6644e-05
18 *3120:A *598:26 5.17614e-05
*RES
1 *2560:X *598:26 47.9429 
2 *598:26 *2563:B1 9.3 
*END

*D_NET *599 0.00247611
*CONN
*I *2562:C1 I *D sky130_fd_sc_hd__a221o_1
*I *2561:X O *D sky130_fd_sc_hd__a22o_1
*CAP
1 *2562:C1 0.000672937
2 *2561:X 0.000672937
3 *2562:C1 *2561:A2 1.98839e-05
4 *2562:C1 *2563:A2 1.93629e-05
5 *2562:C1 *809:12 5.01213e-05
6 *2562:C1 *827:10 0.000739164
7 *2563:A1 *2562:C1 0.000216101
8 *448:45 *2562:C1 5.15925e-05
9 *581:12 *2562:C1 3.40133e-05
*RES
1 *2561:X *2562:C1 38.5821 
*END

*D_NET *600 0.00107252
*CONN
*I *2563:B2 I *D sky130_fd_sc_hd__o22ai_1
*I *2562:X O *D sky130_fd_sc_hd__a221o_1
*CAP
1 *2563:B2 0.000208995
2 *2562:X 0.000208995
3 *2563:B2 *601:12 0.000313834
4 *2563:B2 *827:10 0.00020044
5 *2563:B2 *858:14 3.92854e-05
6 *2563:B2 *885:118 4.57445e-05
7 *448:45 *2563:B2 5.52302e-05
*RES
1 *2562:X *2563:B2 33.475 
*END

*D_NET *601 0.00258916
*CONN
*I *2564:B I *D sky130_fd_sc_hd__nor2_1
*I *2650:B I *D sky130_fd_sc_hd__nor2_1
*I *2563:Y O *D sky130_fd_sc_hd__o22ai_1
*CAP
1 *2564:B 0.000159225
2 *2650:B 0.000262814
3 *2563:Y 0.000241954
4 *601:12 0.000663993
5 *2564:B *2562:A2 7.13226e-06
6 *2564:B *858:14 5.52302e-05
7 *2564:B *885:118 3.57366e-05
8 *2650:B *2562:A2 0.000177948
9 *2650:B *809:35 0
10 *2650:B *887:123 9.25014e-06
11 *2650:B *1024:18 0
12 *601:12 *858:14 7.83659e-05
13 *2562:A1 *2564:B 1.24368e-05
14 *2563:A1 *2650:B 6.05161e-06
15 *2563:B2 *601:12 0.000313834
16 *581:12 *2650:B 0.000449719
17 *581:12 *601:12 0.000115474
*RES
1 *2563:Y *601:12 18.8714 
2 *601:12 *2650:B 29.4607 
3 *601:12 *2564:B 16.7107 
*END

*D_NET *602 0.000331183
*CONN
*I *2566:C1 I *D sky130_fd_sc_hd__a221o_1
*I *2565:X O *D sky130_fd_sc_hd__a22o_1
*CAP
1 *2566:C1 6.7083e-05
2 *2565:X 6.7083e-05
3 *2566:C1 *2488:B1 0.000142856
4 *2566:C1 *909:73 5.41609e-05
5 *2565:B2 *2566:C1 0
*RES
1 *2565:X *2566:C1 20.6893 
*END

*D_NET *603 0.00193062
*CONN
*I *2574:B1 I *D sky130_fd_sc_hd__o22ai_1
*I *2566:X O *D sky130_fd_sc_hd__a221o_1
*CAP
1 *2574:B1 0.000269118
2 *2566:X 0.000269118
3 *2574:B1 *2574:B2 5.52238e-05
4 *2574:B1 *2657:B 0.00047632
5 *2574:B1 *3055:GATE_N 0
6 *2574:B1 *827:160 0.000292715
7 *2574:B1 *930:60 0.000162398
8 *390:10 *2574:B1 0
9 *521:26 *2574:B1 0.000405727
*RES
1 *2566:X *2574:B1 37.6179 
*END

*D_NET *604 0.000559965
*CONN
*I *2568:C1 I *D sky130_fd_sc_hd__a221o_1
*I *2567:X O *D sky130_fd_sc_hd__a22o_1
*CAP
1 *2568:C1 0.000212617
2 *2567:X 0.000212617
3 *2568:C1 *2567:A2 5.62995e-05
4 *2568:C1 *809:72 4.25622e-05
5 *2568:C1 *855:152 3.14078e-05
6 *2568:B2 *2568:C1 4.46186e-06
7 *385:12 *2568:C1 0
*RES
1 *2567:X *2568:C1 31.0107 
*END

*D_NET *605 0.00374942
*CONN
*I *2573:A I *D sky130_fd_sc_hd__or3_1
*I *2568:X O *D sky130_fd_sc_hd__a221o_1
*CAP
1 *2573:A 0.00143404
2 *2568:X 0.00143404
3 *2573:A *2590:A2 2.61613e-05
4 *2573:A *2590:B1 9.90367e-05
5 *2573:A *610:12 0.000570233
6 *2573:A *855:115 0.00013768
7 *2567:A1 *2573:A 6.78055e-06
8 *2590:B2 *2573:A 1.21289e-05
9 *3161:A *2573:A 2.93247e-05
*RES
1 *2568:X *2573:A 37.1179 
*END

*D_NET *606 0.000866806
*CONN
*I *2570:C1 I *D sky130_fd_sc_hd__a221o_1
*I *2569:X O *D sky130_fd_sc_hd__a22o_1
*CAP
1 *2570:C1 0.000391366
2 *2569:X 0.000391366
3 *2570:C1 *2569:A2 1.58213e-06
4 *2570:C1 *2570:B1 4.1331e-06
5 *2570:C1 *3030:D 0
6 *2570:C1 *855:56 0
7 *2569:A1 *2570:C1 7.83587e-05
8 *2570:A1 *2570:C1 0
*RES
1 *2569:X *2570:C1 32.9214 
*END

*D_NET *607 0.000451618
*CONN
*I *2573:B I *D sky130_fd_sc_hd__or3_1
*I *2570:X O *D sky130_fd_sc_hd__a221o_1
*CAP
1 *2573:B 0.000225809
2 *2570:X 0.000225809
*RES
1 *2570:X *2573:B 21.1893 
*END

*D_NET *608 0.000905782
*CONN
*I *2572:B1 I *D sky130_fd_sc_hd__a211o_1
*I *2571:X O *D sky130_fd_sc_hd__a22o_1
*CAP
1 *2572:B1 0.000267954
2 *2571:X 0.000267954
3 *2572:B1 *3096:GATE_N 6.74815e-05
4 *2572:A1 *2572:B1 0.000302393
5 *381:10 *2572:B1 0
*RES
1 *2571:X *2572:B1 33.0286 
*END

*D_NET *609 0.000803248
*CONN
*I *2573:C I *D sky130_fd_sc_hd__or3_1
*I *2572:X O *D sky130_fd_sc_hd__a211o_1
*CAP
1 *2573:C 0.000360754
2 *2572:X 0.000360754
3 *2573:C *2572:A2 5.52302e-05
4 *381:10 *2573:C 0
5 *384:12 *2573:C 0
6 *535:14 *2573:C 2.65105e-05
*RES
1 *2572:X *2573:C 33.0286 
*END

*D_NET *610 0.0109595
*CONN
*I *2574:B2 I *D sky130_fd_sc_hd__o22ai_1
*I *2573:X O *D sky130_fd_sc_hd__or3_1
*CAP
1 *2574:B2 0.000451791
2 *2573:X 0.000554573
3 *610:16 0.00319792
4 *610:12 0.0033007
5 *2574:B2 *2657:B 0
6 *2574:B2 *2821:GATE_N 0
7 *2574:B2 *3184:A 6.83753e-05
8 *2574:B2 *3328:A 0
9 *2574:B2 *631:28 0
10 *2574:B2 *930:60 0.000137983
11 *2574:B2 *990:12 0
12 *610:12 *2668:A0 0
13 *610:12 *2925:D 0
14 *610:12 *2941:GATE_N 0
15 *610:16 *2667:A0 4.70078e-05
16 *610:16 *2668:A1 4.87854e-05
17 *610:16 *2668:S 3.18676e-05
18 *610:16 *2845:D 4.01768e-05
19 *610:16 *3062:GATE_N 4.01768e-05
20 *610:16 *856:8 0.00014631
21 *610:16 *856:38 0.000723437
22 *610:16 *877:19 2.09869e-05
23 *610:16 *882:65 0.000183431
24 *610:16 *882:69 1.00073e-05
25 *2468:A1 *610:12 8.93056e-05
26 *2573:A *610:12 0.000570233
27 *2574:B1 *2574:B2 5.52238e-05
28 *2815:D *2574:B2 0.000148698
29 *3164:A *610:16 3.16973e-05
30 *376:8 *610:16 0.000830154
31 *390:10 *2574:B2 0.000161919
32 *521:26 *2574:B2 6.87245e-05
*RES
1 *2573:X *610:12 29.05 
2 *610:12 *610:16 42 
3 *610:16 *2574:B2 23.4786 
*END

*D_NET *611 0.00461509
*CONN
*I *2575:B I *D sky130_fd_sc_hd__nor2_1
*I *2651:B I *D sky130_fd_sc_hd__nor2_1
*I *2574:Y O *D sky130_fd_sc_hd__o22ai_1
*CAP
1 *2575:B 0.00123318
2 *2651:B 0.000132118
3 *2574:Y 0
4 *611:6 0.0013653
5 *2575:B *2489:A2 1.89695e-05
6 *2575:B *2489:B1 0.000308152
7 *2575:B *2575:A 5.7661e-06
8 *2575:B *2927:D 1.92789e-05
9 *2575:B *3055:GATE_N 5.62995e-05
10 *2575:B *827:160 0.000143522
11 *2575:B *871:92 0.000130165
12 *2575:B *882:28 2.28428e-05
13 *2575:B *884:53 1.58163e-05
14 *2651:B *2489:B1 0.0001827
15 *2651:B *631:28 0.000377148
16 *2651:B *882:28 7.80714e-06
17 *2489:A1 *2575:B 1.26099e-05
18 *2489:B2 *2575:B 8.27803e-05
19 *2497:B1 *2575:B 0.000181803
20 *2642:B *2575:B 0
21 *390:10 *2575:B 7.83587e-05
22 *390:10 *2651:B 0.000240484
*RES
1 *2574:Y *611:6 13.8 
2 *611:6 *2651:B 18.7286 
3 *611:6 *2575:B 33.0857 
*END

*D_NET *612 0.00132648
*CONN
*I *2577:C1 I *D sky130_fd_sc_hd__a221o_1
*I *2576:X O *D sky130_fd_sc_hd__a22o_1
*CAP
1 *2577:C1 0.000361956
2 *2576:X 0.000361956
3 *2577:C1 *2561:B1 0.000123133
4 *2577:C1 *838:123 3.87217e-05
5 *2577:C1 *914:117 0.000440711
*RES
1 *2576:X *2577:C1 33.475 
*END

*D_NET *613 0.000805742
*CONN
*I *2585:B1 I *D sky130_fd_sc_hd__o22ai_1
*I *2577:X O *D sky130_fd_sc_hd__a221o_1
*CAP
1 *2585:B1 0.000223788
2 *2577:X 0.000223788
3 *2585:B1 *2577:A2 4.34948e-06
4 *2585:B1 *2641:B 2.10757e-05
5 *2585:B1 *620:18 0.000147311
6 *2585:B1 *909:103 0.000107065
7 *2577:A1 *2585:B1 7.83659e-05
*RES
1 *2577:X *2585:B1 32.3143 
*END

*D_NET *614 0.0026486
*CONN
*I *2579:C1 I *D sky130_fd_sc_hd__a221o_1
*I *2578:X O *D sky130_fd_sc_hd__a22o_1
*CAP
1 *2579:C1 0.000794719
2 *2578:X 0.000794719
3 *2579:C1 *2600:A2 4.16984e-05
4 *2579:C1 *827:77 0.000230482
5 *2579:C1 *829:36 0.000147211
6 *2579:C1 *914:97 4.22736e-05
7 *2579:B2 *2579:C1 7.01788e-05
8 *3162:A *2579:C1 0.000527318
*RES
1 *2578:X *2579:C1 39.5286 
*END

*D_NET *615 0.00503231
*CONN
*I *2584:A I *D sky130_fd_sc_hd__or3_1
*I *2579:X O *D sky130_fd_sc_hd__a221o_1
*CAP
1 *2584:A 0.00201977
2 *2579:X 0.00201977
3 *2584:A *2987:D 7.50473e-05
4 *2584:A *2987:GATE_N 0.00013949
5 *2584:A *3049:GATE_N 0.000212672
6 *2584:A *853:31 0.000292517
7 *2584:A *853:102 1.15281e-05
8 *2584:A *853:133 0.000191765
9 *2626:B2 *2584:A 4.01768e-05
10 *3162:A *2584:A 2.95726e-05
*RES
1 *2579:X *2584:A 46.5821 
*END

*D_NET *616 0.000384877
*CONN
*I *2581:C1 I *D sky130_fd_sc_hd__a221o_1
*I *2580:X O *D sky130_fd_sc_hd__a22o_1
*CAP
1 *2581:C1 0.000113985
2 *2580:X 0.000113985
3 *2581:C1 *2580:A2 6.05161e-06
4 *2581:C1 *2580:B1 1.56e-05
5 *2581:C1 *904:56 0.000125005
6 *2581:C1 *922:32 0
7 *2581:B2 *2581:C1 1.02504e-05
*RES
1 *2580:X *2581:C1 29.7786 
*END

*D_NET *617 0.00224814
*CONN
*I *2584:B I *D sky130_fd_sc_hd__or3_1
*I *2581:X O *D sky130_fd_sc_hd__a221o_1
*CAP
1 *2584:B 0.000699335
2 *2581:X 0.000699335
3 *2584:B *2581:A2 0.000111439
4 *2584:B *2581:B1 3.18676e-05
5 *2584:B *2584:C 0.00012401
6 *2584:B *3015:GATE_N 3.69047e-06
7 *2584:B *816:37 0.000176569
8 *2584:B *816:39 4.58096e-05
9 *2584:B *853:31 1.15281e-05
10 *2584:B *900:30 0.000146474
11 *2584:B *920:107 6.57914e-05
12 *2584:B *932:31 5.74562e-05
13 *2584:B *932:37 7.48356e-05
*RES
1 *2581:X *2584:B 39.4036 
*END

*D_NET *618 0.000633491
*CONN
*I *2583:B1 I *D sky130_fd_sc_hd__a211o_1
*I *2582:X O *D sky130_fd_sc_hd__a22o_1
*CAP
1 *2583:B1 0.000162486
2 *2582:X 0.000162486
3 *2583:B1 *2583:C1 3.63587e-05
4 *2583:B1 *2983:GATE_N 1.21258e-05
5 *2583:B1 *853:33 5.52302e-05
6 *2583:B1 *898:24 0.00010326
7 *2583:B1 *920:107 0.000101545
*RES
1 *2582:X *2583:B1 30.85 
*END

*D_NET *619 0.00088735
*CONN
*I *2584:C I *D sky130_fd_sc_hd__or3_1
*I *2583:X O *D sky130_fd_sc_hd__a211o_1
*CAP
1 *2584:C 0.000250089
2 *2583:X 0.000250089
3 *2584:C *2583:A2 9.6087e-05
4 *2584:C *900:43 4.13496e-05
5 *2584:C *932:37 0.000125724
6 *2584:B *2584:C 0.00012401
*RES
1 *2583:X *2584:C 31.8321 
*END

*D_NET *620 0.0150605
*CONN
*I *2585:B2 I *D sky130_fd_sc_hd__o22ai_1
*I *2584:X O *D sky130_fd_sc_hd__or3_1
*CAP
1 *2585:B2 0
2 *2584:X 0.00518002
3 *620:18 0.00518002
4 *620:18 *2579:B1 0.000324226
5 *620:18 *2599:B1 0.000727176
6 *620:18 *2607:B2 0
7 *620:18 *2629:B2 0.000706378
8 *620:18 *2673:S 0.000118634
9 *620:18 *2875:GATE_N 2.11419e-05
10 *620:18 *3063:GATE_N 0.000254635
11 *620:18 *805:28 6.29147e-05
12 *620:18 *805:32 0.000812702
13 *620:18 *809:35 0
14 *620:18 *883:57 0
15 *620:18 *889:28 0.00143796
16 *620:18 *900:43 1.28585e-05
17 *620:18 *909:90 0
18 *620:18 *909:103 0
19 *2508:B2 *620:18 0
20 *2552:B2 *620:18 0
21 *2577:A1 *620:18 1.12484e-05
22 *2585:A1 *620:18 6.32633e-05
23 *2585:B1 *620:18 0.000147311
*RES
1 *2584:X *620:18 42.5975 
2 *620:18 *2585:B2 9.3 
*END

*D_NET *621 0.00461299
*CONN
*I *2586:B I *D sky130_fd_sc_hd__nor2_1
*I *2652:B I *D sky130_fd_sc_hd__nor2_1
*I *2585:Y O *D sky130_fd_sc_hd__o22ai_1
*CAP
1 *2586:B 0.000196889
2 *2652:B 0.000227852
3 *2585:Y 0.000355386
4 *621:14 0.000780126
5 *2586:B *2649:A 9.41642e-05
6 *2586:B *2670:A1 0.000518638
7 *2586:B *2809:GATE_N 8.25843e-06
8 *2586:B *3322:A 1.82657e-05
9 *2586:B *884:39 5.91094e-05
10 *2652:B *2489:A2 0.000221163
11 *2652:B *2654:B 0.000227021
12 *2652:B *886:39 5.45515e-05
13 *621:14 *2489:A2 0.000390561
14 *621:14 *2552:A2 0.000108258
15 *621:14 *2608:B 5.33005e-05
16 *621:14 *2654:B 0.000357139
17 *621:14 *641:8 3.17148e-05
18 *2552:B1 *621:14 9.35522e-05
19 *2832:GATE_N *2652:B 0
20 *551:12 *621:14 0.000768534
21 *591:10 *621:14 4.85033e-05
*RES
1 *2585:Y *621:14 26.8446 
2 *621:14 *2652:B 18.8536 
3 *621:14 *2586:B 19.2821 
*END

*D_NET *622 0.000877277
*CONN
*I *2588:C1 I *D sky130_fd_sc_hd__a221o_1
*I *2587:X O *D sky130_fd_sc_hd__a22o_1
*CAP
1 *2588:C1 0.000252352
2 *2587:X 0.000252352
3 *2588:C1 *855:152 0.000296821
4 *2588:C1 *894:29 7.57518e-05
*RES
1 *2587:X *2588:C1 32.1357 
*END

*D_NET *623 0.000654255
*CONN
*I *2596:B1 I *D sky130_fd_sc_hd__o22ai_2
*I *2588:X O *D sky130_fd_sc_hd__a221o_1
*CAP
1 *2596:B1 0.000165794
2 *2588:X 0.000165794
3 *2596:B1 *2467:A2 5.52238e-05
4 *2588:A1 *2596:B1 0.000149419
5 *3183:A *2596:B1 0.000118023
*RES
1 *2588:X *2596:B1 30.9036 
*END

*D_NET *624 0.00149676
*CONN
*I *2590:C1 I *D sky130_fd_sc_hd__a221o_1
*I *2589:X O *D sky130_fd_sc_hd__a22o_1
*CAP
1 *2590:C1 0.00048434
2 *2589:X 0.00048434
3 *2590:C1 *2589:A2 9.90431e-05
4 *2590:C1 *825:100 7.05497e-05
5 *2590:C1 *829:65 0
6 *2589:A1 *2590:C1 3.92757e-05
7 *2589:B2 *2590:C1 7.83659e-05
8 *2590:B2 *2590:C1 0.000186579
9 *3161:A *2590:C1 5.42698e-05
*RES
1 *2589:X *2590:C1 36.2786 
*END

*D_NET *625 0.00302371
*CONN
*I *2595:A I *D sky130_fd_sc_hd__or3_1
*I *2590:X O *D sky130_fd_sc_hd__a221o_1
*CAP
1 *2595:A 0.000950659
2 *2590:X 0.000950659
3 *2595:A *2592:B1 1.24368e-05
4 *2595:A *2936:D 0.000312215
5 *2595:A *630:20 0.000109996
6 *2595:A *825:104 6.87574e-05
7 *2595:A *852:8 2.41354e-05
8 *2595:A *914:34 9.23883e-05
9 *2590:A1 *2595:A 9.90367e-05
10 *3161:A *2595:A 5.52238e-05
11 *3178:A *2595:A 0.000305933
12 *3179:A *2595:A 4.22736e-05
*RES
1 *2590:X *2595:A 45.6357 
*END

*D_NET *626 0.00110302
*CONN
*I *2592:C1 I *D sky130_fd_sc_hd__a221o_1
*I *2591:X O *D sky130_fd_sc_hd__a22o_1
*CAP
1 *2592:C1 0.00037592
2 *2591:X 0.00037592
3 *2592:C1 *2569:B1 5.71472e-05
4 *2592:C1 *2591:A2 0
5 *2592:C1 *2902:GATE_N 0
6 *2592:C1 *3030:GATE_N 0.000171375
7 *2592:C1 *818:100 0
8 *2592:A1 *2592:C1 0
9 *2592:B2 *2592:C1 0.000122657
*RES
1 *2591:X *2592:C1 34.6357 
*END

*D_NET *627 0.000230973
*CONN
*I *2595:B I *D sky130_fd_sc_hd__or3_1
*I *2592:X O *D sky130_fd_sc_hd__a221o_1
*CAP
1 *2595:B 6.59684e-05
2 *2592:X 6.59684e-05
3 *3178:A *2595:B 9.90367e-05
*RES
1 *2592:X *2595:B 19.5464 
*END

*D_NET *628 0.000482824
*CONN
*I *2594:B1 I *D sky130_fd_sc_hd__a211o_1
*I *2593:X O *D sky130_fd_sc_hd__a22o_1
*CAP
1 *2594:B1 0.000110824
2 *2593:X 0.000110824
3 *2594:B1 *2572:C1 1.02504e-05
4 *2594:B1 *2592:A2 4.94362e-05
5 *2594:B1 *2982:GATE_N 5.33005e-05
6 *2594:B1 *932:85 0.000148189
*RES
1 *2593:X *2594:B1 30.0821 
*END

*D_NET *629 0.00105776
*CONN
*I *2595:C I *D sky130_fd_sc_hd__or3_1
*I *2594:X O *D sky130_fd_sc_hd__a211o_1
*CAP
1 *2595:C 0.000355678
2 *2594:X 0.000355678
3 *2595:C *2572:A2 9.60337e-06
4 *2595:C *2592:A2 0
5 *2595:C *851:28 1.92789e-05
6 *2595:C *855:71 0.000215242
7 *2595:C *855:82 0.000102277
*RES
1 *2594:X *2595:C 33.5821 
*END

*D_NET *630 0.0111859
*CONN
*I *2596:B2 I *D sky130_fd_sc_hd__o22ai_2
*I *2595:X O *D sky130_fd_sc_hd__or3_1
*CAP
1 *2596:B2 4.30972e-05
2 *2595:X 0.00208241
3 *630:20 0.00212551
4 *630:20 *2568:A2 0.000228893
5 *630:20 *2568:B1 0.000400709
6 *630:20 *2570:B1 9.87983e-06
7 *630:20 *2856:D 0.000270302
8 *630:20 *2920:D 2.59355e-05
9 *630:20 *838:61 2.14757e-05
10 *630:20 *871:57 0.00253087
11 *630:20 *894:73 9.60939e-05
12 *630:20 *904:142 4.46186e-06
13 *2467:C1 *2596:B2 0.000125243
14 *2475:B2 *630:20 0.00283785
15 *2567:A1 *630:20 6.39829e-05
16 *2568:B2 *630:20 1.40399e-05
17 *2588:A1 *2596:B2 0.000125243
18 *2588:A1 *630:20 5.94433e-06
19 *2595:A *630:20 0.000109996
20 *385:12 *630:20 6.39829e-05
*RES
1 *2595:X *630:20 47.0108 
2 *630:20 *2596:B2 19.9429 
*END

*D_NET *631 0.00758882
*CONN
*I *2653:B I *D sky130_fd_sc_hd__nor2_1
*I *2597:B I *D sky130_fd_sc_hd__nor2_1
*I *2596:Y O *D sky130_fd_sc_hd__o22ai_2
*CAP
1 *2653:B 5.58248e-05
2 *2597:B 0.000148669
3 *2596:Y 0.00101509
4 *631:38 0.000978005
5 *631:28 0.0017886
6 *2597:B *2597:A 7.82542e-06
7 *2597:B *2653:A 2.82057e-05
8 *2597:B *3326:A 0.000169639
9 *2597:B *877:86 0.000167917
10 *2597:B *877:130 5.83304e-05
11 *2597:B *884:59 0.000104695
12 *2653:B *2653:A 9.35228e-06
13 *2653:B *2814:GATE_N 1.92905e-05
14 *2653:B *3341:A 8.46829e-05
15 *631:28 *2489:B1 0.000147262
16 *631:28 *2587:A2 5.52302e-05
17 *631:28 *2596:A2 0.000135933
18 *631:28 *882:28 4.98872e-05
19 *631:28 *930:66 1.02821e-05
20 *631:38 *2814:GATE_N 0
21 *631:38 *2821:GATE_N 1.92905e-05
22 *631:38 *3341:A 0.000279682
23 *631:38 *846:28 0.000714135
24 PWDATA[0] *2653:B 8.25843e-06
25 PWDATA[0] *631:38 0.000588092
26 *2475:A1 *631:28 5.52302e-05
27 *2475:B1 *631:28 1.35455e-05
28 *2574:A1 *631:28 0.000262682
29 *2574:B2 *631:28 0
30 *2651:B *631:28 0.000377148
31 *2815:D *631:28 2.34136e-05
32 *2821:D *631:28 0
33 *2824:GATE_N *2597:B 0
34 *521:26 *631:28 0.000212623
*RES
1 *2596:Y *631:28 45.05 
2 *631:28 *631:38 16.2143 
3 *631:38 *2597:B 22.9964 
4 *631:38 *2653:B 10.675 
*END

*D_NET *632 0.00206675
*CONN
*I *2599:C1 I *D sky130_fd_sc_hd__a221o_1
*I *2598:X O *D sky130_fd_sc_hd__a22o_1
*CAP
1 *2599:C1 0.000390255
2 *2598:X 0.000390255
3 *2599:C1 *882:20 5.52302e-05
4 *2599:C1 *883:57 0
5 *2599:C1 *909:116 0.000669276
6 *2599:C1 *914:117 2.67758e-05
7 *2599:A1 *2599:C1 0.000476699
8 *2599:B2 *2599:C1 5.82594e-05
9 *3171:A *2599:C1 0
*RES
1 *2598:X *2599:C1 39.1 
*END

*D_NET *633 0.0010262
*CONN
*I *2607:B1 I *D sky130_fd_sc_hd__o22ai_2
*I *2599:X O *D sky130_fd_sc_hd__a221o_1
*CAP
1 *2607:B1 0.000185491
2 *2599:X 0.000185491
3 *2607:B1 *2607:A2 0.000109833
4 *2607:B1 *661:12 0.000344829
5 *2607:B1 *883:57 0.000149543
6 *2599:A1 *2607:B1 5.10122e-05
*RES
1 *2599:X *2607:B1 32.9571 
*END

*D_NET *634 0.000629278
*CONN
*I *2601:C1 I *D sky130_fd_sc_hd__a221o_1
*I *2600:X O *D sky130_fd_sc_hd__a22o_1
*CAP
1 *2601:C1 9.46391e-05
2 *2600:X 9.46391e-05
3 *2601:C1 *2606:A 1.39841e-05
4 *2601:C1 *2921:GATE_N 9.90367e-05
5 *2601:C1 *829:32 7.83366e-05
6 *2601:C1 *850:65 0.000150625
7 *2601:A1 *2601:C1 9.80173e-05
*RES
1 *2600:X *2601:C1 30.9036 
*END

*D_NET *635 0.00545002
*CONN
*I *2606:A I *D sky130_fd_sc_hd__or3_1
*I *2601:X O *D sky130_fd_sc_hd__a221o_1
*CAP
1 *2606:A 0.00230791
2 *2601:X 0.00230791
3 *2606:A *2601:A2 8.71761e-06
4 *2606:A *2625:A2 0.000156445
5 *2606:A *2628:B 3.23275e-05
6 *2606:A *2921:GATE_N 8.54142e-05
7 *2606:A *3158:A 5.23057e-05
8 *2606:A *833:101 6.26995e-05
9 *2606:A *833:119 7.90523e-05
10 *2606:A *850:65 8.5229e-05
11 *2601:A1 *2606:A 0.000149489
12 *2601:C1 *2606:A 1.39841e-05
13 *2605:A1 *2606:A 0
14 *2626:A1 *2606:A 5.33005e-05
15 *492:34 *2606:A 5.52302e-05
*RES
1 *2601:X *2606:A 47.3857 
*END

*D_NET *636 0.00081148
*CONN
*I *2603:C1 I *D sky130_fd_sc_hd__a221o_1
*I *2602:X O *D sky130_fd_sc_hd__a22o_1
*CAP
1 *2603:C1 0.000268769
2 *2602:X 0.000268769
3 *2603:C1 *904:44 0.000174854
4 *2603:C1 *922:32 0
5 *2603:A1 *2603:C1 5.33786e-05
6 *2603:B2 *2603:C1 4.57094e-05
*RES
1 *2602:X *2603:C1 33.35 
*END

*D_NET *637 0.00239011
*CONN
*I *2606:B I *D sky130_fd_sc_hd__or3_1
*I *2603:X O *D sky130_fd_sc_hd__a221o_1
*CAP
1 *2606:B 0.000895944
2 *2603:X 0.000895944
3 *2606:B *2580:B1 4.87854e-05
4 *2606:B *2603:A2 7.83659e-05
5 *2606:B *2605:C1 1.39841e-05
6 *2606:B *2606:C 1.92789e-05
7 *2606:B *3033:D 1.92905e-05
8 *2606:B *3033:GATE_N 3.67257e-05
9 *2606:B *833:119 3.61629e-06
10 *2606:B *898:16 1.58163e-05
11 *2606:B *898:22 0.000139792
12 *2606:B *922:32 8.00806e-05
13 *2605:A1 *2606:B 0.000142482
*RES
1 *2603:X *2606:B 39.4393 
*END

*D_NET *638 0.00061323
*CONN
*I *2605:B1 I *D sky130_fd_sc_hd__a211o_1
*I *2604:X O *D sky130_fd_sc_hd__a22o_1
*CAP
1 *2605:B1 0.000158282
2 *2604:X 0.000158282
3 *2605:B1 *2625:A2 9.90431e-05
4 *2605:B1 *2907:GATE_N 0.000148196
5 *2605:B1 *818:74 4.94268e-05
*RES
1 *2604:X *2605:B1 30.4929 
*END

*D_NET *639 8.42129e-05
*CONN
*I *2606:C I *D sky130_fd_sc_hd__or3_1
*I *2605:X O *D sky130_fd_sc_hd__a211o_1
*CAP
1 *2606:C 1.80162e-05
2 *2605:X 1.80162e-05
3 *2606:C *833:119 2.89016e-05
4 *2606:B *2606:C 1.92789e-05
*RES
1 *2605:X *2606:C 19.1357 
*END

*D_NET *640 0.0136785
*CONN
*I *2607:B2 I *D sky130_fd_sc_hd__o22ai_2
*I *2606:X O *D sky130_fd_sc_hd__or3_1
*CAP
1 *2607:B2 0.00637847
2 *2606:X 0.00637847
3 *2607:B2 *2562:A2 2.06112e-05
4 *2607:B2 *2599:B1 0
5 *2607:B2 *2629:B2 0.000679379
6 *2607:B2 *2971:GATE_N 0.000157501
7 *2607:B2 *3003:D 3.32543e-05
8 *2607:B2 *3093:GATE_N 0
9 *2607:B2 *889:28 0
10 *2607:B2 *906:12 0
11 *2607:B2 *996:26 3.08606e-05
12 *620:18 *2607:B2 0
*RES
1 *2606:X *2607:B2 48.8465 
*END

*D_NET *641 0.00543821
*CONN
*I *2608:B I *D sky130_fd_sc_hd__nor2_1
*I *2654:B I *D sky130_fd_sc_hd__nor2_1
*I *2607:Y O *D sky130_fd_sc_hd__o22ai_2
*CAP
1 *2608:B 5.27581e-05
2 *2654:B 0.000715714
3 *2607:Y 0.000396675
4 *641:8 0.00116515
5 *2654:B *2489:A2 0.000571155
6 *2654:B *2670:A1 7.83659e-05
7 *2654:B *2670:S 0
8 *2654:B *2808:GATE_N 9.77414e-05
9 *2654:B *877:96 8.82434e-05
10 *2654:B *884:53 7.6588e-05
11 *2654:B *886:70 0.000280308
12 *641:8 *2489:A2 0.000218671
13 *641:8 *2562:A2 9.24395e-05
14 *641:8 *2656:A 0.000127446
15 *641:8 *2656:B 5.48106e-05
16 *641:8 *2670:S 0
17 *641:8 *661:12 5.01876e-06
18 PWDATA[5] *2654:B 0.000197977
19 *2497:B1 *2654:B 5.01117e-05
20 *2649:B *2654:B 0
21 *2652:B *2654:B 0.000227021
22 *2813:D *2654:B 0.000345378
23 *2814:D *2654:B 0.000130912
24 *2834:D *2608:B 3.69047e-06
25 *3159:A *641:8 0
26 *426:10 *2654:B 0
27 *551:12 *2608:B 1.98839e-05
28 *621:14 *2608:B 5.33005e-05
29 *621:14 *2654:B 0.000357139
30 *621:14 *641:8 3.17148e-05
*RES
1 *2607:Y *641:8 23.3357 
2 *641:8 *2654:B 37.0143 
3 *641:8 *2608:B 14.7464 
*END

*D_NET *642 0.00256421
*CONN
*I *2610:C1 I *D sky130_fd_sc_hd__a221o_1
*I *2609:X O *D sky130_fd_sc_hd__a22o_1
*CAP
1 *2610:C1 0.000519041
2 *2609:X 0.000519041
3 *2610:C1 *2609:B1 5.33005e-05
4 *2610:C1 *841:12 0
5 *2610:C1 *897:109 3.34687e-05
6 *2610:C1 *912:23 0.000467215
7 *2510:A1 *2610:C1 0.00010219
8 *2510:B2 *2610:C1 0
9 *3136:A *2610:C1 0.000479652
10 *3149:A *2610:C1 0.000145753
11 *439:30 *2610:C1 0
12 *491:10 *2610:C1 4.43256e-05
13 *498:18 *2610:C1 0.000163475
14 *565:20 *2610:C1 3.67452e-05
*RES
1 *2609:X *2610:C1 40.7786 
*END

*D_NET *643 0.00247173
*CONN
*I *2618:B1 I *D sky130_fd_sc_hd__o22ai_2
*I *2610:X O *D sky130_fd_sc_hd__a221o_1
*CAP
1 *2618:B1 0.00101986
2 *2610:X 0.00101986
3 *2618:B1 *2618:B2 7.89087e-05
4 *2618:B1 *839:27 2.95726e-05
5 *2618:B1 *839:31 0.000181762
6 *2610:B2 *2618:B1 9.10623e-05
7 *2618:A1 *2618:B1 5.06983e-05
*RES
1 *2610:X *2618:B1 31.7964 
*END

*D_NET *644 0.0013712
*CONN
*I *2617:A I *D sky130_fd_sc_hd__or3_1
*I *2611:X O *D sky130_fd_sc_hd__a22o_1
*CAP
1 *2617:A 0.000289072
2 *2611:X 0.000289072
3 *2617:A *2618:B2 1.24368e-05
4 *2617:A *2881:GATE_N 2.21972e-05
5 *2617:A *2890:D 3.32442e-05
6 *2617:A *847:29 7.22508e-05
7 *2617:A *847:33 7.84862e-05
8 *2617:A *878:25 6.71336e-05
9 *2617:A *897:10 0.000310041
10 *2617:A *897:59 0.000197269
*RES
1 *2611:X *2617:A 35.0464 
*END

*D_NET *645 0.00124301
*CONN
*I *2614:B1 I *D sky130_fd_sc_hd__a211o_1
*I *2612:X O *D sky130_fd_sc_hd__a22o_1
*CAP
1 *2614:B1 0.000369528
2 *2612:X 0.000369528
3 *2614:B1 *2411:A 0
4 *2614:B1 *2411:C 0.00012401
5 *2614:B1 *2427:D 0
6 *2614:B1 *837:39 7.83587e-05
7 *2614:B1 *899:8 4.89264e-05
8 *2614:B1 *899:74 2.72449e-05
9 *2614:B1 *933:101 3.34295e-05
10 *2614:B1 *940:16 0
11 *2614:B1 *940:29 0
12 *3208:A *2614:B1 6.79722e-05
13 *496:14 *2614:B1 0.00012401
*RES
1 *2612:X *2614:B1 34.9393 
*END

*D_NET *646 0.00114583
*CONN
*I *2614:C1 I *D sky130_fd_sc_hd__a211o_1
*I *2613:X O *D sky130_fd_sc_hd__a221o_1
*CAP
1 *2614:C1 0.000306835
2 *2613:X 0.000306835
3 *2614:C1 *889:10 0
4 *2614:C1 *903:8 2.42516e-05
5 *2614:C1 *903:14 0.000134167
6 *2614:C1 *933:101 5.03772e-05
7 *2614:C1 *940:16 6.05161e-06
8 *3196:A *2614:C1 0
9 *493:12 *2614:C1 2.40261e-05
10 *495:8 *2614:C1 0.000269296
11 *500:10 *2614:C1 0
12 *565:20 *2614:C1 2.39923e-05
*RES
1 *2613:X *2614:C1 34.3857 
*END

*D_NET *647 0.00613859
*CONN
*I *2617:B I *D sky130_fd_sc_hd__or3_1
*I *2614:X O *D sky130_fd_sc_hd__a211o_1
*CAP
1 *2617:B 0
2 *2614:X 0.00135178
3 *647:20 0.00135178
4 *647:20 *2423:A_N 7.90803e-05
5 *647:20 *2615:B1 1.05524e-05
6 *647:20 *825:12 8.96017e-05
7 *647:20 *918:12 8.96017e-05
8 *647:20 *940:8 0.00019242
9 *647:20 *940:10 0.000389587
10 *647:20 *940:16 7.48091e-05
11 *2530:B2 *647:20 0.00114096
12 *3150:A *647:20 0
13 *499:8 *647:20 0.000224301
14 *565:20 *647:20 0.00114412
*RES
1 *2614:X *647:20 42.7901 
2 *647:20 *2617:B 9.3 
*END

*D_NET *648 0.00021321
*CONN
*I *2616:C1 I *D sky130_fd_sc_hd__a221o_1
*I *2615:X O *D sky130_fd_sc_hd__a22o_1
*CAP
1 *2616:C1 7.84552e-05
2 *2615:X 7.84552e-05
3 *2616:C1 *921:16 5.62995e-05
*RES
1 *2615:X *2616:C1 20.2786 
*END

*D_NET *649 0.000617502
*CONN
*I *2617:C I *D sky130_fd_sc_hd__or3_1
*I *2616:X O *D sky130_fd_sc_hd__a221o_1
*CAP
1 *2617:C 0.000167886
2 *2616:X 0.000167886
3 *2617:C *910:8 0.000182694
4 *2617:C *927:22 9.90367e-05
*RES
1 *2616:X *2617:C 21.9214 
*END

*D_NET *650 0.000558938
*CONN
*I *2618:B2 I *D sky130_fd_sc_hd__o22ai_2
*I *2617:X O *D sky130_fd_sc_hd__or3_1
*CAP
1 *2618:B2 0.000233797
2 *2617:X 0.000233797
3 *2617:A *2618:B2 1.24368e-05
4 *2618:B1 *2618:B2 7.89087e-05
*RES
1 *2617:X *2618:B2 22.4571 
*END

*D_NET *651 0.010298
*CONN
*I *2655:B I *D sky130_fd_sc_hd__nor2_1
*I *2619:B I *D sky130_fd_sc_hd__nor2_1
*I *2618:Y O *D sky130_fd_sc_hd__o22ai_2
*CAP
1 *2655:B 0.00013331
2 *2619:B 0.000726465
3 *2618:Y 0.00149244
4 *651:22 0.00154472
5 *651:14 0.00217738
6 *2619:B *2522:A2 1.99881e-05
7 *2619:B *2523:B1 0.000144773
8 *2619:B *2647:A 3.14163e-05
9 *2619:B *2677:S 0.000186662
10 *2619:B *794:14 0.00017309
11 *2619:B *813:30 8.91534e-05
12 *2619:B *883:53 6.87834e-06
13 *2619:B *931:81 0.000313241
14 *2655:B *2522:A2 6.44449e-05
15 *2655:B *2655:A 0
16 *2655:B *887:86 0
17 *651:14 *2486:A2 3.39451e-05
18 *651:14 *2643:A 0
19 *651:14 *2807:GATE_N 4.80298e-05
20 *651:14 *2946:D 3.14048e-05
21 *651:14 *812:59 1.01912e-05
22 *651:14 *841:12 2.27416e-05
23 *651:14 *897:84 7.71991e-05
24 *651:14 *931:16 0.000113524
25 *651:22 *830:16 9.02331e-05
26 *651:22 *878:50 0.000334517
27 *651:22 *878:73 3.07455e-05
28 *651:22 *887:22 1.5424e-05
29 *651:22 *911:10 0.000309266
30 *651:22 *931:81 0.000751363
31 *2487:A *2619:B 0
32 *2524:B2 *651:22 8.87093e-05
33 *2531:B *2619:B 0
34 *2609:B2 *651:14 7.55769e-05
35 *2647:B *2619:B 0.000219818
36 *2819:D *2655:B 0.000123295
37 *2819:D *651:22 1.92789e-05
38 *3141:A *651:22 5.52238e-05
39 *3151:A *651:14 0.000232547
40 *3173:A *2619:B 5.26184e-05
41 *3193:A *2655:B 0
42 *3213:A *651:14 0.00017655
43 *3213:A *651:22 0.000140393
44 *561:20 *2619:B 1.57523e-05
45 *561:28 *2619:B 0.000125684
*RES
1 *2618:Y *651:14 39.1393 
2 *651:14 *651:22 21.9107 
3 *651:22 *2619:B 40.1571 
4 *651:22 *2655:B 16.9607 
*END

*D_NET *652 0.0014231
*CONN
*I *2621:C1 I *D sky130_fd_sc_hd__a221o_1
*I *2620:X O *D sky130_fd_sc_hd__a22o_1
*CAP
1 *2621:C1 0.000293286
2 *2620:X 0.000293286
3 *2621:C1 *2620:A2 0.000170291
4 *2621:C1 *2859:D 0.000120708
5 *2621:C1 *811:18 0.000324878
6 *2621:C1 *838:14 1.74766e-05
7 *2621:C1 *853:133 4.87854e-05
8 *2621:C1 *889:94 9.41642e-05
9 *2621:C1 *914:97 6.02288e-05
*RES
1 *2620:X *2621:C1 35.0464 
*END

*D_NET *653 0.00113695
*CONN
*I *2629:B1 I *D sky130_fd_sc_hd__o22ai_2
*I *2621:X O *D sky130_fd_sc_hd__a221o_1
*CAP
1 *2629:B1 0.000248968
2 *2621:X 0.000248968
3 *2629:B1 *2939:D 0.000223032
4 *2629:B1 *2939:GATE_N 2.59355e-05
5 *2629:B1 *2948:GATE_N 7.40526e-05
6 *2629:B1 *2951:GATE_N 4.34069e-05
7 *2629:B1 *805:20 7.02611e-05
8 *2629:B1 *806:60 0.000112287
9 *2629:B1 *825:45 3.28967e-05
10 *2621:A1 *2629:B1 5.71472e-05
*RES
1 *2621:X *2629:B1 33.8679 
*END

*D_NET *654 0.000770899
*CONN
*I *2623:C1 I *D sky130_fd_sc_hd__a221o_1
*I *2622:X O *D sky130_fd_sc_hd__a22o_1
*CAP
1 *2623:C1 0.000224669
2 *2622:X 0.000224669
3 *2623:C1 *2622:A2 3.14078e-05
4 *2623:C1 *2622:B1 0
5 *2623:C1 *809:165 3.90513e-05
6 *2623:C1 *909:27 0.000150142
7 *2622:A1 *2623:C1 0
8 *492:34 *2623:C1 0.00010096
*RES
1 *2622:X *2623:C1 32.225 
*END

*D_NET *655 0.00461759
*CONN
*I *2628:A I *D sky130_fd_sc_hd__or3_1
*I *2623:X O *D sky130_fd_sc_hd__a221o_1
*CAP
1 *2628:A 0
2 *2623:X 0.000696833
3 *655:16 0.000696833
4 *655:16 *2623:A2 4.91935e-05
5 *655:16 *2953:GATE_N 0.000310041
6 *655:16 *2971:GATE_N 6.09762e-05
7 *655:16 *3083:GATE_N 0.000129913
8 *655:16 *825:73 7.81878e-05
9 *655:16 *844:95 0.00207342
10 *655:16 *845:19 0.000446597
11 *655:16 *854:40 3.40043e-05
12 *655:16 *916:23 0
13 *2623:B2 *655:16 4.15914e-05
*RES
1 *2623:X *655:16 42.5857 
2 *655:16 *2628:A 9.3 
*END

*D_NET *656 0.000620008
*CONN
*I *2625:C1 I *D sky130_fd_sc_hd__a221o_1
*I *2624:X O *D sky130_fd_sc_hd__a22o_1
*CAP
1 *2625:C1 8.62564e-05
2 *2624:X 8.62564e-05
3 *2625:C1 *2625:A2 9.41642e-05
4 *2625:C1 *833:101 0.00020342
5 *2625:C1 *889:28 0.000149911
*RES
1 *2624:X *2625:C1 30.4929 
*END

*D_NET *657 0.00112918
*CONN
*I *2628:B I *D sky130_fd_sc_hd__or3_1
*I *2625:X O *D sky130_fd_sc_hd__a221o_1
*CAP
1 *2628:B 0.000416171
2 *2625:X 0.000416171
3 *2628:B *844:95 0
4 *2628:B *849:10 0
5 *2628:B *920:23 0.000264514
6 *2606:A *2628:B 3.23275e-05
*RES
1 *2625:X *2628:B 34.0643 
*END

*D_NET *658 0.000434299
*CONN
*I *2627:B1 I *D sky130_fd_sc_hd__a211o_1
*I *2626:X O *D sky130_fd_sc_hd__a22o_1
*CAP
1 *2627:B1 9.57126e-05
2 *2626:X 9.57126e-05
3 *2627:B1 *2625:B1 0.000125731
4 *2627:B1 *853:31 5.52238e-05
5 *2626:A1 *2627:B1 6.19181e-05
*RES
1 *2626:X *2627:B1 29.7786 
*END

*D_NET *659 0.000423329
*CONN
*I *2628:C I *D sky130_fd_sc_hd__or3_1
*I *2627:X O *D sky130_fd_sc_hd__a211o_1
*CAP
1 *2628:C 0.000211664
2 *2627:X 0.000211664
*RES
1 *2627:X *2628:C 21.6 
*END

*D_NET *660 0.0082707
*CONN
*I *2629:B2 I *D sky130_fd_sc_hd__o22ai_2
*I *2628:X O *D sky130_fd_sc_hd__or3_1
*CAP
1 *2629:B2 0.00249003
2 *2628:X 0.00249003
3 *2629:B2 *2579:B1 0.000126126
4 *2629:B2 *2599:B1 0.000558575
5 *2629:B2 *2971:GATE_N 0.000583547
6 *2629:B2 *3063:GATE_N 8.3116e-05
7 *2629:B2 *844:95 4.50033e-05
8 *2629:B2 *854:40 7.247e-05
9 *2629:B2 *854:44 2.06178e-05
10 *2629:B2 *882:20 0
11 *2629:B2 *889:28 0.00017975
12 *2629:B2 *891:34 0.000235681
13 *2629:B2 *920:23 0
14 *2607:B2 *2629:B2 0.000679379
15 *620:18 *2629:B2 0.000706378
*RES
1 *2628:X *2629:B2 44.6864 
*END

*D_NET *661 0.0057286
*CONN
*I *2630:B I *D sky130_fd_sc_hd__nor2_1
*I *2656:B I *D sky130_fd_sc_hd__nor2_1
*I *2629:Y O *D sky130_fd_sc_hd__o22ai_2
*CAP
1 *2630:B 0.00016903
2 *2656:B 0.000136864
3 *2629:Y 0.000859899
4 *661:12 0.00116579
5 *2630:B *2509:A 4.1896e-06
6 *2630:B *2607:A2 3.36025e-05
7 *2630:B *1024:18 2.21972e-05
8 *2656:B *2489:A2 0.000195555
9 *2656:B *886:23 0.000125724
10 *2656:B *1024:18 0.000107119
11 *661:12 *2562:A2 0
12 *661:12 *2607:A2 0.000124642
13 *661:12 *2629:A2 0.000150912
14 *661:12 *2857:D 0.000646966
15 *661:12 *2939:GATE_N 0
16 *661:12 *2969:GATE_N 9.60939e-05
17 *661:12 *805:20 0.000906907
18 *661:12 *850:22 5.71472e-05
19 *661:12 *930:16 2.07491e-05
20 *661:12 *1024:18 2.96842e-05
21 *2509:B *2630:B 8.83643e-06
22 *2598:A1 *661:12 9.90431e-05
23 *2607:A1 *2630:B 9.30251e-06
24 *2607:A1 *661:12 0.000353683
25 *2607:B1 *661:12 0.000344829
26 *641:8 *2656:B 5.48106e-05
27 *641:8 *661:12 5.01876e-06
*RES
1 *2629:Y *661:12 36.0768 
2 *661:12 *2656:B 18.3268 
3 *661:12 *2630:B 16.8268 
*END

*D_NET *662 0.00127928
*CONN
*I *2632:C1 I *D sky130_fd_sc_hd__a221o_1
*I *2631:X O *D sky130_fd_sc_hd__a22o_1
*CAP
1 *2632:C1 0.000455579
2 *2631:X 0.000455579
3 *2632:C1 *2631:B1 8.76045e-05
4 *2632:C1 *2634:A2 1.59935e-05
5 *2632:C1 *2634:B1 7.43578e-06
6 *2632:C1 *891:18 0.000119174
7 *2632:B2 *2632:C1 1.8791e-05
8 *2634:A1 *2632:C1 7.40526e-05
9 *3120:A *2632:C1 6.05161e-06
10 *598:26 *2632:C1 3.90148e-05
*RES
1 *2631:X *2632:C1 33.8857 
*END

*D_NET *663 0.00264366
*CONN
*I *2640:B1 I *D sky130_fd_sc_hd__o22ai_2
*I *2632:X O *D sky130_fd_sc_hd__a221o_1
*CAP
1 *2640:B1 0.000690653
2 *2632:X 0.000690653
3 *2640:B1 *3059:GATE_N 0.000129898
4 *2640:B1 *3065:GATE_N 3.88614e-05
5 *2640:B1 *822:22 0.000144896
6 *2640:B1 *859:30 1.71872e-05
7 *2640:B1 *859:103 4.45768e-06
8 *2640:B1 *863:31 8.2018e-05
9 *2561:B2 *2640:B1 0.00015234
10 *3118:A *2640:B1 0.000291064
11 *3167:A *2640:B1 1.90303e-05
12 *3225:A *2640:B1 0.000324426
13 *448:45 *2640:B1 5.8181e-05
*RES
1 *2632:X *2640:B1 42.1714 
*END

*D_NET *664 0.00158967
*CONN
*I *2634:C1 I *D sky130_fd_sc_hd__a221o_1
*I *2633:X O *D sky130_fd_sc_hd__a22o_1
*CAP
1 *2634:C1 0.000355733
2 *2633:X 0.000355733
3 *2634:C1 *2631:B1 9.41642e-05
4 *2634:C1 *3068:D 0.000225616
5 *2634:C1 *3068:GATE_N 2.26973e-05
6 *2634:C1 *806:39 0.000154576
7 *2634:C1 *806:60 2.70177e-05
8 *2634:C1 *826:16 0.00017177
9 *2633:A1 *2634:C1 5.80706e-06
10 *2634:B2 *2634:C1 5.33005e-05
11 *598:26 *2634:C1 0.000123259
*RES
1 *2633:X *2634:C1 36.2786 
*END

*D_NET *665 0.00885049
*CONN
*I *2639:A I *D sky130_fd_sc_hd__or3_1
*I *2634:X O *D sky130_fd_sc_hd__a221o_1
*CAP
1 *2639:A 0.00264092
2 *2634:X 0.00264092
3 *2639:A *2633:A2 2.33863e-05
4 *2639:A *2639:B 2.06112e-05
5 *2639:A *2639:C 1.21859e-05
6 *2639:A *2640:B2 0.00104188
7 *2639:A *842:10 6.90348e-06
8 *2639:A *842:50 0.000983131
9 *2639:A *858:40 0.000395345
10 *2555:C1 *2639:A 0.000479912
11 *2632:A1 *2639:A 0.000292006
12 *2632:B2 *2639:A 0.000260002
13 *3225:A *2639:A 0
14 *598:26 *2639:A 5.33005e-05
*RES
1 *2634:X *2639:A 46.1175 
*END

*D_NET *666 0.000534488
*CONN
*I *2636:C1 I *D sky130_fd_sc_hd__a221o_1
*I *2635:X O *D sky130_fd_sc_hd__a22o_1
*CAP
1 *2636:C1 0.000188751
2 *2635:X 0.000188751
3 *2636:C1 *3043:GATE_N 0
4 *2636:C1 *805:84 0.000125724
5 *2636:C1 *837:85 1.36589e-05
6 *2636:A1 *2636:C1 1.76039e-05
*RES
1 *2635:X *2636:C1 30.6 
*END

*D_NET *667 0.00112741
*CONN
*I *2639:B I *D sky130_fd_sc_hd__or3_1
*I *2636:X O *D sky130_fd_sc_hd__a221o_1
*CAP
1 *2639:B 0.000310347
2 *2636:X 0.000310347
3 *2639:B *2636:A2 9.25014e-06
4 *2639:B *2636:B1 0
5 *2639:B *2638:A2 0.000216956
6 *2639:B *2638:B1 0
7 *2639:B *2639:C 3.40729e-05
8 *2639:B *2640:B2 9.25014e-06
9 *2639:B *3043:GATE_N 6.22145e-05
10 *2639:B *862:30 0.000154366
11 *2636:A1 *2639:B 0
12 *2636:B2 *2639:B 0
13 *2639:A *2639:B 2.06112e-05
*RES
1 *2636:X *2639:B 34.7607 
*END

*D_NET *668 0.00123463
*CONN
*I *2638:B1 I *D sky130_fd_sc_hd__a211o_1
*I *2637:X O *D sky130_fd_sc_hd__a22o_1
*CAP
1 *2638:B1 0.000312877
2 *2637:X 0.000312877
3 *2638:B1 *2639:C 0
4 *2638:B1 *2640:B2 0
5 *2638:B1 *805:84 0.000310608
6 *2638:B1 *849:43 0.000226513
7 *2638:B1 *920:177 9.25014e-06
8 *2636:A1 *2638:B1 6.25007e-05
9 *2639:B *2638:B1 0
*RES
1 *2637:X *2638:B1 33.85 
*END

*D_NET *669 0.000339412
*CONN
*I *2639:C I *D sky130_fd_sc_hd__or3_1
*I *2638:X O *D sky130_fd_sc_hd__a211o_1
*CAP
1 *2639:C 0.000112478
2 *2638:X 0.000112478
3 *2639:C *2638:A2 2.89114e-05
4 *2636:A1 *2639:C 3.92854e-05
5 *2638:B1 *2639:C 0
6 *2639:A *2639:C 1.21859e-05
7 *2639:B *2639:C 3.40729e-05
*RES
1 *2638:X *2639:C 29.7786 
*END

*D_NET *670 0.00852891
*CONN
*I *2640:B2 I *D sky130_fd_sc_hd__o22ai_2
*I *2639:X O *D sky130_fd_sc_hd__or3_1
*CAP
1 *2640:B2 0.00337392
2 *2639:X 0.00337392
3 *2640:B2 *3093:GATE_N 0.00033948
4 *2640:B2 *671:8 3.39401e-05
5 *2640:B2 *849:43 4.64488e-06
6 *2640:B2 *858:40 0.000123373
7 *2640:B2 *920:177 0
8 *2640:B2 *930:10 2.95076e-06
9 *2555:C1 *2640:B2 0.000180557
10 *2638:B1 *2640:B2 0
11 *2639:A *2640:B2 0.00104188
12 *2639:B *2640:B2 9.25014e-06
13 *3118:A *2640:B2 4.50033e-05
14 *3215:A *2640:B2 0
*RES
1 *2639:X *2640:B2 44.4658 
*END

*D_NET *671 0.00801836
*CONN
*I *2641:B I *D sky130_fd_sc_hd__nor2_1
*I *2657:B I *D sky130_fd_sc_hd__nor2_1
*I *2640:Y O *D sky130_fd_sc_hd__o22ai_2
*CAP
1 *2641:B 0.00098305
2 *2657:B 0.000962296
3 *2640:Y 0.000456777
4 *671:8 0.00240212
5 *2641:B *2577:A2 1.46576e-05
6 *2641:B *2577:B1 1.12374e-05
7 *2641:B *838:31 2.40379e-05
8 *2657:B *2489:B1 0.00014285
9 *2657:B *827:160 0.000443635
10 *2657:B *838:35 7.6021e-05
11 *2657:B *838:37 0.00018665
12 *2657:B *838:39 0.000488709
13 *2657:B *838:51 9.34052e-05
14 *2657:B *838:123 4.7312e-05
15 *2657:B *886:84 2.04825e-05
16 *2657:B *886:90 0.000144773
17 *2657:B *930:31 0
18 *671:8 *805:8 0.000144512
19 *671:8 *805:20 0.000125731
20 *671:8 *822:30 0
21 *671:8 *838:123 9.14638e-05
22 *671:8 *850:22 5.40543e-05
23 *671:8 *850:36 8.40012e-05
24 *671:8 *930:10 1.41029e-05
25 *671:8 *930:14 0.000183943
26 *671:8 *930:31 0
27 *2544:C1 *2657:B 0.000145154
28 *2574:B1 *2657:B 0.00047632
29 *2574:B2 *2657:B 0
30 *2577:B2 *2641:B 6.01627e-05
31 *2585:B1 *2641:B 2.10757e-05
32 *2640:B2 *671:8 3.39401e-05
33 *2837:D *2641:B 2.51343e-06
34 *3118:A *671:8 8.33751e-05
*RES
1 *2640:Y *671:8 25.7643 
2 *671:8 *2657:B 40.5321 
3 *671:8 *2641:B 28.1929 
*END

*D_NET *672 0.0142107
*CONN
*I *2686:B1 I *D sky130_fd_sc_hd__o31a_4
*I *2688:A I *D sky130_fd_sc_hd__and2_1
*I *2703:C I *D sky130_fd_sc_hd__or3_1
*I *2698:A2 I *D sky130_fd_sc_hd__o22ai_1
*I *2681:A1 I *D sky130_fd_sc_hd__mux2_1
*I *2780:B I *D sky130_fd_sc_hd__and2b_1
*I *2777:A2 I *D sky130_fd_sc_hd__a31o_1
*I *2680:X O *D sky130_fd_sc_hd__or4_4
*CAP
1 *2686:B1 0.000101273
2 *2688:A 0.000291262
3 *2703:C 0
4 *2698:A2 0
5 *2681:A1 8.97131e-05
6 *2780:B 0.000256037
7 *2777:A2 4.55576e-05
8 *2680:X 2.62177e-05
9 *672:103 0.000756479
10 *672:65 0.00124321
11 *672:49 0.000964761
12 *672:34 0.000386452
13 *672:26 0.00120193
14 *672:8 0.0013185
15 *2681:A1 *2457:A 4.60232e-06
16 *2681:A1 *771:14 5.52238e-05
17 *2681:A1 *878:25 0.000123847
18 *2686:B1 *2686:A3 7.91265e-05
19 *2686:B1 *885:8 1.34548e-05
20 *2688:A *2687:A 5.33005e-05
21 *2688:A *2687:B 1.55885e-05
22 *2688:A *2710:D_N 0.000272371
23 *2688:A *3241:A 5.33882e-05
24 *2688:A *677:8 6.42095e-05
25 *2688:A *950:116 7.6644e-05
26 *2777:A2 *2777:A1 2.51343e-06
27 *2777:A2 *885:50 7.06093e-05
28 *2780:B *2693:A 9.41642e-05
29 *2780:B *883:127 0.00061595
30 *672:8 *2694:B 1.28259e-05
31 *672:8 *2764:A1 0
32 *672:8 *949:19 6.95627e-05
33 *672:26 *2395:A 2.14757e-05
34 *672:26 *2694:B 7.47622e-05
35 *672:26 *2703:A 0.000229456
36 *672:26 *2709:C 0.000134526
37 *672:26 *2718:A1 1.28809e-05
38 *672:26 *2718:B1 0.000106853
39 *672:26 *2743:C1 2.28499e-05
40 *672:26 *2764:A4 0.000113789
41 *672:26 *3115:A 0.000454672
42 *672:26 *676:12 8.40933e-05
43 *672:26 *676:16 0.000441269
44 *672:26 *868:33 0.000532299
45 *672:26 *949:19 0.000173357
46 *672:26 *949:43 5.41794e-05
47 *672:26 *1031:35 2.70944e-05
48 *672:26 *1031:41 7.95065e-05
49 *672:34 *2704:C1 0
50 *672:34 *2777:A1 1.00073e-05
51 *672:34 *2777:B1 0.00067213
52 *672:34 *679:14 0
53 *672:34 *885:50 0.000688215
54 *672:34 *950:23 6.8646e-06
55 *672:34 *1001:8 7.32215e-05
56 *672:49 *3242:A 2.41729e-05
57 *672:65 *2404:A 1.40415e-05
58 *672:65 *2693:A 4.08637e-05
59 *672:65 *2776:A3 0.000137964
60 *672:65 *2779:A 4.48583e-05
61 *672:65 *2779:D 4.46231e-06
62 *672:65 *2782:B 9.60875e-05
63 *672:65 *3242:A 0
64 *672:65 *868:73 2.86754e-05
65 *672:65 *883:127 0.000300691
66 *672:65 *929:38 0.000180777
67 *672:103 *2686:A3 0.000262228
68 *672:103 *2694:B 4.34472e-05
69 *672:103 *675:30 9.41642e-05
70 *2409:B1 *672:65 0
71 *2686:A1 *2688:A 4.44789e-05
72 *2698:A1 *672:49 9.49939e-05
73 *2701:A2 *672:65 5.20298e-05
74 *2715:A2_N *672:26 4.98524e-05
75 *2715:B2 *672:26 7.24721e-05
76 *3185:A *2681:A1 0.000146496
77 *471:14 *672:65 0.000105682
*RES
1 *2680:X *672:8 14.6839 
2 *672:8 *672:26 29.8125 
3 *672:26 *672:34 18.5536 
4 *672:34 *2777:A2 10.2643 
5 *672:34 *672:49 10.3393 
6 *672:49 *672:65 22.625 
7 *672:65 *2780:B 15.175 
8 *672:65 *2681:A1 20.7821 
9 *672:49 *2698:A2 9.3 
10 *672:26 *2703:C 9.3 
11 *672:8 *672:103 9.4375 
12 *672:103 *2688:A 25.4429 
13 *672:103 *2686:B1 10.9786 
*END

*D_NET *673 0.00174247
*CONN
*I *2731:B I *D sky130_fd_sc_hd__nand2_1
*I *2724:A1 I *D sky130_fd_sc_hd__a21oi_1
*I *2682:X O *D sky130_fd_sc_hd__or2_1
*CAP
1 *2731:B 0.000133849
2 *2724:A1 0.000214694
3 *2682:X 3.06286e-05
4 *673:8 0.000379171
5 *2724:A1 *2682:A 7.69776e-06
6 *2724:A1 *2723:B 6.60268e-05
7 *2724:A1 *2724:A2 9.76241e-06
8 *2724:A1 *2731:A 1.00893e-05
9 *2724:A1 *2732:A2 3.17148e-05
10 *2724:A1 *2733:B2 9.71197e-05
11 *2724:A1 *787:41 1.93392e-05
12 *2731:B *2723:A 2.47631e-06
13 *2731:B *2723:B 0.000144038
14 *2731:B *2731:A 5.71472e-05
15 *2731:B *2732:A2 0.000123555
16 *2731:B *2802:CLK 0.000178847
17 *2731:B *786:8 4.59075e-05
18 *2731:B *786:21 2.14658e-05
19 *673:8 *2682:A 2.14757e-05
20 *673:8 *2732:A2 5.33005e-05
21 *673:8 *706:26 9.41642e-05
*RES
1 *2682:X *673:8 14.7464 
2 *673:8 *2724:A1 17.4071 
3 *673:8 *2731:B 17.9429 
*END

*D_NET *674 0.00355614
*CONN
*I *2732:A1 I *D sky130_fd_sc_hd__a21oi_1
*I *2684:B I *D sky130_fd_sc_hd__nor2_2
*I *2735:A2 I *D sky130_fd_sc_hd__a21bo_1
*I *2683:X O *D sky130_fd_sc_hd__or3_1
*CAP
1 *2732:A1 0.000489053
2 *2684:B 0
3 *2735:A2 6.77511e-05
4 *2683:X 0.000177007
5 *674:12 0.000222114
6 *674:6 0.000820423
7 *2732:A1 *2726:A0 0.000178847
8 *2732:A1 *2732:A2 0.000125535
9 *2732:A1 *2733:B2 0.000146474
10 *2732:A1 *2733:C1 3.69047e-06
11 *2732:A1 *2734:S 0.00012401
12 *2732:A1 *788:49 2.16719e-05
13 *2732:A1 *880:20 5.47391e-05
14 *2735:A2 *675:10 7.43578e-06
15 *2735:A2 *701:44 8.86413e-05
16 *2735:A2 *772:91 0.000312215
17 *2735:A2 *965:33 2.95641e-05
18 *674:6 *2726:A0 1.24368e-05
19 *674:6 *3250:A 0.000137983
20 *674:6 *786:44 1.98839e-05
21 *674:12 *2684:A 2.09776e-05
22 *674:12 *2709:C 0
23 *674:12 *3250:A 3.57844e-05
24 *674:12 *701:44 2.4454e-05
25 *674:12 *701:59 0.000258647
26 *674:12 *786:44 0.000121573
27 *2735:A1 *2735:A2 5.52238e-05
*RES
1 *2683:X *674:6 11.4786 
2 *674:6 *674:12 13.0714 
3 *674:12 *2735:A2 12.3 
4 *674:12 *2684:B 9.3 
5 *674:6 *2732:A1 26.5857 
*END

*D_NET *675 0.008963
*CONN
*I *2764:A3 I *D sky130_fd_sc_hd__o41a_2
*I *2686:A3 I *D sky130_fd_sc_hd__o31a_4
*I *2701:A3 I *D sky130_fd_sc_hd__a31o_1
*I *2776:A3 I *D sky130_fd_sc_hd__a32o_1
*I *2684:Y O *D sky130_fd_sc_hd__nor2_2
*CAP
1 *2764:A3 1.1624e-05
2 *2686:A3 9.98559e-05
3 *2701:A3 1.1468e-05
4 *2776:A3 0.000219879
5 *2684:Y 0.000100724
6 *675:30 0.00135827
7 *675:14 0.00147317
8 *675:10 0.000358737
9 *2686:A3 *885:8 5.20751e-05
10 *2686:A3 *885:22 9.46929e-05
11 *2701:A3 *2404:A 5.33005e-05
12 *2764:A3 *676:12 5.52238e-05
13 *2764:A3 *888:10 5.52238e-05
14 *2776:A3 *2776:A1 9.41642e-05
15 *2776:A3 *2779:D 0
16 *2776:A3 *751:18 0.000158776
17 *2776:A3 *929:38 0.000129067
18 *675:10 *2709:C 0
19 *675:10 *2764:B1 0.000121573
20 *675:10 *772:91 3.14078e-05
21 *675:10 *965:33 9.90367e-05
22 *675:14 *2694:B 0.00034735
23 *675:14 *2709:C 0
24 *675:14 *2764:A1 9.65171e-05
25 *675:14 *2764:A4 9.39681e-05
26 *675:14 *2764:B1 5.41794e-05
27 *675:14 *880:20 4.038e-06
28 *675:14 *885:22 0.000303135
29 *675:30 *2404:A 3.57181e-05
30 *675:30 *2464:B 2.14757e-05
31 *675:30 *2464:D 0.000191698
32 *675:30 *2680:C 0.000139999
33 *675:30 *2694:B 9.46929e-05
34 *675:30 *2695:C 6.54619e-05
35 *675:30 *2700:A 0.000182374
36 *675:30 *2700:C_N 4.87854e-05
37 *675:30 *2704:B1 5.52302e-05
38 *675:30 *2709:A 0.000185643
39 *675:30 *2709:C 0.00038644
40 *675:30 *2712:A 9.60875e-05
41 *675:30 *2712:B 0.000144951
42 *675:30 *883:127 0
43 *675:30 *951:34 0.000114587
44 *2409:B1 *2776:A3 1.72079e-05
45 *2686:B1 *2686:A3 7.91265e-05
46 *2695:A *675:30 2.89016e-05
47 *2695:B *675:30 0.000266479
48 *2699:A3 *675:30 0.000355002
49 *2699:C1 *675:30 0.000222954
50 *2735:A2 *675:10 7.43578e-06
51 *2776:A2 *2776:A3 1.24368e-05
52 *2798:D *675:30 0.000136951
53 *508:14 *675:30 2.28499e-05
54 *508:18 *675:30 4.43256e-05
55 *510:14 *675:30 3.43708e-05
56 *672:65 *2776:A3 0.000137964
57 *672:103 *2686:A3 0.000262228
58 *672:103 *675:30 9.41642e-05
*RES
1 *2684:Y *675:10 16.3893 
2 *675:10 *675:14 11.9107 
3 *675:14 *675:30 29.625 
4 *675:30 *2776:A3 23.8 
5 *675:30 *2701:A3 9.83571 
6 *675:14 *2686:A3 12.7286 
7 *675:10 *2764:A3 14.3357 
*END

*D_NET *676 0.00454645
*CONN
*I *2707:C I *D sky130_fd_sc_hd__and3b_1
*I *2718:A2 I *D sky130_fd_sc_hd__o211a_2
*I *2711:C I *D sky130_fd_sc_hd__nor3_1
*I *2685:X O *D sky130_fd_sc_hd__or4_1
*CAP
1 *2707:C 0.000276139
2 *2718:A2 0
3 *2711:C 9.97348e-05
4 *2685:X 0.000395424
5 *676:16 0.000311172
6 *676:12 0.000883001
7 *2707:C *2396:A 3.69697e-05
8 *2707:C *2695:C 0.000314132
9 *2707:C *868:14 4.02462e-05
10 *2711:C *2717:A1 1.7606e-05
11 *2711:C *885:50 1.90936e-05
12 *2711:C *888:24 0.000179032
13 *2711:C *947:61 5.52302e-05
14 *2711:C *953:18 7.60258e-05
15 *676:12 *2764:A1 8.86512e-05
16 *676:12 *2764:A4 5.33005e-05
17 *676:12 *880:20 0.000155397
18 *676:12 *888:10 0.000172274
19 *676:12 *888:14 0.000141975
20 *676:12 *888:105 0
21 *676:16 *2718:A1 1.28809e-05
22 *676:16 *2718:B1 3.57366e-05
23 *676:16 *701:12 5.71472e-05
24 *676:16 *888:14 0.000395785
25 *2735:A1 *2707:C 0.000148911
26 *2764:A3 *676:12 5.52238e-05
27 *672:26 *676:12 8.40933e-05
28 *672:26 *676:16 0.000441269
*RES
1 *2685:X *676:12 27.8357 
2 *676:12 *676:16 8.35714 
3 *676:16 *2711:C 21.0857 
4 *676:16 *2718:A2 9.3 
5 *676:12 *2707:C 23.2464 
*END

*D_NET *677 0.00199051
*CONN
*I *2688:B I *D sky130_fd_sc_hd__and2_1
*I *2706:B I *D sky130_fd_sc_hd__and3_1
*I *2687:Y O *D sky130_fd_sc_hd__nand2_1
*CAP
1 *2688:B 2.80579e-05
2 *2706:B 0.000267602
3 *2687:Y 8.65164e-05
4 *677:8 0.000382176
5 *2688:B *2463:B 1.24368e-05
6 *2688:B *2687:B 1.98839e-05
7 *2706:B *972:10 8.31411e-05
8 *2706:B *1033:20 0.000286986
9 *2706:B *1033:33 4.49293e-05
10 *2706:B *1039:14 0.000311667
11 *677:8 *2687:A 5.52302e-05
12 *677:8 *2687:B 0.000222666
13 *2403:B *2706:B 4.66511e-05
14 *2688:A *677:8 6.42095e-05
15 *478:14 *2706:B 7.83587e-05
*RES
1 *2687:Y *677:8 11.9071 
2 *677:8 *2706:B 26.3179 
3 *677:8 *2688:B 9.83571 
*END

*D_NET *678 0.000874752
*CONN
*I *2706:C I *D sky130_fd_sc_hd__and3_1
*I *2691:A I *D sky130_fd_sc_hd__and2_1
*I *2689:Y O *D sky130_fd_sc_hd__nand2_1
*CAP
1 *2706:C 0.00018156
2 *2691:A 0
3 *2689:Y 4.65372e-05
4 *678:10 0.000228097
5 *2706:C *2691:B 9.90431e-05
6 *2706:C *2710:D_N 0.000104446
7 *678:10 *738:14 4.57445e-05
8 *678:10 *1033:14 0.000128154
9 *2706:A *2706:C 0
10 *433:10 *2706:C 4.11712e-05
*RES
1 *2689:Y *678:10 19.9429 
2 *678:10 *2691:A 9.3 
3 *678:10 *2706:C 13.0143 
*END

*D_NET *679 0.00937228
*CONN
*I *2691:B I *D sky130_fd_sc_hd__and2_1
*I *2699:B1 I *D sky130_fd_sc_hd__o311a_1
*I *2704:B1 I *D sky130_fd_sc_hd__o311a_1
*I *2690:Y O *D sky130_fd_sc_hd__nand2_1
*CAP
1 *2691:B 0.0012064
2 *2699:B1 0.000178137
3 *2704:B1 1.77691e-05
4 *2690:Y 0.000631337
5 *679:27 0.00138454
6 *679:14 0.000649106
7 *2691:B *2464:C 2.22043e-05
8 *2691:B *2680:C 0.000302536
9 *2691:B *2710:D_N 7.43578e-06
10 *2691:B *2799:RESET_B 0.000285759
11 *2691:B *3239:A 1.76039e-05
12 *2691:B *3243:A 0.000115084
13 *2691:B *774:10 0.000161076
14 *2691:B *868:39 0.000660547
15 *2691:B *883:119 4.26315e-05
16 *2691:B *947:27 0
17 *2691:B *948:81 2.0953e-05
18 *2691:B *948:94 3.43988e-06
19 *2691:B *951:8 0.000201277
20 *2691:B *1002:27 9.03213e-05
21 *2699:B1 *2699:A1 4.1331e-06
22 *2699:B1 *868:39 0.000649127
23 *2699:B1 *949:80 2.11419e-05
24 *2699:B1 *1002:27 0.000660915
25 *2704:B1 *2700:A 2.59355e-05
26 *679:14 *2395:A 0.00035785
27 *679:14 *2690:B 9.60939e-05
28 *679:14 *2704:A1 3.47641e-06
29 *679:14 *2704:C1 0.000155646
30 *679:14 *2712:B 3.22745e-05
31 *679:14 *2713:A3 0.000118057
32 *679:14 *690:26 0
33 *679:14 *1031:10 1.53632e-05
34 *2706:C *2691:B 9.90431e-05
35 *2799:D *2691:B 0.000189266
36 *475:10 *2699:B1 0
37 *501:8 *679:14 0.000352923
38 *501:25 *679:14 0.000327749
39 *510:14 *2691:B 0.000209906
40 *672:34 *679:14 0
41 *675:30 *2704:B1 5.52302e-05
*RES
1 *2690:Y *679:14 27.5857 
2 *679:14 *2704:B1 14.3357 
3 *679:14 *679:27 3.41 
4 *679:27 *2699:B1 18.5427 
5 *679:27 *2691:B 39.8641 
*END

*D_NET *680 0.00587887
*CONN
*I *2693:B I *D sky130_fd_sc_hd__or2_1
*I *2712:A I *D sky130_fd_sc_hd__or4b_1
*I *2692:X O *D sky130_fd_sc_hd__o31a_1
*CAP
1 *2693:B 0
2 *2712:A 0.000865471
3 *2692:X 0.000489775
4 *680:16 0.00135525
5 *2712:A *2693:A 2.62984e-05
6 *2712:A *2700:A 8.02119e-05
7 *2712:A *2778:A2 0.000230672
8 *2712:A *690:26 0.000252747
9 *2712:A *751:18 4.50149e-05
10 *2712:A *868:39 0.000760374
11 *2712:A *868:45 0.000388976
12 *2712:A *949:80 4.61009e-05
13 *2712:A *950:37 2.24164e-05
14 *2712:A *1002:12 0.000166125
15 *680:16 *2406:A 0
16 *680:16 *2407:D 1.58163e-05
17 *680:16 *2762:A2 0
18 *680:16 *2762:B1 0
19 *680:16 *2762:B2 0.00012401
20 *680:16 *2776:B2 0.000142856
21 *680:16 *751:18 0
22 *680:16 *751:26 0
23 *680:16 *801:10 3.34366e-05
24 *680:16 *801:21 0.00019187
25 *680:16 *801:34 0.000406926
26 *680:16 *945:42 0
27 *2776:B1 *680:16 0
28 *2844:GATE_N *680:16 0.000131844
29 *475:31 *2712:A 6.59103e-06
30 *675:30 *2712:A 9.60875e-05
*RES
1 *2692:X *680:16 30.2643 
2 *680:16 *2712:A 30.7072 
3 *680:16 *2693:B 9.3 
*END

*D_NET *681 0.00345931
*CONN
*I *2695:C I *D sky130_fd_sc_hd__and3_1
*I *2694:Y O *D sky130_fd_sc_hd__nand2_1
*CAP
1 *2695:C 0.000882804
2 *2694:Y 0.000882804
3 *2695:C *2396:A 0.000266479
4 *2695:C *2441:B 9.91086e-05
5 *2695:C *2709:A 2.30116e-06
6 *2695:C *2717:A1 3.10885e-05
7 *2695:C *868:33 1.68854e-05
8 *2695:C *868:35 8.63304e-05
9 *2695:C *885:22 0.000414103
10 *2695:C *947:61 0.000155337
11 *2695:C *948:94 9.8958e-05
12 *2695:C *950:70 4.19624e-06
13 *2695:C *953:18 0
14 *2695:A *2695:C 5.52238e-05
15 *2707:C *2695:C 0.000314132
16 *503:36 *2695:C 8.40933e-05
17 *675:30 *2695:C 6.54619e-05
*RES
1 *2694:Y *2695:C 44.5107 
*END

*D_NET *682 0.00268851
*CONN
*I *2700:A I *D sky130_fd_sc_hd__or3b_1
*I *2695:X O *D sky130_fd_sc_hd__and3_1
*CAP
1 *2700:A 0.000746103
2 *2695:X 0.000746103
3 *2700:A *2700:C_N 9.90431e-05
4 *2700:A *2799:RESET_B 8.57535e-05
5 *2700:A *949:80 1.32178e-05
6 *2700:A *950:37 0.00032097
7 *2699:A2 *2700:A 0.000271339
8 *2704:B1 *2700:A 2.59355e-05
9 *2712:A *2700:A 8.02119e-05
10 *2800:D *2700:A 0.00011746
11 *675:30 *2700:A 0.000182374
*RES
1 *2695:X *2700:A 40.4571 
*END

*D_NET *683 0.0023033
*CONN
*I *2712:D_N I *D sky130_fd_sc_hd__or4b_1
*I *2698:B1 I *D sky130_fd_sc_hd__o22ai_1
*I *2696:X O *D sky130_fd_sc_hd__or3_1
*CAP
1 *2712:D_N 0.000144232
2 *2698:B1 0.000181433
3 *2696:X 0
4 *683:4 0.000325665
5 *2698:B1 *2700:B 5.52302e-05
6 *2698:B1 *2702:D 1.02936e-05
7 *2698:B1 *691:8 0.000357945
8 *2698:B1 *929:38 0.000181803
9 *2698:B1 *949:74 0.00018372
10 *2712:D_N *2704:C1 0.000186212
11 *2712:D_N *691:8 0.000211249
12 *2712:D_N *949:68 0.000125547
13 *2712:D_N *949:74 9.90367e-05
14 *2712:D_N *950:23 7.69776e-06
15 *2712:D_N *950:27 1.33776e-05
16 *2696:C *2712:D_N 0.000143167
17 *2705:A2 *2698:B1 7.66879e-05
*RES
1 *2696:X *683:4 9.3 
2 *683:4 *2698:B1 14.7643 
3 *683:4 *2712:D_N 23.0321 
*END

*D_NET *684 0.00131245
*CONN
*I *2714:A2 I *D sky130_fd_sc_hd__a21o_1
*I *2697:Y O *D sky130_fd_sc_hd__nor2_1
*CAP
1 *2714:A2 0.000341492
2 *2697:Y 0.000341492
3 *2714:A2 *2443:B 0
4 *2714:A2 *2714:A1 5.05056e-05
5 *2714:A2 *2714:B1 0.000193207
6 *2714:A2 *995:12 2.46749e-05
7 *2398:C_N *2714:A2 0.00011326
8 *2697:B *2714:A2 0.00010096
9 *2713:A1 *2714:A2 9.66555e-05
10 *502:44 *2714:A2 2.42662e-05
11 *508:14 *2714:A2 2.59355e-05
*RES
1 *2697:Y *2714:A2 34.7607 
*END

*D_NET *685 0.00136187
*CONN
*I *2700:B I *D sky130_fd_sc_hd__or3b_1
*I *2698:Y O *D sky130_fd_sc_hd__o22ai_1
*CAP
1 *2700:B 0.000434395
2 *2698:Y 0.000434395
3 *2700:B *2799:RESET_B 1.72894e-05
4 *2700:B *3242:A 0.000175823
5 *2700:B *929:38 7.25614e-05
6 *2698:B1 *2700:B 5.52302e-05
7 *475:10 *2700:B 0.00017218
*RES
1 *2698:Y *2700:B 35.0107 
*END

*D_NET *686 0.000821761
*CONN
*I *2700:C_N I *D sky130_fd_sc_hd__or3b_1
*I *2699:X O *D sky130_fd_sc_hd__o311a_1
*CAP
1 *2700:C_N 0.000165447
2 *2699:X 0.000165447
3 *2700:C_N *2799:RESET_B 0.00010096
4 *2699:A2 *2700:C_N 9.73566e-05
5 *2700:A *2700:C_N 9.90431e-05
6 *2800:D *2700:C_N 0
7 *475:10 *2700:C_N 0.000144722
8 *675:30 *2700:C_N 4.87854e-05
*RES
1 *2699:X *2700:C_N 31.4393 
*END

*D_NET *687 0.000710603
*CONN
*I *2701:B1 I *D sky130_fd_sc_hd__a31o_1
*I *2700:X O *D sky130_fd_sc_hd__or3b_1
*CAP
1 *2701:B1 0.000280144
2 *2700:X 0.000280144
3 *2701:B1 *2798:RESET_B 1.52723e-05
4 *2701:B1 *2799:RESET_B 3.88139e-05
5 *2701:B1 *952:56 5.98948e-06
6 *2701:A2 *2701:B1 1.8791e-05
7 *2798:D *2701:B1 7.14469e-05
*RES
1 *2700:X *2701:B1 31.4214 
*END

*D_NET *688 0.00173626
*CONN
*I *2713:A3 I *D sky130_fd_sc_hd__a31o_1
*I *2702:X O *D sky130_fd_sc_hd__or4_1
*CAP
1 *2713:A3 0.000493151
2 *2702:X 0.000493151
3 *2713:A3 *2704:A1 7.35213e-06
4 *2713:A3 *2712:B 0.000162186
5 *2713:A3 *2713:B1 8.14093e-06
6 *2713:A3 *690:26 0.000303362
7 *2713:A3 *691:8 1.55885e-05
8 *2713:A3 *950:37 2.14757e-05
9 *2697:B *2713:A3 3.07021e-05
10 *2713:A2 *2713:A3 3.36025e-05
11 *502:21 *2713:A3 0
12 *502:59 *2713:A3 4.10504e-05
13 *508:33 *2713:A3 8.44271e-06
14 *679:14 *2713:A3 0.000118057
*RES
1 *2702:X *2713:A3 35.6179 
*END

*D_NET *689 0.0013719
*CONN
*I *2704:C1 I *D sky130_fd_sc_hd__o311a_1
*I *2703:X O *D sky130_fd_sc_hd__or3_1
*CAP
1 *2704:C1 0.000353692
2 *2703:X 0.000353692
3 *2704:C1 *2712:B 0.000166355
4 *2704:C1 *3115:A 9.90367e-05
5 *2704:C1 *950:23 4.60858e-05
6 *2696:C *2704:C1 1.11775e-05
7 *2712:D_N *2704:C1 0.000186212
8 *672:34 *2704:C1 0
9 *679:14 *2704:C1 0.000155646
*RES
1 *2703:X *2704:C1 35.0464 
*END

*D_NET *690 0.00244128
*CONN
*I *2705:B1 I *D sky130_fd_sc_hd__o31ai_1
*I *2704:X O *D sky130_fd_sc_hd__o311a_1
*CAP
1 *2705:B1 0
2 *2704:X 0.000488503
3 *690:26 0.000488503
4 *690:26 *2710:A 0.000266479
5 *690:26 *2712:C 1.90936e-05
6 *690:26 *2778:A2 0.00013747
7 *690:26 *691:8 7.50658e-05
8 *690:26 *868:39 7.13711e-05
9 *690:26 *949:80 5.7903e-06
10 *690:26 *950:37 0.000116705
11 *690:26 *995:12 0.000118981
12 *690:26 *1031:10 8.50152e-05
13 *2712:A *690:26 0.000252747
14 *2713:A3 *690:26 0.000303362
15 *475:10 *690:26 1.21955e-05
16 *679:14 *690:26 0
*RES
1 *2704:X *690:26 41.9935 
2 *690:26 *2705:B1 9.3 
*END

*D_NET *691 0.00441764
*CONN
*I *2710:A I *D sky130_fd_sc_hd__or4b_1
*I *2712:B I *D sky130_fd_sc_hd__or4b_1
*I *2705:Y O *D sky130_fd_sc_hd__o31ai_1
*CAP
1 *2710:A 0.000329603
2 *2712:B 0.000222856
3 *2705:Y 0.000200942
4 *691:8 0.000753401
5 *2710:A *948:94 9.41642e-05
6 *2710:A *949:53 0.000362611
7 *2710:A *949:55 0.000397924
8 *2710:A *949:68 0.000101625
9 *2710:A *950:94 2.59355e-05
10 *2710:A *1031:10 0.000135933
11 *691:8 *2702:D 5.62995e-05
12 *691:8 *2705:A1 4.35336e-05
13 *691:8 *949:68 4.27437e-05
14 *691:8 *950:37 0.000137983
15 *2696:C *2712:B 5.66471e-06
16 *2698:B1 *691:8 0.000357945
17 *2704:A3 *2712:B 0
18 *2704:C1 *2712:B 0.000166355
19 *2712:D_N *691:8 0.000211249
20 *2713:A3 *2712:B 0.000162186
21 *2713:A3 *691:8 1.55885e-05
22 *508:18 *2712:B 5.52302e-05
23 *508:33 *2712:B 1.90936e-05
24 *675:30 *2712:B 0.000144951
25 *679:14 *2712:B 3.22745e-05
26 *690:26 *2710:A 0.000266479
27 *690:26 *691:8 7.50658e-05
*RES
1 *2705:Y *691:8 16.0143 
2 *691:8 *2712:B 23.4786 
3 *691:8 *2710:A 19.2821 
*END

*D_NET *692 0.00348316
*CONN
*I *2710:D_N I *D sky130_fd_sc_hd__or4b_1
*I *2706:X O *D sky130_fd_sc_hd__and3_1
*CAP
1 *2710:D_N 0.00091078
2 *2706:X 0.00091078
3 *2710:D_N *3241:A 0
4 *2710:D_N *738:14 0.000546986
5 *2710:D_N *948:33 3.43708e-05
6 *2710:D_N *949:6 6.57914e-05
7 *2710:D_N *949:17 0.000347181
8 *2710:D_N *949:53 0.000145333
9 *2710:D_N *950:94 3.30237e-05
10 *2710:D_N *1033:14 4.94362e-05
11 *2688:A *2710:D_N 0.000272371
12 *2691:B *2710:D_N 7.43578e-06
13 *2706:C *2710:D_N 0.000104446
14 *504:12 *2710:D_N 5.52238e-05
*RES
1 *2706:X *2710:D_N 46.2071 
*END

*D_NET *693 0.000202224
*CONN
*I *2710:B I *D sky130_fd_sc_hd__or4b_1
*I *2707:X O *D sky130_fd_sc_hd__and3b_1
*CAP
1 *2710:B 7.50521e-05
2 *2707:X 7.50521e-05
3 *2710:B *772:23 4.76575e-05
4 *2710:B *947:51 0
5 *2710:B *950:94 4.46186e-06
*RES
1 *2707:X *2710:B 28.9393 
*END

*D_NET *694 0.00343565
*CONN
*I *2709:C I *D sky130_fd_sc_hd__and3_1
*I *2708:X O *D sky130_fd_sc_hd__or4b_1
*CAP
1 *2709:C 0.000838338
2 *2708:X 0.000838338
3 *2709:C *2764:A4 0
4 *2709:C *3250:A 7.0758e-05
5 *2709:C *701:44 5.13329e-05
6 *2709:C *772:23 0
7 *2709:C *787:24 5.33005e-05
8 *2709:C *787:30 4.43256e-05
9 *2709:C *868:14 0
10 *2709:C *948:33 9.91086e-05
11 *2709:C *949:19 0.000146474
12 *2709:C *949:43 4.49293e-05
13 *2709:C *953:64 6.57026e-05
14 *2709:C *953:104 0.000132297
15 *2735:A1 *2709:C 0.000378429
16 *503:8 *2709:C 9.8232e-05
17 *503:30 *2709:C 5.31158e-05
18 *672:26 *2709:C 0.000134526
19 *674:12 *2709:C 0
20 *675:10 *2709:C 0
21 *675:14 *2709:C 0
22 *675:30 *2709:C 0.00038644
*RES
1 *2708:X *2709:C 44.9304 
*END

*D_NET *695 0.00294531
*CONN
*I *2710:C I *D sky130_fd_sc_hd__or4b_1
*I *2713:B1 I *D sky130_fd_sc_hd__a31o_1
*I *2709:X O *D sky130_fd_sc_hd__and3_1
*CAP
1 *2710:C 0.000157835
2 *2713:B1 0.00075407
3 *2709:X 3.92213e-05
4 *695:8 0.000951127
5 *2710:C *2464:D 4.23378e-05
6 *2710:C *772:23 7.55857e-05
7 *2710:C *950:94 5.66157e-05
8 *2713:B1 *2464:D 7.40571e-05
9 *2713:B1 *2714:B1 1.05204e-05
10 *2713:B1 *772:23 1.95772e-05
11 *2713:B1 *947:14 6.57032e-05
12 *2713:B1 *947:23 9.92409e-05
13 *2713:B1 *947:90 4.43256e-05
14 *2713:B1 *947:97 9.60939e-05
15 *695:8 *2680:C 5.52302e-05
16 *2713:A1 *2713:B1 5.40901e-06
17 *2713:A2 *2713:B1 1.66277e-05
18 *2713:A3 *2713:B1 8.14093e-06
19 *2799:D *2710:C 6.41135e-05
20 *474:10 *2713:B1 2.13481e-06
21 *508:14 *2713:B1 0.000307343
*RES
1 *2709:X *695:8 14.3357 
2 *695:8 *2713:B1 24.3402 
3 *695:8 *2710:C 17.4964 
*END

*D_NET *696 0.00387674
*CONN
*I *2777:B1 I *D sky130_fd_sc_hd__a31o_1
*I *2712:C I *D sky130_fd_sc_hd__or4b_1
*I *2711:Y O *D sky130_fd_sc_hd__nor3_1
*CAP
1 *2777:B1 0.000172771
2 *2712:C 0.000214865
3 *2711:Y 0.000404515
4 *696:8 0.000792151
5 *2712:C *950:23 9.84994e-05
6 *2712:C *950:27 4.18834e-05
7 *2712:C *950:37 6.31717e-05
8 *2712:C *1001:8 0
9 *2777:B1 *2777:A1 6.07526e-05
10 *2777:B1 *3242:A 0.000184745
11 *2777:B1 *885:50 7.22199e-05
12 *2777:B1 *950:6 9.90367e-05
13 *2777:B1 *950:23 0.000350977
14 *2777:B1 *1001:8 0
15 *696:8 *885:50 0.000561385
16 *2696:C *2712:C 6.8544e-05
17 *672:34 *2777:B1 0.00067213
18 *690:26 *2712:C 1.90936e-05
*RES
1 *2711:Y *696:8 19.2643 
2 *696:8 *2712:C 17.8714 
3 *696:8 *2777:B1 21.6393 
*END

*D_NET *697 0.00100827
*CONN
*I *2714:B1 I *D sky130_fd_sc_hd__a21o_1
*I *2713:X O *D sky130_fd_sc_hd__a31o_1
*CAP
1 *2714:B1 0.00031669
2 *2713:X 0.00031669
3 *2714:B1 *2714:A1 5.33005e-05
4 *2713:A1 *2714:B1 2.28598e-05
5 *2713:B1 *2714:B1 1.05204e-05
6 *2714:A2 *2714:B1 0.000193207
7 *2801:D *2714:B1 5.33005e-05
8 *508:14 *2714:B1 4.16984e-05
*RES
1 *2713:X *2714:B1 23.8143 
*END

*D_NET *698 0.00306733
*CONN
*I *2718:B1 I *D sky130_fd_sc_hd__o211a_2
*I *2743:C1 I *D sky130_fd_sc_hd__o221a_2
*I *2715:X O *D sky130_fd_sc_hd__o2bb2a_1
*CAP
1 *2718:B1 0.000151291
2 *2743:C1 0.000369581
3 *2715:X 0
4 *698:4 0.000520871
5 *2743:C1 *3116:A 0.000126439
6 *2743:C1 *965:33 4.18895e-05
7 *2743:C1 *965:41 0.000218685
8 *2743:C1 *1031:41 5.74562e-05
9 *2743:C1 *1031:55 0.000847403
10 *2698:A1 *2743:C1 0.000559028
11 *2715:A2_N *2743:C1 9.25014e-06
12 *672:26 *2718:B1 0.000106853
13 *672:26 *2743:C1 2.28499e-05
14 *676:16 *2718:B1 3.57366e-05
*RES
1 *2715:X *698:4 9.3 
2 *698:4 *2743:C1 31.7107 
3 *698:4 *2718:B1 12.2286 
*END

*D_NET *699 0.000766671
*CONN
*I *2779:A I *D sky130_fd_sc_hd__or4_2
*I *2716:Y O *D sky130_fd_sc_hd__nor2_1
*CAP
1 *2779:A 0.000208846
2 *2716:Y 0.000208846
3 *2779:A *2716:A 5.33005e-05
4 *2779:A *2779:C 0.000176433
5 *2779:A *804:10 1.56e-05
6 *2779:A *885:50 3.65069e-05
7 *471:14 *2779:A 2.22795e-05
8 *672:65 *2779:A 4.48583e-05
*RES
1 *2716:Y *2779:A 32.0286 
*END

*D_NET *700 0.000683554
*CONN
*I *2718:C1 I *D sky130_fd_sc_hd__o211a_2
*I *2717:X O *D sky130_fd_sc_hd__o32a_1
*CAP
1 *2718:C1 0.00014757
2 *2717:X 0.00014757
3 *2718:C1 *888:24 0.000136951
4 *2718:C1 *953:18 0.000125731
5 *2718:C1 *995:12 0.000125731
*RES
1 *2717:X *2718:C1 30.6 
*END

*D_NET *701 0.00803649
*CONN
*I *2764:B1 I *D sky130_fd_sc_hd__o41a_2
*I *2734:S I *D sky130_fd_sc_hd__mux2_1
*I *2726:S I *D sky130_fd_sc_hd__mux2_1
*I *2735:B1_N I *D sky130_fd_sc_hd__a21bo_1
*I *2721:S I *D sky130_fd_sc_hd__mux2_1
*I *2738:B2 I *D sky130_fd_sc_hd__a22o_1
*I *2718:X O *D sky130_fd_sc_hd__o211a_2
*CAP
1 *2764:B1 0.00018339
2 *2734:S 0.000283277
3 *2726:S 0
4 *2735:B1_N 0
5 *2721:S 8.36814e-05
6 *2738:B2 0
7 *2718:X 9.08532e-05
8 *701:59 0.000464688
9 *701:51 0.000465878
10 *701:44 0.000336998
11 *701:18 0.000291824
12 *701:12 0.000534916
13 *2721:S *2724:B1 0.000165235
14 *2721:S *2730:A 5.52238e-05
15 *2721:S *953:12 2.44286e-05
16 *2721:S *979:16 0.000194698
17 *2734:S *2726:A0 3.42927e-05
18 *2734:S *2726:A1 0
19 *2734:S *2733:B2 9.60939e-05
20 *2734:S *2734:A1 0.000209543
21 *2734:S *3324:A 0.000126731
22 *2734:S *880:10 0.000568337
23 *2734:S *880:20 9.25014e-06
24 *2734:S *881:97 5.52238e-05
25 *2734:S *963:22 5.52238e-05
26 *2764:B1 *2684:A 5.4826e-05
27 *2764:B1 *772:91 8.27532e-05
28 *2764:B1 *880:20 0.00013737
29 *701:12 *2717:A1 0.000123288
30 *701:12 *888:14 5.52302e-05
31 *701:18 *2717:A1 8.1654e-05
32 *701:18 *2724:B1 3.34366e-05
33 *701:18 *2805:CLK 0
34 *701:18 *888:59 0.000414748
35 *701:18 *965:33 0.000136951
36 *701:18 *979:16 0.000202842
37 *701:44 *2738:A2 5.52238e-05
38 *701:44 *2805:CLK 0.000179659
39 *701:44 *772:19 1.21289e-05
40 *701:44 *772:91 2.24195e-05
41 *701:44 *965:33 0.000863454
42 *701:51 *772:91 0.000139913
43 *701:59 *2684:A 7.40571e-05
44 *701:59 *2726:A0 5.33005e-05
45 *701:59 *786:44 2.49484e-05
46 *701:59 *788:49 0.000123288
47 *701:59 *880:20 0
48 *2709:C *701:44 5.13329e-05
49 *2732:A1 *2734:S 0.00012401
50 *2735:A1 *701:44 5.52238e-05
51 *2735:A2 *701:44 8.86413e-05
52 *2805:D *701:18 0
53 *674:12 *701:44 2.4454e-05
54 *674:12 *701:59 0.000258647
55 *675:10 *2764:B1 0.000121573
56 *675:14 *2764:B1 5.41794e-05
57 *676:16 *701:12 5.71472e-05
*RES
1 *2718:X *701:12 20.4786 
2 *701:12 *701:18 11.4464 
3 *701:18 *2738:B2 13.8 
4 *701:18 *2721:S 16.8893 
5 *701:12 *701:44 18.6786 
6 *701:44 *2735:B1_N 9.3 
7 *701:44 *701:51 1.35714 
8 *701:51 *701:59 13.6071 
9 *701:59 *2726:S 9.3 
10 *701:59 *2734:S 28.0321 
11 *701:51 *2764:B1 22.7107 
*END

*D_NET *702 0.000327311
*CONN
*I *2720:B1 I *D sky130_fd_sc_hd__o21ai_1
*I *2719:X O *D sky130_fd_sc_hd__o2bb2a_1
*CAP
1 *2720:B1 4.59531e-05
2 *2719:X 4.59531e-05
3 *2720:B1 *3187:A 0.000154762
4 *2720:B1 *881:46 7.48356e-05
5 *2720:B1 *881:48 5.80706e-06
*RES
1 *2719:X *2720:B1 29.5464 
*END

*D_NET *703 0.000415183
*CONN
*I *2721:A1 I *D sky130_fd_sc_hd__mux2_1
*I *2720:Y O *D sky130_fd_sc_hd__o21ai_1
*CAP
1 *2721:A1 0.000156333
2 *2720:Y 0.000156333
3 *2721:A1 *2721:A0 2.59355e-05
4 *2721:A1 *2730:A 7.65804e-05
*RES
1 *2720:Y *2721:A1 21.1893 
*END

*D_NET *704 0.00804685
*CONN
*I *2725:B2 I *D sky130_fd_sc_hd__a221o_1
*I *2751:B2 I *D sky130_fd_sc_hd__a221o_1
*I *2722:X O *D sky130_fd_sc_hd__xor2_1
*CAP
1 *2725:B2 1.03188e-05
2 *2751:B2 0.000143422
3 *2722:X 2.65646e-05
4 *704:55 0.00219157
5 *704:8 0.00235124
6 *2751:B2 *2747:A1 2.10469e-05
7 *2751:B2 *2751:B1 0.000156725
8 *2751:B2 *2751:C1 2.16719e-05
9 *2751:B2 *2752:A2 3.04785e-05
10 *2751:B2 *2752:B1 0.000124649
11 *2751:B2 *804:39 0.000149911
12 *2751:B2 *975:24 4.038e-06
13 *704:8 *2747:A1 5.52302e-05
14 *704:55 *2720:A1 0.00010593
15 *704:55 *2725:A2 0
16 *704:55 *2736:A 0.000294303
17 *704:55 *2753:A 0.000353149
18 *704:55 *2760:B1 1.26686e-05
19 *704:55 *2802:CLK 0.000102241
20 *704:55 *706:26 6.40986e-05
21 *704:55 *710:10 2.28544e-05
22 *704:55 *804:39 2.04817e-05
23 *704:55 *881:97 0.000511682
24 *704:55 *962:14 6.74911e-05
25 *704:55 *963:22 0.000704608
26 *704:55 *974:22 4.06909e-05
27 *704:55 *975:16 1.66754e-05
28 *704:55 *975:24 0.000348945
29 *704:55 *979:16 0
30 *3102:D *2751:B2 9.41642e-05
*RES
1 *2722:X *704:8 14.3357 
2 *704:8 *2751:B2 27.2464 
3 *704:8 *704:55 49.5845 
4 *704:55 *2725:B2 13.9295 
*END

*D_NET *705 0.000682293
*CONN
*I *2724:A2 I *D sky130_fd_sc_hd__a21oi_1
*I *2723:Y O *D sky130_fd_sc_hd__nand2_1
*CAP
1 *2724:A2 0.000173999
2 *2723:Y 0.000173999
3 *2724:A2 *2682:A 9.54798e-06
4 *2724:A2 *2731:A 9.26774e-05
5 *2724:A2 *2732:A2 0.000128143
6 *2724:A2 *2802:CLK 9.41642e-05
7 *2724:A1 *2724:A2 9.76241e-06
*RES
1 *2723:Y *2724:A2 31.1536 
*END

*D_NET *706 0.0025604
*CONN
*I *2725:C1 I *D sky130_fd_sc_hd__a221o_1
*I *2724:Y O *D sky130_fd_sc_hd__a21oi_1
*CAP
1 *2725:C1 0
2 *2724:Y 0.000724779
3 *706:26 0.000724779
4 *706:26 *2726:A1 0
5 *706:26 *2732:A2 8.70693e-05
6 *706:26 *2733:B2 5.74633e-05
7 *706:26 *2802:CLK 4.72938e-06
8 *706:26 *2804:CLK 5.33005e-05
9 *706:26 *772:67 0.000101545
10 *706:26 *786:21 0.000114166
11 *706:26 *868:14 0.000485373
12 *2804:D *706:26 4.8936e-05
13 *3273:A *706:26 0
14 *673:8 *706:26 9.41642e-05
15 *704:55 *706:26 6.40986e-05
*RES
1 *2724:Y *706:26 41.2107 
2 *706:26 *2725:C1 9.3 
*END

*D_NET *707 0.0014606
*CONN
*I *2726:A1 I *D sky130_fd_sc_hd__mux2_1
*I *2725:X O *D sky130_fd_sc_hd__a221o_1
*CAP
1 *2726:A1 0.000453281
2 *2725:X 0.000453281
3 *2726:A1 *2734:A1 0.000461406
4 *2726:A1 *2804:RESET_B 0
5 *2726:A1 *880:10 0
6 *2726:A1 *953:104 0
7 *2726:A1 *962:6 5.33433e-05
8 *2726:A1 *962:14 3.92854e-05
9 *2734:S *2726:A1 0
10 *2804:D *2726:A1 0
11 *706:26 *2726:A1 0
*RES
1 *2725:X *2726:A1 36.8679 
*END

*D_NET *708 0.00169547
*CONN
*I *2729:A I *D sky130_fd_sc_hd__or2_1
*I *2727:Y O *D sky130_fd_sc_hd__a21oi_1
*CAP
1 *2729:A 0.000459315
2 *2727:Y 0.000459315
3 *2729:A *2729:B 9.71108e-05
4 *2729:A *2755:A2 9.41642e-05
5 *2729:A *2755:B1 9.90431e-05
6 *2729:A *2761:A2_N 1.90111e-05
7 *2729:A *720:42 8.86512e-05
8 *2729:A *1001:8 0.000284927
9 *3114:A *2729:A 9.39323e-05
*RES
1 *2727:Y *2729:A 35.6 
*END

*D_NET *709 0.000805636
*CONN
*I *2729:B I *D sky130_fd_sc_hd__or2_1
*I *2736:B I *D sky130_fd_sc_hd__xnor2_1
*I *2728:X O *D sky130_fd_sc_hd__and3_1
*CAP
1 *2729:B 0.000122711
2 *2736:B 5.3679e-05
3 *2728:X 7.79713e-05
4 *709:6 0.000254361
5 *2729:B *2736:A 7.43578e-06
6 *2729:B *2754:B1 5.33005e-05
7 *2729:B *730:24 7.49387e-06
8 *2736:B *730:24 1.04232e-05
9 *709:6 *730:24 2.40379e-05
10 *2729:A *2729:B 9.71108e-05
11 *3114:A *2729:B 9.71108e-05
*RES
1 *2728:X *709:6 10.2464 
2 *709:6 *2736:B 10.3357 
3 *709:6 *2729:B 20.7107 
*END

*D_NET *710 0.00268588
*CONN
*I *2730:A I *D sky130_fd_sc_hd__inv_2
*I *2755:B1 I *D sky130_fd_sc_hd__o32a_1
*I *2729:X O *D sky130_fd_sc_hd__or2_1
*CAP
1 *2730:A 0.000581217
2 *2755:B1 0.000107452
3 *2729:X 0.000141087
4 *710:10 0.000829755
5 *2730:A *2721:A0 5.33005e-05
6 *2730:A *2724:B1 1.21258e-05
7 *2730:A *2737:A2_N 0.000169875
8 *2730:A *2761:A1_N 4.18895e-05
9 *2755:B1 *2737:A2_N 0
10 *2755:B1 *2761:A1_N 5.52302e-05
11 *2755:B1 *2761:A2_N 5.20562e-05
12 *2755:B1 *720:42 0
13 *710:10 *2760:B1 0
14 *710:10 *716:12 0.000101545
15 *710:10 *964:20 0
16 *710:10 *1001:8 0.00028664
17 *2721:A1 *2730:A 7.65804e-05
18 *2721:S *2730:A 5.52238e-05
19 *2729:A *2755:B1 9.90431e-05
20 *704:55 *710:10 2.28544e-05
*RES
1 *2729:X *710:10 22.0679 
2 *710:10 *2755:B1 11.8 
3 *710:10 *2730:A 18.7821 
*END

*D_NET *711 0.00335333
*CONN
*I *2733:B2 I *D sky130_fd_sc_hd__a221o_1
*I *2730:Y O *D sky130_fd_sc_hd__inv_2
*CAP
1 *2733:B2 0.000932292
2 *2730:Y 0.000932292
3 *2733:B2 *2682:A 7.80837e-05
4 *2733:B2 *2682:B 5.52302e-05
5 *2733:B2 *2724:B1 0.000232399
6 *2733:B2 *2726:A0 0.000319352
7 *2733:B2 *2732:A2 0.000158811
8 *2733:B2 *2733:A2 3.33238e-05
9 *2733:B2 *2734:A1 7.6644e-05
10 *2733:B2 *2803:RESET_B 9.42929e-05
11 *2733:B2 *3252:A 0
12 *2733:B2 *788:49 4.34543e-05
13 *2733:B2 *953:104 0
14 *2724:A1 *2733:B2 9.71197e-05
15 *2732:A1 *2733:B2 0.000146474
16 *2734:S *2733:B2 9.60939e-05
17 *706:26 *2733:B2 5.74633e-05
*RES
1 *2730:Y *2733:B2 45.1714 
*END

*D_NET *712 0.00230491
*CONN
*I *2732:A2 I *D sky130_fd_sc_hd__a21oi_1
*I *2731:Y O *D sky130_fd_sc_hd__nand2_1
*CAP
1 *2732:A2 0.000704526
2 *2731:Y 0.000704526
3 *2732:A2 *2682:A 5.52238e-05
4 *2732:A2 *2682:B 2.89114e-05
5 *2732:A2 *2731:A 5.39678e-05
6 *2732:A2 *2803:RESET_B 4.96254e-05
7 *2724:A1 *2732:A2 3.17148e-05
8 *2724:A2 *2732:A2 0.000128143
9 *2731:B *2732:A2 0.000123555
10 *2732:A1 *2732:A2 0.000125535
11 *2733:B2 *2732:A2 0.000158811
12 *673:8 *2732:A2 5.33005e-05
13 *706:26 *2732:A2 8.70693e-05
*RES
1 *2731:Y *2732:A2 41.6357 
*END

*D_NET *713 0.000661975
*CONN
*I *2733:C1 I *D sky130_fd_sc_hd__a221o_1
*I *2732:Y O *D sky130_fd_sc_hd__a21oi_1
*CAP
1 *2733:C1 0.000163982
2 *2732:Y 0.000163982
3 *2733:C1 *2765:B 3.69047e-06
4 *2733:C1 *787:8 6.75007e-05
5 *2733:C1 *788:14 0.000225307
6 *2732:A1 *2733:C1 3.69047e-06
7 *2733:B1 *2733:C1 3.38229e-05
*RES
1 *2732:Y *2733:C1 31.4036 
*END

*D_NET *714 0.0012889
*CONN
*I *2734:A1 I *D sky130_fd_sc_hd__mux2_1
*I *2733:X O *D sky130_fd_sc_hd__a221o_1
*CAP
1 *2734:A1 0.000270652
2 *2733:X 0.000270652
3 *2726:A1 *2734:A1 0.000461406
4 *2733:B2 *2734:A1 7.6644e-05
5 *2734:S *2734:A1 0.000209543
*RES
1 *2733:X *2734:A1 34.85 
*END

*D_NET *715 0.00190541
*CONN
*I *2738:A2 I *D sky130_fd_sc_hd__a22o_1
*I *2735:X O *D sky130_fd_sc_hd__a21bo_1
*CAP
1 *2738:A2 0.000384248
2 *2735:X 0.000384248
3 *2738:A2 *2731:A 0.000271339
4 *2738:A2 *2738:A1 0.000144773
5 *2738:A2 *3250:A 2.59355e-05
6 *2738:A2 *772:19 2.59355e-05
7 *2738:A2 *772:23 5.66157e-05
8 *2738:A2 *772:56 0.000351573
9 *2738:A2 *787:30 0.000126439
10 *2738:A2 *787:41 7.90803e-05
11 *2805:D *2738:A2 0
12 *701:44 *2738:A2 5.52238e-05
*RES
1 *2735:X *2738:A2 38.0643 
*END

*D_NET *716 0.00146633
*CONN
*I *2737:A2_N I *D sky130_fd_sc_hd__a2bb2o_1
*I *2761:A1_N I *D sky130_fd_sc_hd__a2bb2o_1
*I *2736:Y O *D sky130_fd_sc_hd__xnor2_1
*CAP
1 *2737:A2_N 0.000213465
2 *2761:A1_N 3.06082e-05
3 *2736:Y 0.000103492
4 *716:12 0.000347565
5 *2737:A2_N *2720:A1 1.94879e-05
6 *2737:A2_N *2761:A2_N 5.04841e-06
7 *2737:A2_N *964:20 0.000170955
8 *2761:A1_N *2761:A2_N 2.89114e-05
9 *716:12 *2761:B2 6.19181e-05
10 *716:12 *730:24 2.59355e-05
11 *716:12 *1001:8 1.08359e-05
12 *2720:A2 *2737:A2_N 7.9564e-05
13 *2730:A *2737:A2_N 0.000169875
14 *2730:A *2761:A1_N 4.18895e-05
15 *2755:B1 *2737:A2_N 0
16 *2755:B1 *2761:A1_N 5.52302e-05
17 *710:10 *716:12 0.000101545
*RES
1 *2736:Y *716:12 20.4786 
2 *716:12 *2761:A1_N 10.2464 
3 *716:12 *2737:A2_N 23.6929 
*END

*D_NET *717 0.000862307
*CONN
*I *2738:B1 I *D sky130_fd_sc_hd__a22o_1
*I *2737:X O *D sky130_fd_sc_hd__a2bb2o_1
*CAP
1 *2738:B1 0.000356186
2 *2737:X 0.000356186
3 *2738:B1 *2447:B 5.37908e-05
4 *2738:B1 *2719:A1_N 2.70944e-05
5 *2738:B1 *2737:B2 3.73489e-05
6 *2738:B1 *888:63 2.59355e-05
7 *506:8 *2738:B1 5.7661e-06
*RES
1 *2737:X *2738:B1 24.0821 
*END

*D_NET *718 0.00428127
*CONN
*I *2741:B I *D sky130_fd_sc_hd__nand2_1
*I *2748:A2 I *D sky130_fd_sc_hd__o21ai_1
*I *2745:B1 I *D sky130_fd_sc_hd__o22a_1
*I *2756:A2 I *D sky130_fd_sc_hd__o21ai_1
*I *2743:A2 I *D sky130_fd_sc_hd__o221a_2
*I *2777:A3 I *D sky130_fd_sc_hd__a31o_1
*I *2739:Y O *D sky130_fd_sc_hd__nor2_2
*CAP
1 *2741:B 0
2 *2748:A2 4.33233e-05
3 *2745:B1 0
4 *2756:A2 6.29241e-05
5 *2743:A2 0
6 *2777:A3 0.000113277
7 *2739:Y 0.00040398
8 *718:42 0.000141597
9 *718:36 0.000256685
10 *718:10 0.000131247
11 *718:8 0.000556638
12 *2748:A2 *2757:A2 9.90367e-05
13 *2748:A2 *720:12 4.884e-05
14 *2756:A2 *2745:B2 0.000265447
15 *2756:A2 *2756:B1 0.000178847
16 *2756:A2 *722:23 4.72818e-05
17 *2777:A3 *737:16 0
18 *718:8 *2406:A 0.000355002
19 *718:8 *2739:A 1.02821e-05
20 *718:8 *2762:A2 2.89016e-05
21 *718:8 *3117:A 9.71197e-05
22 *718:10 *3359:A 3.34295e-05
23 *718:10 *737:16 0
24 *718:36 *2743:B1 1.15281e-05
25 *718:36 *3359:A 0.000103267
26 *718:36 *720:12 9.99644e-06
27 *718:42 *2752:B2 5.41794e-05
28 *718:42 *722:8 3.34366e-05
29 *718:42 *722:17 0.000150618
30 *2698:A1 *2777:A3 0.000316887
31 *471:14 *2777:A3 0.000364245
32 *471:14 *718:10 4.80729e-05
33 *471:14 *718:36 9.40167e-05
34 *471:14 *718:42 0.000221163
*RES
1 *2739:Y *718:8 21.3179 
2 *718:8 *718:10 0.732143 
3 *718:10 *2777:A3 18.4786 
4 *718:10 *2743:A2 13.8 
5 *718:8 *718:36 7.64286 
6 *718:36 *718:42 11.8571 
7 *718:42 *2756:A2 11.8893 
8 *718:42 *2745:B1 9.3 
9 *718:36 *2748:A2 10.6571 
10 *718:36 *2741:B 9.3 
*END

*D_NET *719 0.00196136
*CONN
*I *2751:A2 I *D sky130_fd_sc_hd__a221o_1
*I *2744:A2 I *D sky130_fd_sc_hd__a21bo_1
*I *2758:A2 I *D sky130_fd_sc_hd__a21bo_1
*I *2740:X O *D sky130_fd_sc_hd__or2_1
*CAP
1 *2751:A2 4.84438e-05
2 *2744:A2 2.24369e-05
3 *2758:A2 0.000199657
4 *2740:X 0.000140293
5 *719:23 7.08807e-05
6 *719:10 0.00033995
7 *2751:A2 *2744:A1 3.99614e-06
8 *2751:A2 *2752:A2 0.000117552
9 *2751:A2 *2752:B1 8.71111e-05
10 *2758:A2 *2745:B2 0.000183726
11 *2758:A2 *722:29 0.000226513
12 *2758:A2 *722:46 0
13 *2758:A2 *782:43 0.000160396
14 *2758:A2 *782:45 3.34366e-05
15 *719:10 *2747:A1 9.90367e-05
16 *719:10 *2747:S 0
17 *719:10 *782:43 0.00012401
18 *3102:D *2744:A2 5.33334e-05
19 *3102:D *2751:A2 8.43535e-06
20 *481:18 *2744:A2 4.21497e-05
*RES
1 *2740:X *719:10 16.3893 
2 *719:10 *2758:A2 18.5321 
3 *719:10 *719:23 4.5 
4 *719:23 *2744:A2 10.2464 
5 *719:23 *2751:A2 10.8804 
*END

*D_NET *720 0.00431855
*CONN
*I *2743:B1 I *D sky130_fd_sc_hd__o221a_2
*I *2755:B2 I *D sky130_fd_sc_hd__o32a_1
*I *2761:A2_N I *D sky130_fd_sc_hd__a2bb2o_1
*I *2746:A2 I *D sky130_fd_sc_hd__o21ai_1
*I *2742:A I *D sky130_fd_sc_hd__inv_2
*I *2741:Y O *D sky130_fd_sc_hd__nand2_1
*CAP
1 *2743:B1 0.000246298
2 *2755:B2 0
3 *2761:A2_N 0.000139714
4 *2746:A2 0
5 *2742:A 0.000204967
6 *2741:Y 0
7 *720:42 0.000490169
8 *720:27 0.000451163
9 *720:12 0.000660082
10 *720:4 0.000600705
11 *2742:A *2458:A 0
12 *2742:A *2747:A1 9.90367e-05
13 *2742:A *975:16 0
14 *2743:B1 *2719:A1_N 1.76039e-05
15 *2743:B1 *3359:A 0.000250201
16 *2743:B1 *737:16 0
17 *2743:B1 *1031:55 1.28809e-05
18 *2761:A2_N *737:16 0.000139913
19 *720:12 *2458:A 0
20 *720:12 *2746:B1 0.00015234
21 *720:12 *2752:B2 3.98524e-05
22 *720:12 *722:17 5.10822e-05
23 *720:27 *2747:A1 8.66063e-05
24 *720:42 *2727:B1 0.000101078
25 *720:42 *2746:A1 3.55552e-05
26 *720:42 *2755:A2 5.67624e-05
27 *720:42 *737:16 1.98839e-05
28 *2698:A1 *2743:B1 5.49589e-06
29 *2729:A *2761:A2_N 1.90111e-05
30 *2729:A *720:42 8.86512e-05
31 *2737:A2_N *2761:A2_N 5.04841e-06
32 *2748:A1 *720:12 0.000193118
33 *2748:A2 *720:12 4.884e-05
34 *2755:B1 *2761:A2_N 5.20562e-05
35 *2755:B1 *720:42 0
36 *2761:A1_N *2761:A2_N 2.89114e-05
37 *471:14 *2742:A 0
38 *471:14 *720:12 0
39 *718:36 *2743:B1 1.15281e-05
40 *718:36 *720:12 9.99644e-06
*RES
1 *2741:Y *720:4 9.3 
2 *720:4 *720:12 15.75 
3 *720:12 *2742:A 21.1929 
4 *720:12 *720:27 1.35714 
5 *720:27 *2746:A2 9.3 
6 *720:27 *720:42 6.46429 
7 *720:42 *2761:A2_N 12.7464 
8 *720:42 *2755:B2 9.3 
9 *720:4 *2743:B1 22.9473 
*END

*D_NET *721 0.00110247
*CONN
*I *2751:B1 I *D sky130_fd_sc_hd__a221o_1
*I *2742:Y O *D sky130_fd_sc_hd__inv_2
*CAP
1 *2751:B1 0.000293004
2 *2742:Y 0.000293004
3 *2751:B1 *2722:A 2.05612e-05
4 *2751:B1 *2747:A1 0.000130504
5 *2751:B1 *2751:C1 0.00018372
6 *2751:B1 *804:39 2.49484e-05
7 *2751:B2 *2751:B1 0.000156725
*RES
1 *2742:Y *2751:B1 32.5464 
*END

*D_NET *722 0.00561527
*CONN
*I *2752:B2 I *D sky130_fd_sc_hd__a22o_1
*I *2758:B1_N I *D sky130_fd_sc_hd__a21bo_1
*I *2757:B2 I *D sky130_fd_sc_hd__a22o_1
*I *2747:S I *D sky130_fd_sc_hd__mux2_1
*I *2744:B1_N I *D sky130_fd_sc_hd__a21bo_1
*I *2762:B2 I *D sky130_fd_sc_hd__a22o_1
*I *2748:B1 I *D sky130_fd_sc_hd__o21ai_1
*I *2743:X O *D sky130_fd_sc_hd__o221a_2
*CAP
1 *2752:B2 0.000145773
2 *2758:B1_N 0
3 *2757:B2 7.16326e-05
4 *2747:S 0.000145844
5 *2744:B1_N 1.99379e-05
6 *2762:B2 0.00023267
7 *2748:B1 0
8 *2743:X 8.47985e-05
9 *722:46 0.000314869
10 *722:29 0.000563372
11 *722:25 0.000279108
12 *722:23 0.000171548
13 *722:17 0.000344083
14 *722:8 0.000137421
15 *2744:B1_N *2744:A1 9.90367e-05
16 *2747:S *782:43 0
17 *2747:S *801:53 0
18 *2752:B2 *2746:B1 0.000128154
19 *2752:B2 *2747:A1 4.58194e-05
20 *2757:B2 *2458:A 0.000195547
21 *2757:B2 *2752:A1 0.00012401
22 *2757:B2 *2757:B1 1.3142e-05
23 *2757:B2 *783:52 5.41794e-05
24 *2762:B2 *2406:A 0
25 *2762:B2 *2762:A1 0
26 *2762:B2 *2762:A2 0.000144773
27 *2762:B2 *2762:B1 0
28 *2762:B2 *3248:A 0.000148189
29 *2762:B2 *782:45 0
30 *2762:B2 *784:21 7.90803e-05
31 *2762:B2 *801:42 0.00014285
32 *722:8 *2406:A 0
33 *722:23 *2745:B2 1.02936e-05
34 *722:23 *2756:B1 0.000137983
35 *722:23 *2757:B1 0.00014183
36 *722:25 *2757:B1 3.53079e-05
37 *722:29 *2745:B2 1.69961e-05
38 *722:29 *2757:A1 0.0001399
39 *722:29 *2757:B1 4.58194e-05
40 *722:29 *783:40 9.92409e-05
41 *722:46 *2405:B 1.59782e-05
42 *722:46 *782:45 0
43 *722:46 *783:21 0.000116582
44 *722:46 *801:53 0
45 *2748:A1 *722:8 1.41706e-05
46 *2748:A1 *722:17 1.5942e-05
47 *2756:A2 *722:23 4.72818e-05
48 *2758:A1 *722:23 2.14658e-05
49 *2758:A1 *722:25 9.60939e-05
50 *2758:A1 *722:29 9.60875e-05
51 *2758:A2 *722:29 0.000226513
52 *2758:A2 *722:46 0
53 *3157:A *2762:B2 0
54 *471:14 *2752:B2 8.56716e-05
55 *471:14 *722:8 5.97623e-05
56 *481:18 *2744:B1_N 5.33334e-05
57 *483:10 *722:8 0
58 *680:16 *2762:B2 0.00012401
59 *718:42 *2752:B2 5.41794e-05
60 *718:42 *722:8 3.34366e-05
61 *718:42 *722:17 0.000150618
62 *719:10 *2747:S 0
63 *720:12 *2752:B2 3.98524e-05
64 *720:12 *722:17 5.10822e-05
*RES
1 *2743:X *722:8 15.7464 
2 *722:8 *2748:B1 13.8 
3 *722:8 *722:17 1.94643 
4 *722:17 *722:23 7.92857 
5 *722:23 *722:25 0.946429 
6 *722:25 *722:29 9.55357 
7 *722:29 *2762:B2 19.8357 
8 *722:29 *722:46 3.51786 
9 *722:46 *2744:B1_N 14.7464 
10 *722:46 *2747:S 16.05 
11 *722:25 *2757:B2 20.8536 
12 *722:23 *2758:B1_N 9.3 
13 *722:17 *2752:B2 17.6036 
*END

*D_NET *723 0.00108495
*CONN
*I *2752:A2 I *D sky130_fd_sc_hd__a22o_1
*I *2744:X O *D sky130_fd_sc_hd__a21bo_1
*CAP
1 *2752:A2 0.000238994
2 *2744:X 0.000238994
3 *2752:A2 *2752:A1 0.000194149
4 *2752:A2 *2752:B1 0.00017062
5 *2751:A2 *2752:A2 0.000117552
6 *2751:B2 *2752:A2 3.04785e-05
7 *481:18 *2752:A2 9.41642e-05
*RES
1 *2744:X *2752:A2 24.7786 
*END

*D_NET *724 0.00037623
*CONN
*I *2746:B1 I *D sky130_fd_sc_hd__o21ai_1
*I *2745:X O *D sky130_fd_sc_hd__o22a_1
*CAP
1 *2746:B1 4.33115e-05
2 *2745:X 4.33115e-05
3 *2752:B2 *2746:B1 0.000128154
4 *471:14 *2746:B1 9.11365e-06
5 *720:12 *2746:B1 0.00015234
*RES
1 *2745:X *2746:B1 29.5464 
*END

*D_NET *725 0.00225861
*CONN
*I *2747:A1 I *D sky130_fd_sc_hd__mux2_1
*I *2746:Y O *D sky130_fd_sc_hd__o21ai_1
*CAP
1 *2747:A1 0.000519953
2 *2746:Y 0.000519953
3 *2747:A1 *2722:A 6.05161e-06
4 *2747:A1 *2740:B 0.000193814
5 *2747:A1 *2751:C1 6.01571e-05
6 *2747:A1 *2752:B1 0.00027032
7 *2747:A1 *804:39 1.39726e-05
8 *2747:A1 *975:24 4.29471e-05
9 *2742:A *2747:A1 9.90367e-05
10 *2751:B1 *2747:A1 0.000130504
11 *2751:B2 *2747:A1 2.10469e-05
12 *2752:B2 *2747:A1 4.58194e-05
13 *3101:D *2747:A1 0
14 *3102:D *2747:A1 9.41642e-05
15 *704:8 *2747:A1 5.52302e-05
16 *719:10 *2747:A1 9.90367e-05
17 *720:27 *2747:A1 8.66063e-05
*RES
1 *2746:Y *2747:A1 39.6179 
*END

*D_NET *726 0.00107281
*CONN
*I *2757:A2 I *D sky130_fd_sc_hd__a22o_1
*I *2748:Y O *D sky130_fd_sc_hd__o21ai_1
*CAP
1 *2757:A2 0.00021285
2 *2748:Y 0.00021285
3 *2757:A2 *2406:C 3.14078e-05
4 *2757:A2 *783:52 8.81983e-05
5 *2748:A2 *2757:A2 9.90367e-05
6 *482:12 *2757:A2 3.05446e-05
7 *483:10 *2757:A2 0.000397918
*RES
1 *2748:Y *2757:A2 24.4929 
*END

*D_NET *727 0.000895778
*CONN
*I *2750:B1 I *D sky130_fd_sc_hd__a21oi_1
*I *2749:Y O *D sky130_fd_sc_hd__o21ai_1
*CAP
1 *2750:B1 0.000256809
2 *2749:Y 0.000256809
3 *2750:B1 *2722:A 5.52238e-05
4 *2750:B1 *2728:B 5.30637e-06
5 *2750:B1 *2751:C1 7.43578e-06
6 *2750:B1 *2754:A1 0.000136958
7 *2750:B1 *3245:A 2.15245e-05
8 *2750:B1 *3329:A 7.83659e-05
9 *2750:B1 *3359:A 1.95035e-05
10 *2750:B1 *957:18 5.41797e-06
11 *2750:B1 *957:20 2.80507e-05
12 *2750:B1 *957:22 2.43739e-05
*RES
1 *2749:Y *2750:B1 31.9571 
*END

*D_NET *728 0.0015196
*CONN
*I *2751:C1 I *D sky130_fd_sc_hd__a221o_1
*I *2750:Y O *D sky130_fd_sc_hd__a21oi_1
*CAP
1 *2751:C1 0.000320182
2 *2750:Y 0.000320182
3 *2751:C1 *2458:A 0.000480354
4 *2751:C1 *2722:A 8.30591e-05
5 *2751:C1 *975:24 4.28365e-05
6 *2747:A1 *2751:C1 6.01571e-05
7 *2750:B1 *2751:C1 7.43578e-06
8 *2751:B1 *2751:C1 0.00018372
9 *2751:B2 *2751:C1 2.16719e-05
*RES
1 *2750:Y *2751:C1 35.3143 
*END

*D_NET *729 0.00109852
*CONN
*I *2752:B1 I *D sky130_fd_sc_hd__a22o_1
*I *2751:X O *D sky130_fd_sc_hd__a221o_1
*CAP
1 *2752:B1 0.00017358
2 *2751:X 0.00017358
3 *2752:B1 *2744:A1 0
4 *2752:B1 *2746:A1 0
5 *2752:B1 *2752:A1 1.74352e-05
6 *2747:A1 *2752:B1 0.00027032
7 *2751:A2 *2752:B1 8.71111e-05
8 *2751:B2 *2752:B1 0.000124649
9 *2752:A2 *2752:B1 0.00017062
10 *3102:D *2752:B1 8.12253e-05
*RES
1 *2751:X *2752:B1 24.5107 
*END

*D_NET *730 0.0030914
*CONN
*I *2760:A2 I *D sky130_fd_sc_hd__o21a_1
*I *2755:A2 I *D sky130_fd_sc_hd__o32a_1
*I *2759:B I *D sky130_fd_sc_hd__nand2_1
*I *2753:X O *D sky130_fd_sc_hd__and3_1
*CAP
1 *2760:A2 0
2 *2755:A2 2.95827e-05
3 *2759:B 0.000181205
4 *2753:X 0.00021569
5 *730:24 0.000536533
6 *730:12 0.000541435
7 *2759:B *2727:B1 1.7606e-05
8 *2759:B *2755:A3 3.34295e-05
9 *2759:B *737:16 0.000128146
10 *730:12 *2753:A 5.33005e-05
11 *730:12 *2754:B1 9.09593e-05
12 *730:12 *2760:B1 0.000121573
13 *730:12 *3245:A 1.87175e-05
14 *730:12 *881:14 1.24368e-05
15 *730:12 *963:22 5.5064e-06
16 *730:12 *964:10 0.000113038
17 *730:12 *964:20 1.02504e-05
18 *730:24 *2736:A 0.000307207
19 *730:24 *2755:A3 0.000116474
20 *730:24 *2760:B1 5.71472e-05
21 *730:24 *2761:B2 2.89016e-05
22 *730:24 *2802:CLK 3.99614e-06
23 *2729:A *2755:A2 9.41642e-05
24 *2729:B *730:24 7.49387e-06
25 *2736:B *730:24 1.04232e-05
26 *2755:A1 *2759:B 4.30584e-06
27 *3114:A *2759:B 0.000107035
28 *3114:A *730:24 6.19181e-05
29 *501:40 *2759:B 7.61932e-05
30 *709:6 *730:24 2.40379e-05
31 *716:12 *730:24 2.59355e-05
32 *720:42 *2755:A2 5.67624e-05
*RES
1 *2753:X *730:12 22.1214 
2 *730:12 *730:24 12.1786 
3 *730:24 *2759:B 18.0143 
4 *730:24 *2755:A2 14.7464 
5 *730:12 *2760:A2 9.3 
*END

*D_NET *731 0.000896346
*CONN
*I *2755:A3 I *D sky130_fd_sc_hd__o32a_1
*I *2754:Y O *D sky130_fd_sc_hd__a21oi_1
*CAP
1 *2755:A3 0.000189247
2 *2754:Y 0.000189247
3 *2755:A3 *2727:B1 0.000240214
4 *2755:A3 *3245:A 3.14179e-06
5 *2755:A3 *976:12 6.95716e-05
6 *2759:B *2755:A3 3.34295e-05
7 *3114:A *2755:A3 5.50225e-05
8 *730:24 *2755:A3 0.000116474
*RES
1 *2754:Y *2755:A3 32.4884 
*END

*D_NET *732 0.0013831
*CONN
*I *2756:B1 I *D sky130_fd_sc_hd__o21ai_1
*I *2755:X O *D sky130_fd_sc_hd__o32a_1
*CAP
1 *2756:B1 0.00023442
2 *2755:X 0.00023442
3 *2756:B1 *2719:A1_N 3.17148e-05
4 *2756:B1 *2745:A1 9.90367e-05
5 *2756:B1 *2745:B2 1.98839e-05
6 *2756:B1 *957:22 0.000128161
7 *2741:A *2756:B1 5.33005e-05
8 *2755:A1 *2756:B1 8.16036e-05
9 *2756:A2 *2756:B1 0.000178847
10 *501:42 *2756:B1 0.000183726
11 *722:23 *2756:B1 0.000137983
*RES
1 *2755:X *2756:B1 34.1893 
*END

*D_NET *733 0.00108501
*CONN
*I *2757:B1 I *D sky130_fd_sc_hd__a22o_1
*I *2756:Y O *D sky130_fd_sc_hd__o21ai_1
*CAP
1 *2757:B1 0.000287496
2 *2756:Y 0.000287496
3 *2757:B1 *2752:A1 6.81083e-05
4 *2757:B1 *2757:A1 0.000149911
5 *2757:B1 *783:52 5.59013e-05
6 *2757:B2 *2757:B1 1.3142e-05
7 *722:23 *2757:B1 0.00014183
8 *722:25 *2757:B1 3.53079e-05
9 *722:29 *2757:B1 4.58194e-05
*RES
1 *2756:Y *2757:B1 32.5464 
*END

*D_NET *734 0.00183845
*CONN
*I *2762:A2 I *D sky130_fd_sc_hd__a22o_1
*I *2758:X O *D sky130_fd_sc_hd__a21bo_1
*CAP
1 *2762:A2 0.000437234
2 *2758:X 0.000437234
3 *2762:A2 *2406:A 9.25049e-05
4 *2762:A2 *2739:A 0.000142856
5 *2762:A2 *2739:B 3.97677e-05
6 *2762:A2 *2762:A1 3.18676e-05
7 *2762:A2 *782:45 6.32633e-05
8 *2762:A2 *801:34 0
9 *2762:A2 *801:42 8.72571e-05
10 *2762:A2 *804:39 0.000332786
11 *2762:B2 *2762:A2 0.000144773
12 *680:16 *2762:A2 0
13 *718:8 *2762:A2 2.89016e-05
*RES
1 *2758:X *2762:A2 38.2786 
*END

*D_NET *735 0.000679503
*CONN
*I *2761:B1 I *D sky130_fd_sc_hd__a2bb2o_1
*I *2759:Y O *D sky130_fd_sc_hd__nand2_1
*CAP
1 *2761:B1 0.000228649
2 *2759:Y 0.000228649
3 *2761:B1 *2759:A 2.61099e-05
4 *2761:B1 *964:20 5.13232e-05
5 *2761:B1 *1001:8 0
6 *506:8 *2761:B1 0.000144773
*RES
1 *2759:Y *2761:B1 31.1179 
*END

*D_NET *736 0.000346516
*CONN
*I *2761:B2 I *D sky130_fd_sc_hd__a2bb2o_1
*I *2760:X O *D sky130_fd_sc_hd__o21a_1
*CAP
1 *2761:B2 0.000123599
2 *2760:X 0.000123599
3 *2761:B2 *964:20 8.49861e-06
4 *716:12 *2761:B2 6.19181e-05
5 *730:24 *2761:B2 2.89016e-05
*RES
1 *2760:X *2761:B2 29.7786 
*END

*D_NET *737 0.00484121
*CONN
*I *2762:B1 I *D sky130_fd_sc_hd__a22o_1
*I *2761:X O *D sky130_fd_sc_hd__a2bb2o_1
*CAP
1 *2762:B1 0.000116806
2 *2761:X 0.00174561
3 *737:16 0.00186241
4 *737:16 *2719:A1_N 0
5 *737:16 *3115:A 6.62761e-05
6 *2743:B1 *737:16 0
7 *2755:A1 *737:16 9.57064e-05
8 *2759:B *737:16 0.000128146
9 *2761:A2_N *737:16 0.000139913
10 *2762:B2 *2762:B1 0
11 *2777:A3 *737:16 0
12 *2778:A1 *737:16 0.000345291
13 *3114:A *737:16 0.00018374
14 *3157:A *2762:B1 0
15 *484:6 *737:16 0.000137427
16 *680:16 *2762:B1 0
17 *718:10 *737:16 0
18 *720:42 *737:16 1.98839e-05
*RES
1 *2761:X *737:16 48.6214 
2 *737:16 *2762:B1 15.7464 
*END

*D_NET *738 0.0127266
*CONN
*I *2764:A4 I *D sky130_fd_sc_hd__o41a_2
*I *2778:A2 I *D sky130_fd_sc_hd__a21oi_1
*I *2763:X O *D sky130_fd_sc_hd__and2b_1
*CAP
1 *2764:A4 0.000187868
2 *2778:A2 0.00233034
3 *2763:X 0.00136214
4 *738:14 0.00388034
5 *2764:A4 *2694:B 8.77729e-05
6 *2764:A4 *2764:A1 5.52238e-05
7 *2778:A2 *2464:C 0
8 *2778:A2 *2717:A3 0.00056243
9 *2778:A2 *2779:D 1.98839e-05
10 *2778:A2 *868:39 5.23067e-05
11 *2778:A2 *883:119 0
12 *2778:A2 *883:127 9.60875e-05
13 *2778:A2 *885:50 2.43626e-05
14 *2778:A2 *929:8 3.98154e-05
15 *2778:A2 *950:70 0.00038814
16 *738:14 *2687:A 0.000136242
17 *738:14 *883:119 0
18 *738:14 *1033:14 0
19 *738:14 *1039:14 7.56271e-05
20 *2409:A1 *2778:A2 1.02504e-05
21 *2487:A *738:14 0.000171368
22 *2686:A1 *738:14 0
23 *2709:C *2764:A4 0
24 *2710:D_N *738:14 0.000546986
25 *2712:A *2778:A2 0.000230672
26 *2776:A2 *2778:A2 0.000214991
27 *2778:A1 *2778:A2 5.33005e-05
28 *3191:A *738:14 0.000537028
29 *475:25 *2778:A2 0.000666954
30 *475:31 *2778:A2 0.000552241
31 *504:12 *738:14 0
32 *672:26 *2764:A4 0.000113789
33 *675:14 *2764:A4 9.39681e-05
34 *676:12 *2764:A4 5.33005e-05
35 *678:10 *738:14 4.57445e-05
36 *690:26 *2778:A2 0.00013747
*RES
1 *2763:X *738:14 34.0261 
2 *738:14 *2778:A2 27.3119 
3 *738:14 *2764:A4 21.7189 
*END

*D_NET *739 0.00552026
*CONN
*I *2769:A I *D sky130_fd_sc_hd__nand2_1
*I *2772:A2 I *D sky130_fd_sc_hd__o22a_1
*I *2767:S I *D sky130_fd_sc_hd__mux2_1
*I *2770:A1_N I *D sky130_fd_sc_hd__o2bb2a_1
*I *2775:B2 I *D sky130_fd_sc_hd__a22o_1
*I *2764:X O *D sky130_fd_sc_hd__o41a_2
*CAP
1 *2769:A 0.000129455
2 *2772:A2 0
3 *2767:S 0.000220905
4 *2770:A1_N 0
5 *2775:B2 0.000124599
6 *2764:X 0.000264939
7 *739:18 0.000145868
8 *739:16 0.00045971
9 *739:10 0.000520569
10 *739:6 0.000697427
11 *2767:S *1007:22 0.000218026
12 *2769:A *888:105 0.000262806
13 *2769:A *888:122 5.83304e-05
14 *2769:A *980:10 0.000158664
15 *2775:B2 *3105:RESET_B 9.47456e-05
16 *2775:B2 *794:14 0.000173097
17 *739:6 *888:10 0.000184798
18 *739:6 *888:105 0.000186662
19 *739:10 *2772:B2 3.67257e-05
20 *739:16 *2770:A2_N 0.000151333
21 *739:16 *794:14 0.000213642
22 *2770:B1 *2767:S 0.000136951
23 *2770:B2 *2767:S 9.60771e-05
24 *2771:A *739:6 1.21289e-05
25 *2771:A *739:10 0.000138682
26 *2773:A_N *2767:S 0
27 *2773:D *2767:S 0.000170661
28 *3106:D *739:10 0.000138881
29 *3289:A *2767:S 8.41815e-05
30 *3289:A *2775:B2 9.28316e-05
31 *3289:A *739:18 5.4633e-05
32 *505:44 *739:16 0.00029293
*RES
1 *2764:X *739:6 13.1214 
2 *739:6 *739:10 5.89286 
3 *739:10 *739:16 16.1071 
4 *739:16 *739:18 0.549107 
5 *739:18 *2775:B2 21.483 
6 *739:18 *2770:A1_N 9.3 
7 *739:16 *2767:S 24.5857 
8 *739:10 *2772:A2 9.3 
9 *739:6 *2769:A 22.3714 
*END

*D_NET *740 0.00266294
*CONN
*I *2766:C1 I *D sky130_fd_sc_hd__a221o_1
*I *2765:Y O *D sky130_fd_sc_hd__nor2_1
*CAP
1 *2766:C1 0.000574314
2 *2765:Y 0.000574314
3 *2766:C1 *2766:B2 4.44519e-05
4 *2766:C1 *2767:A1 0.000136852
5 *2766:C1 *2775:A1 0.000186317
6 *2766:C1 *2775:B1 5.33005e-05
7 *2766:C1 *3334:A 0.000150263
8 PADDR[1] *2766:C1 0.000225307
9 *2765:A *2766:C1 0.000226513
10 *2773:A_N *2766:C1 0.000265453
11 *3289:A *2766:C1 0.000142826
12 *115:53 *2766:C1 8.30271e-05
*RES
1 *2765:Y *2766:C1 41.9929 
*END

*D_NET *741 0.00139078
*CONN
*I *2767:A1 I *D sky130_fd_sc_hd__mux2_1
*I *2766:X O *D sky130_fd_sc_hd__a221o_1
*CAP
1 *2767:A1 0.000392516
2 *2766:X 0.000392516
3 *2767:A1 *2766:A1 0.000159009
4 *2767:A1 *2766:A2 0
5 *2767:A1 *2774:A1 5.29004e-05
6 *2767:A1 *2774:C1 5.28461e-05
7 *2767:A1 *1007:22 0.000127886
8 *2766:C1 *2767:A1 0.000136852
9 *3262:A *2767:A1 2.74588e-05
10 *115:53 *2767:A1 4.87953e-05
*RES
1 *2766:X *2767:A1 39.8461 
*END

*D_NET *742 0.0024334
*CONN
*I *2770:A2_N I *D sky130_fd_sc_hd__o2bb2a_1
*I *2769:B I *D sky130_fd_sc_hd__nand2_1
*I *2768:X O *D sky130_fd_sc_hd__a21o_1
*CAP
1 *2770:A2_N 6.366e-05
2 *2769:B 0.000448528
3 *2768:X 0.000432218
4 *742:6 0.000944405
5 *2769:B *2768:B1 1.59464e-05
6 *2769:B *3107:RESET_B 4.18073e-05
7 *2769:B *788:27 0
8 *2770:A2_N *794:14 0.000197984
9 *742:6 *2768:B1 3.59583e-05
10 *3107:D *2769:B 1.07719e-05
11 *116:23 *742:6 7.48091e-05
12 *505:44 *2770:A2_N 1.59782e-05
13 *739:16 *2770:A2_N 0.000151333
*RES
1 *2768:X *742:6 14.3536 
2 *742:6 *2769:B 14.5679 
3 *742:6 *2770:A2_N 20.8536 
*END

*D_NET *743 0.00111035
*CONN
*I *2775:A2 I *D sky130_fd_sc_hd__a22o_1
*I *2769:Y O *D sky130_fd_sc_hd__nand2_1
*CAP
1 *2775:A2 0.000191401
2 *2769:Y 0.000191401
3 *2775:A2 *2765:B 0.000221641
4 *2775:A2 *788:14 1.00375e-05
5 *2775:A2 *888:122 0.000153163
6 *2775:A2 *980:10 8.00806e-05
7 *2775:A2 *1033:60 0.000136951
8 *2775:A2 *1039:14 0.000125674
*RES
1 *2769:Y *2775:A2 33.85 
*END

*D_NET *744 0.00117304
*CONN
*I *2772:B1 I *D sky130_fd_sc_hd__o22a_1
*I *2770:X O *D sky130_fd_sc_hd__o2bb2a_1
*CAP
1 *2772:B1 0.000203345
2 *2770:X 0.000203345
3 *2772:B1 *3105:RESET_B 9.24395e-05
4 *2772:B1 *3106:RESET_B 2.05413e-05
5 *2772:B1 *794:14 0.0005288
6 *2772:B1 *953:76 4.00485e-05
7 *2772:B1 *972:10 8.452e-05
*RES
1 *2770:X *2772:B1 34.4036 
*END

*D_NET *745 0.000407676
*CONN
*I *2772:B2 I *D sky130_fd_sc_hd__o22a_1
*I *2771:X O *D sky130_fd_sc_hd__and2_1
*CAP
1 *2772:B2 6.54904e-05
2 *2771:X 6.54904e-05
3 *2772:B2 *2772:A1 5.52238e-05
4 *2771:A *2772:B2 0.000184745
5 *2771:B *2772:B2 0
6 *739:10 *2772:B2 3.67257e-05
*RES
1 *2771:X *2772:B2 20.7964 
*END

*D_NET *746 0.000778919
*CONN
*I *2774:C1 I *D sky130_fd_sc_hd__a221o_1
*I *2773:X O *D sky130_fd_sc_hd__and4b_1
*CAP
1 *2774:C1 0.000173488
2 *2773:X 0.000173488
3 *2774:C1 *2766:A1 5.33005e-05
4 *2774:C1 *2766:A2 0.000158012
5 *2774:C1 *3358:A 2.59355e-05
6 *2774:C1 *1007:22 0.000141849
7 *2767:A1 *2774:C1 5.28461e-05
*RES
1 *2773:X *2774:C1 32.2071 
*END

*D_NET *747 0.00137605
*CONN
*I *2775:B1 I *D sky130_fd_sc_hd__a22o_1
*I *2774:X O *D sky130_fd_sc_hd__a221o_1
*CAP
1 *2775:B1 0.000323451
2 *2774:X 0.000323451
3 *2775:B1 *2765:B 7.42572e-05
4 *2775:B1 *2774:B2 1.39726e-05
5 *2775:B1 *2775:A1 0.000104494
6 *2775:B1 *794:14 0.000360629
7 *2766:C1 *2775:B1 5.33005e-05
8 *3105:D *2775:B1 7.12607e-05
9 *505:44 *2775:B1 5.12344e-05
*RES
1 *2774:X *2775:B1 35.225 
*END

*D_NET *748 0.000133673
*CONN
*I *2779:B I *D sky130_fd_sc_hd__or4_2
*I *2776:X O *D sky130_fd_sc_hd__a32o_1
*CAP
1 *2779:B 3.92213e-05
2 *2776:X 3.92213e-05
3 *2779:B *929:38 5.52302e-05
*RES
1 *2776:X *2779:B 19.1357 
*END

*D_NET *749 0.000574363
*CONN
*I *2779:C I *D sky130_fd_sc_hd__or4_2
*I *2777:X O *D sky130_fd_sc_hd__a31o_1
*CAP
1 *2779:C 0.000175567
2 *2777:X 0.000175567
3 *2779:C *2716:A 3.71335e-05
4 *2779:C *885:50 9.66073e-06
5 *2779:A *2779:C 0.000176433
*RES
1 *2777:X *2779:C 30.6 
*END

*D_NET *750 0.00065555
*CONN
*I *2779:D I *D sky130_fd_sc_hd__or4_2
*I *2778:Y O *D sky130_fd_sc_hd__a21oi_1
*CAP
1 *2779:D 0.000231073
2 *2778:Y 0.000231073
3 *2779:D *2716:A 9.25014e-06
4 *2779:D *868:45 8.30045e-05
5 *2779:D *883:127 1.21258e-05
6 *2779:D *929:10 5.41797e-06
7 *2409:B1 *2779:D 8.6229e-06
8 *2776:A3 *2779:D 0
9 *2778:A1 *2779:D 5.06354e-05
10 *2778:A2 *2779:D 1.98839e-05
11 *672:65 *2779:D 4.46231e-06
*RES
1 *2778:Y *2779:D 30.6804 
*END

*D_NET *751 0.00701208
*CONN
*I *2780:A_N I *D sky130_fd_sc_hd__and2b_1
*I *2793:A2 I *D sky130_fd_sc_hd__a22o_1
*I *2781:A1 I *D sky130_fd_sc_hd__mux2_1
*I *2787:A2 I *D sky130_fd_sc_hd__a22o_1
*I *2797:A2 I *D sky130_fd_sc_hd__a22o_1
*I *2779:X O *D sky130_fd_sc_hd__or4_2
*CAP
1 *2780:A_N 0
2 *2793:A2 0.000194038
3 *2781:A1 0
4 *2787:A2 0.000139062
5 *2797:A2 0.000132893
6 *2779:X 0.00080311
7 *751:28 0.000367921
8 *751:26 0.000810183
9 *751:18 0.00132329
10 *2787:A2 *2781:S 2.50566e-05
11 *2787:A2 *2783:B1 0
12 *2787:A2 *2793:B2 0.000112995
13 *2787:A2 *945:42 1.02821e-05
14 *2793:A2 *2781:A0 0
15 *2793:A2 *2793:B1 4.11927e-05
16 *2793:A2 *3230:A 0.000192001
17 *2793:A2 *771:24 7.02993e-05
18 *2793:A2 *771:37 0.000102218
19 *2793:A2 *771:46 2.31791e-05
20 *2793:A2 *942:10 0
21 *2797:A2 *2781:A0 5.78834e-05
22 *2797:A2 *2793:B1 1.37292e-05
23 *2797:A2 *2793:B2 0.000121573
24 *2797:A2 *2797:A1 9.41642e-05
25 *2797:A2 *752:36 2.04825e-05
26 *2797:A2 *939:35 4.87953e-05
27 *751:18 *2693:A 2.40261e-05
28 *751:18 *2776:A1 0.000175892
29 *751:18 *2776:B2 7.32272e-05
30 *751:18 *801:10 0.00018372
31 *751:18 *883:127 0.000291532
32 *751:18 *929:38 8.25843e-06
33 *751:26 *2693:A 0
34 *751:26 *3238:A 0.000166407
35 *751:26 *801:10 0
36 *751:26 *945:12 0.000104974
37 *751:26 *945:42 0.00068575
38 *751:28 *945:42 0.000123673
39 *2712:A *751:18 4.50149e-05
40 *2776:A3 *751:18 0.000158776
41 *2776:B1 *751:18 1.5921e-05
42 *2778:A1 *751:18 0.000120724
43 *2783:A2 *2787:A2 2.89016e-05
44 *3108:D *751:26 5.91452e-05
45 *3108:D *751:28 3.69047e-06
46 *386:14 *2797:A2 3.81e-05
47 *680:16 *751:18 0
48 *680:16 *751:26 0
*RES
1 *2779:X *751:18 32.2464 
2 *751:18 *751:26 22.4643 
3 *751:26 *751:28 2.17857 
4 *751:28 *2797:A2 21.8 
5 *751:28 *2787:A2 12.3179 
6 *751:28 *2781:A1 9.3 
7 *751:26 *2793:A2 23.5857 
8 *751:18 *2780:A_N 9.3 
*END

*D_NET *752 0.00478249
*CONN
*I *2793:B1 I *D sky130_fd_sc_hd__a22o_1
*I *2781:A0 I *D sky130_fd_sc_hd__mux2_1
*I *2797:B1 I *D sky130_fd_sc_hd__a22o_1
*I *2787:B1 I *D sky130_fd_sc_hd__a22o_1
*I *2780:X O *D sky130_fd_sc_hd__and2b_1
*CAP
1 *2793:B1 0.000188582
2 *2781:A0 3.57279e-05
3 *2797:B1 1.99857e-05
4 *2787:B1 0.000274064
5 *2780:X 0.000794798
6 *752:36 0.000231749
7 *752:8 0.000465706
8 *752:6 0.000973893
9 *2787:B1 *2788:B1 0
10 *2787:B1 *2790:A 0.00019932
11 *2787:B1 *755:10 5.62119e-05
12 *2787:B1 *942:61 9.36423e-05
13 *2793:B1 *2793:B2 0
14 *2793:B1 *3230:A 0.000193715
15 *2793:B1 *939:35 0.000168656
16 *2797:B1 *2790:A 1.04232e-05
17 *752:6 *2797:A1 8.57023e-05
18 *752:6 *883:127 0.000231662
19 *752:6 *937:17 0.000432896
20 *752:8 *2790:A 1.02821e-05
21 *752:8 *2797:A1 0.000177821
22 *2783:A2 *2787:B1 4.36551e-06
23 *2793:A2 *2781:A0 0
24 *2793:A2 *2793:B1 4.11927e-05
25 *2797:A2 *2781:A0 5.78834e-05
26 *2797:A2 *2793:B1 1.37292e-05
27 *2797:A2 *752:36 2.04825e-05
*RES
1 *2780:X *752:6 20.1036 
2 *752:6 *752:8 2.17857 
3 *752:8 *2787:B1 22.7821 
4 *752:8 *2797:B1 9.72857 
5 *752:6 *752:36 4.77679 
6 *752:36 *2781:A0 14.6839 
7 *752:36 *2793:B1 18.3625 
*END

*D_NET *753 0.00575751
*CONN
*I *2790:B I *D sky130_fd_sc_hd__or2_1
*I *2795:B I *D sky130_fd_sc_hd__xnor2_1
*I *2789:B I *D sky130_fd_sc_hd__nand2_1
*I *2782:Y O *D sky130_fd_sc_hd__nand2_1
*CAP
1 *2790:B 4.53405e-05
2 *2795:B 0.00041762
3 *2789:B 0.000143952
4 *2782:Y 0.00128378
5 *753:23 0.000645551
6 *753:6 0.00161033
7 *2789:B *2789:A 0.000181259
8 *2790:B *2790:A 7.7797e-05
9 *2795:B *2790:A 1.55885e-05
10 *2795:B *2791:B 2.07491e-05
11 *2795:B *2795:A 5.04589e-05
12 *2795:B *2796:A 0.000142856
13 *2795:B *2796:B 9.41642e-05
14 *2795:B *759:12 7.06479e-05
15 *2795:B *760:6 7.77652e-05
16 *753:6 *2782:A 5.71472e-05
17 *753:6 *2789:A 2.59355e-05
18 *753:6 *938:12 4.72917e-05
19 *753:6 *942:46 0.0002126
20 *753:23 *2797:B2 0.000125371
21 *753:23 *938:12 2.97074e-05
22 *753:23 *938:25 5.66157e-05
23 *753:23 *942:46 0.000125731
24 *753:23 *942:61 0.000172007
25 *2784:C *753:23 2.72449e-05
26 *386:14 *753:23 0
*RES
1 *2782:Y *753:6 31.6036 
2 *753:6 *2789:B 12.7286 
3 *753:6 *753:23 14.2143 
4 *753:23 *2795:B 16.8714 
5 *753:23 *2790:B 10.5679 
*END

*D_NET *754 0.00163559
*CONN
*I *2788:B1 I *D sky130_fd_sc_hd__a21o_1
*I *2785:A_N I *D sky130_fd_sc_hd__nand2b_1
*I *2783:X O *D sky130_fd_sc_hd__o21a_1
*CAP
1 *2788:B1 0.00037861
2 *2785:A_N 0
3 *2783:X 0.00022004
4 *754:12 0.00059865
5 *2788:B1 *2785:B 8.46511e-05
6 *2788:B1 *2786:A 0.000217497
7 *2788:B1 *2786:B 5.62995e-05
8 *2788:B1 *2788:A2 5.71472e-05
9 *2788:B1 *758:10 1.21289e-05
10 *2788:B1 *801:82 0
11 *754:12 *801:82 0
12 *2787:B1 *2788:B1 0
13 *3109:D *2788:B1 1.0562e-05
*RES
1 *2783:X *754:12 22.0143 
2 *754:12 *2785:A_N 9.3 
3 *754:12 *2788:B1 25.4071 
*END

*D_NET *755 0.0027991
*CONN
*I *2788:A2 I *D sky130_fd_sc_hd__a21o_1
*I *2785:B I *D sky130_fd_sc_hd__nand2b_1
*I *2784:X O *D sky130_fd_sc_hd__or3_1
*CAP
1 *2788:A2 0.000194138
2 *2785:B 0.000228228
3 *2784:X 0.000364294
4 *755:10 0.00078666
5 *2785:B *2786:B 2.28499e-05
6 *2785:B *758:10 0.000140933
7 *2788:A2 *2786:A 0.00020908
8 *2788:A2 *2787:B2 9.25014e-06
9 *2788:A2 *3109:CLK 0
10 *2788:A2 *758:10 0.000193533
11 *2788:A2 *801:82 0
12 *755:10 *2787:B2 0.000150618
13 *755:10 *2794:A1 4.94362e-05
14 *755:10 *3229:A 5.52302e-05
15 *755:10 *758:10 5.03787e-05
16 *755:10 *759:12 0
17 *755:10 *942:46 1.88048e-05
18 *755:10 *942:61 8.18365e-05
19 *2783:A2 *755:10 0
20 *2787:B1 *755:10 5.62119e-05
21 *2788:B1 *2785:B 8.46511e-05
22 *2788:B1 *2788:A2 5.71472e-05
23 *3109:D *2788:A2 4.58194e-05
*RES
1 *2784:X *755:10 21.7464 
2 *755:10 *2785:B 17.6839 
3 *755:10 *2788:A2 18.7821 
*END

*D_NET *756 0.000172875
*CONN
*I *2786:B I *D sky130_fd_sc_hd__xnor2_1
*I *2785:Y O *D sky130_fd_sc_hd__nand2b_1
*CAP
1 *2786:B 1.92476e-05
2 *2785:Y 1.92476e-05
3 *2786:B *758:10 5.52302e-05
4 *2785:B *2786:B 2.28499e-05
5 *2788:B1 *2786:B 5.62995e-05
*RES
1 *2785:Y *2786:B 19.5464 
*END

*D_NET *757 0.000462717
*CONN
*I *2787:B2 I *D sky130_fd_sc_hd__a22o_1
*I *2786:Y O *D sky130_fd_sc_hd__xnor2_1
*CAP
1 *2787:B2 0.000123809
2 *2786:Y 0.000123809
3 *2787:B2 *758:10 5.52302e-05
4 *2787:B2 *939:12 0
5 *2783:A2 *2787:B2 0
6 *2788:A2 *2787:B2 9.25014e-06
7 *3109:D *2787:B2 0
8 *755:10 *2787:B2 0.000150618
*RES
1 *2786:Y *2787:B2 30.0821 
*END

*D_NET *758 0.00149504
*CONN
*I *2792:A I *D sky130_fd_sc_hd__xnor2_1
*I *2794:A1 I *D sky130_fd_sc_hd__a21bo_1
*I *2788:X O *D sky130_fd_sc_hd__a21o_1
*CAP
1 *2792:A 1.40568e-05
2 *2794:A1 0.000190255
3 *2788:X 0.0002024
4 *758:10 0.000406712
5 *2792:A *2783:B1 5.52238e-05
6 *2794:A1 *2784:B 9.15186e-06
7 *2794:A1 *759:12 8.6229e-06
8 *2794:A1 *801:82 0
9 *758:10 *2786:A 2.28499e-05
10 *758:10 *801:82 0
11 *2783:A2 *2792:A 2.89016e-05
12 *2785:B *758:10 0.000140933
13 *2786:B *758:10 5.52302e-05
14 *2787:B2 *758:10 5.52302e-05
15 *2788:A2 *758:10 0.000193533
16 *2788:B1 *758:10 1.21289e-05
17 *755:10 *2794:A1 4.94362e-05
18 *755:10 *758:10 5.03787e-05
*RES
1 *2788:X *758:10 19.05 
2 *758:10 *2794:A1 17.0143 
3 *758:10 *2792:A 14.3357 
*END

*D_NET *759 0.00172767
*CONN
*I *2791:A I *D sky130_fd_sc_hd__nand2_1
*I *2794:B1_N I *D sky130_fd_sc_hd__a21bo_1
*I *2789:Y O *D sky130_fd_sc_hd__nand2_1
*CAP
1 *2791:A 0.000137657
2 *2794:B1_N 0
3 *2789:Y 0.000239392
4 *759:12 0.000377049
5 *2791:A *2791:B 0.000381683
6 *2791:A *2795:A 0.000186662
7 *2791:A *2796:B 8.43535e-06
8 *759:12 *2784:B 4.60232e-06
9 *759:12 *2791:B 4.70078e-05
10 *759:12 *2796:A 0.000159154
11 *759:12 *2796:B 0.000106761
12 *759:12 *936:10 0
13 *759:12 *942:46 0
14 *2794:A1 *759:12 8.6229e-06
15 *2795:B *759:12 7.06479e-05
16 *755:10 *759:12 0
*RES
1 *2789:Y *759:12 23.7286 
2 *759:12 *2794:B1_N 9.3 
3 *759:12 *2791:A 13.8714 
*END

*D_NET *760 0.00170109
*CONN
*I *2791:B I *D sky130_fd_sc_hd__nand2_1
*I *2794:A2 I *D sky130_fd_sc_hd__a21bo_1
*I *2790:X O *D sky130_fd_sc_hd__or2_1
*CAP
1 *2791:B 0.000529344
2 *2794:A2 0
3 *2790:X 5.75977e-05
4 *760:6 0.000586942
5 *2791:B *2790:A 0
6 *2791:A *2791:B 0.000381683
7 *2795:B *2791:B 2.07491e-05
8 *2795:B *760:6 7.77652e-05
9 *759:12 *2791:B 4.70078e-05
*RES
1 *2790:X *760:6 10.6571 
2 *760:6 *2794:A2 9.3 
3 *760:6 *2791:B 17.05 
*END

*D_NET *761 0.00104207
*CONN
*I *2792:B I *D sky130_fd_sc_hd__xnor2_1
*I *2791:Y O *D sky130_fd_sc_hd__nand2_1
*CAP
1 *2792:B 0.000387589
2 *2791:Y 0.000387589
3 *2792:B *2783:B1 0.000125057
4 *2792:B *2784:B 0
5 *2792:B *801:82 0
6 *2783:A2 *2792:B 0.00014183
*RES
1 *2791:Y *2792:B 34.9036 
*END

*D_NET *762 0.00201346
*CONN
*I *2793:B2 I *D sky130_fd_sc_hd__a22o_1
*I *2792:Y O *D sky130_fd_sc_hd__xnor2_1
*CAP
1 *2793:B2 0.000497071
2 *2792:Y 0.000497071
3 *2793:B2 *2783:B1 0.000141445
4 *2793:B2 *3229:A 9.90431e-05
5 *2793:B2 *3231:A 0.00010096
6 *2793:B2 *939:35 2.99612e-05
7 *2783:A2 *2793:B2 7.49387e-06
8 *2787:A2 *2793:B2 0.000112995
9 *2793:B1 *2793:B2 0
10 *2797:A2 *2793:B2 0.000121573
11 *3111:D *2793:B2 7.72916e-05
12 *386:14 *2793:B2 0.000328556
*RES
1 *2792:Y *2793:B2 37.1536 
*END

*D_NET *763 0.000881062
*CONN
*I *2796:A I *D sky130_fd_sc_hd__xnor2_1
*I *2794:X O *D sky130_fd_sc_hd__a21bo_1
*CAP
1 *2796:A 0.000202414
2 *2794:X 0.000202414
3 *2796:A *2784:B 9.41642e-05
4 *2796:A *2796:B 3.51442e-05
5 *2796:A *3229:A 3.4879e-05
6 *2796:A *936:10 1.00375e-05
7 *2795:B *2796:A 0.000142856
8 *759:12 *2796:A 0.000159154
*RES
1 *2794:X *2796:A 40.975 
*END

*D_NET *764 0.000573331
*CONN
*I *2796:B I *D sky130_fd_sc_hd__xnor2_1
*I *2795:Y O *D sky130_fd_sc_hd__xnor2_1
*CAP
1 *2796:B 9.87445e-05
2 *2795:Y 9.87445e-05
3 *2796:B *2784:B 9.80405e-05
4 *2796:B *2795:A 6.05161e-06
5 *2796:B *936:10 2.72449e-05
6 *2791:A *2796:B 8.43535e-06
7 *2795:B *2796:B 9.41642e-05
8 *2796:A *2796:B 3.51442e-05
9 *759:12 *2796:B 0.000106761
*RES
1 *2795:Y *2796:B 30.4929 
*END

*D_NET *765 0.000998373
*CONN
*I *2797:B2 I *D sky130_fd_sc_hd__a22o_1
*I *2796:Y O *D sky130_fd_sc_hd__xnor2_1
*CAP
1 *2797:B2 0.000168029
2 *2796:Y 0.000168029
3 *2797:B2 *2784:B 0.000227532
4 *2797:B2 *3229:A 0.000106141
5 *2797:B2 *942:61 2.12933e-05
6 *2783:A2 *2797:B2 8.37216e-05
7 *2784:C *2797:B2 9.82557e-05
8 *753:23 *2797:B2 0.000125371
*RES
1 *2796:Y *2797:B2 32.85 
*END

*D_NET *766 0.00349032
*CONN
*I *2452:A I *D sky130_fd_sc_hd__and3_1
*I *2449:B1 I *D sky130_fd_sc_hd__a211oi_1
*I *2451:A_N I *D sky130_fd_sc_hd__and3b_1
*I *2450:C I *D sky130_fd_sc_hd__and3b_1
*I *2842:Q O *D sky130_fd_sc_hd__dlxtn_1
*CAP
1 *2452:A 2.98382e-05
2 *2449:B1 8.07009e-05
3 *2451:A_N 0
4 *2450:C 3.34103e-05
5 *2842:Q 2.23854e-05
6 *766:27 0.000303032
7 *766:12 0.000582306
8 *766:6 0.000378789
9 *2449:B1 *2449:C1 7.83659e-05
10 *2449:B1 *2451:B 4.18895e-05
11 *2449:B1 *3336:A 6.8646e-06
12 *2449:B1 *767:23 9.90431e-05
13 *2450:C *2689:A 5.33005e-05
14 *2452:A *935:14 9.99644e-06
15 *766:12 *2452:B 0
16 *766:12 *935:14 7.03103e-05
17 *766:27 *2689:A 0
18 *766:27 *767:23 9.41642e-05
19 *766:27 *965:12 0.000245335
20 *2448:B *2449:B1 0.000100831
21 *2453:A *2449:B1 3.15101e-05
22 *2453:A *766:12 0
23 *2453:A *766:27 2.22999e-05
24 *2840:D *766:12 0.000186669
25 *2843:D *766:12 6.42338e-05
26 *431:10 *766:12 0.00050462
27 *431:10 *766:27 0.000450427
*RES
1 *2842:Q *766:6 9.72857 
2 *766:6 *766:12 13.1786 
3 *766:12 *2450:C 14.3357 
4 *766:12 *766:27 11.3393 
5 *766:27 *2451:A_N 9.3 
6 *766:27 *2449:B1 20.9964 
7 *766:6 *2452:A 9.83571 
*END

*D_NET *767 0.00486049
*CONN
*I *2452:B I *D sky130_fd_sc_hd__and3_1
*I *2451:B I *D sky130_fd_sc_hd__and3b_1
*I *2449:C1 I *D sky130_fd_sc_hd__a211oi_1
*I *2450:A_N I *D sky130_fd_sc_hd__and3b_1
*I *2843:Q O *D sky130_fd_sc_hd__dlxtn_1
*CAP
1 *2452:B 0.000328005
2 *2451:B 7.90749e-05
3 *2449:C1 4.8e-05
4 *2450:A_N 0
5 *2843:Q 0
6 *767:23 0.00057812
7 *767:10 0.000872161
8 *767:4 0.000749121
9 *2449:C1 *3336:A 6.42338e-05
10 *2452:B *2675:A1 3.34295e-05
11 *2452:B *880:43 6.2833e-05
12 *767:10 *885:106 0.00017309
13 *767:23 *794:14 1.50181e-05
14 *767:23 *883:14 5.74562e-05
15 *767:23 *885:106 0.00041474
16 *2448:B *2449:C1 2.82057e-05
17 *2448:B *2451:B 6.05161e-06
18 *2449:B1 *2449:C1 7.83659e-05
19 *2449:B1 *2451:B 4.18895e-05
20 *2449:B1 *767:23 9.90431e-05
21 *2452:C *2452:B 0.000346632
22 *2453:A *2452:B 5.22701e-05
23 *2453:A *767:10 6.05161e-06
24 *2840:D *2452:B 4.57445e-05
25 *2843:D *767:10 0.000112995
26 *3189:A *767:23 0.000133012
27 *431:10 *2452:B 0
28 *433:10 *767:10 0.000174805
29 *433:10 *767:23 0.000117903
30 *507:29 *2452:B 4.80729e-05
31 *766:12 *2452:B 0
32 *766:27 *767:23 9.41642e-05
*RES
1 *2843:Q *767:4 9.3 
2 *767:4 *767:10 10.9821 
3 *767:10 *2450:A_N 13.8 
4 *767:10 *767:23 13.6071 
5 *767:23 *2449:C1 19.9429 
6 *767:23 *2451:B 10.2464 
7 *767:4 *2452:B 26.4071 
*END

*D_NET *768 0.0020391
*CONN
*I *2763:B I *D sky130_fd_sc_hd__and2b_1
*I *2840:Q O *D sky130_fd_sc_hd__dlxtn_1
*CAP
1 *2763:B 0.000897756
2 *2840:Q 0.000897756
3 *2763:B *2763:A_N 7.6644e-05
4 *2840:GATE_N *2763:B 1.92905e-05
5 *2841:D *2763:B 4.70048e-05
6 *433:16 *2763:B 7.6644e-05
7 *433:35 *2763:B 2.39999e-05
*RES
1 *2840:Q *2763:B 38.35 
*END

*D_NET *769 0.000653508
*CONN
*I *2763:A_N I *D sky130_fd_sc_hd__and2b_1
*I *2841:Q O *D sky130_fd_sc_hd__dlxtn_1
*CAP
1 *2763:A_N 0.000205178
2 *2841:Q 0.000205178
3 *2763:A_N *794:14 0.000125724
4 *2763:B *2763:A_N 7.6644e-05
5 *2841:D *2763:A_N 3.69047e-06
6 *433:16 *2763:A_N 3.70933e-05
*RES
1 *2841:Q *2763:A_N 31.0107 
*END

*D_NET *770 0.00313582
*CONN
*I *3116:A I *D sky130_fd_sc_hd__clkbuf_16
*I *3115:A I *D sky130_fd_sc_hd__clkbuf_16
*I *3114:X O *D sky130_fd_sc_hd__clkbuf_16
*CAP
1 *3116:A 9.17553e-05
2 *3115:A 0.000654948
3 *3114:X 6.55161e-05
4 *770:8 0.00081222
5 *3115:A *2395:A 1.55885e-05
6 *3115:A *1031:35 1.46576e-05
7 *3115:A *1031:41 8.14299e-05
8 *3116:A *995:12 0.000222156
9 *3116:A *1031:41 6.8646e-06
10 *770:8 *995:12 0.000149911
11 *770:8 *1031:35 0.000148189
12 *2408:A *3115:A 5.71472e-05
13 *2704:C1 *3115:A 9.90367e-05
14 *2715:A2_N *3116:A 3.13225e-05
15 *2743:C1 *3116:A 0.000126439
16 *472:6 *3115:A 1.32552e-05
17 *484:6 *3115:A 2.44318e-05
18 *672:26 *3115:A 0.000454672
19 *737:16 *3115:A 6.62761e-05
*RES
1 *3114:X *770:8 15.7464 
2 *770:8 *3115:A 26.2643 
3 *770:8 *3116:A 16.6571 
*END

*D_NET *771 0.00931007
*CONN
*I *3117:A I *D sky130_fd_sc_hd__clkbuf_4
*I *2798:CLK I *D sky130_fd_sc_hd__dfrtp_1
*I *3111:CLK I *D sky130_fd_sc_hd__dfrtp_1
*I *3101:CLK I *D sky130_fd_sc_hd__dfrtp_1
*I *3102:CLK I *D sky130_fd_sc_hd__dfrtp_1
*I *3104:CLK I *D sky130_fd_sc_hd__dfrtp_1
*I *3103:CLK I *D sky130_fd_sc_hd__dfrtp_1
*I *3109:CLK I *D sky130_fd_sc_hd__dfrtp_1
*I *3108:CLK I *D sky130_fd_sc_hd__dfrtp_1
*I *3110:CLK I *D sky130_fd_sc_hd__dfrtp_1
*I *3115:X O *D sky130_fd_sc_hd__clkbuf_16
*CAP
1 *3117:A 0.000155013
2 *2798:CLK 0
3 *3111:CLK 0
4 *3101:CLK 0.000267746
5 *3102:CLK 2.91597e-05
6 *3104:CLK 0
7 *3103:CLK 3.72704e-05
8 *3109:CLK 0.000140902
9 *3108:CLK 0
10 *3110:CLK 0
11 *3115:X 0
12 *771:83 0.000433935
13 *771:74 0.000301011
14 *771:59 0.000617215
15 *771:46 0.00064802
16 *771:37 0.000221703
17 *771:24 0.000533542
18 *771:14 0.000752184
19 *771:10 0.000716368
20 *771:6 0.000522192
21 *3101:CLK *2659:A0 1.39726e-05
22 *3101:CLK *883:127 0
23 *3101:CLK *883:133 0.000232399
24 *3117:A *2458:A 9.64602e-05
25 *3117:A *2739:A 6.05161e-06
26 *3117:A *804:10 8.33655e-05
27 *3117:A *804:39 2.94103e-05
28 *771:10 *2457:A 9.31197e-05
29 *771:10 *2458:A 2.79092e-05
30 *771:10 *2693:A 0
31 *771:10 *2782:B 0.000438679
32 *771:10 *885:50 0
33 *771:10 *887:53 1.76135e-05
34 *771:14 *952:56 0.00091869
35 *771:24 *3111:RESET_B 4.73514e-05
36 *771:24 *780:6 5.71472e-05
37 *771:24 *942:10 6.79932e-05
38 *771:24 *952:56 0.000143635
39 *771:37 *942:10 9.82159e-05
40 *771:46 *942:10 4.94362e-05
41 *771:46 *945:59 0
42 *771:59 *883:127 0
43 *771:59 *942:10 7.27028e-05
44 *771:59 *945:59 0
45 *771:74 *883:127 0
46 *771:83 *883:127 0
47 *2409:A1 *771:10 8.01812e-05
48 *2681:A1 *771:14 5.52238e-05
49 *2776:B1 *3117:A 4.80729e-05
50 *2776:B1 *771:10 0.000271958
51 *2778:A1 *771:10 6.68371e-05
52 *2788:A2 *3109:CLK 0
53 *2793:A2 *771:24 7.02993e-05
54 *2793:A2 *771:37 0.000102218
55 *2793:A2 *771:46 2.31791e-05
56 *3109:D *3109:CLK 4.05411e-05
57 *3110:D *771:24 2.60984e-05
58 *3111:D *771:24 0.000483415
59 *380:14 *3101:CLK 0
60 *380:14 *3102:CLK 1.92905e-05
61 *383:8 *3101:CLK 5.52238e-05
62 *386:14 *3101:CLK 0
63 *386:14 *771:46 0
64 *386:14 *771:59 0
65 *386:14 *771:74 0
66 *386:14 *771:83 0
67 *718:8 *3117:A 9.71197e-05
*RES
1 *3115:X *771:6 13.8 
2 *771:6 *771:10 13.7321 
3 *771:10 *771:14 9.17857 
4 *771:14 *771:24 15.3393 
5 *771:24 *3110:CLK 13.8 
6 *771:24 *771:37 3.21429 
7 *771:37 *3108:CLK 13.8 
8 *771:37 *771:46 1.94643 
9 *771:46 *3109:CLK 15.8893 
10 *771:46 *771:59 8.01786 
11 *771:59 *3103:CLK 14.3357 
12 *771:59 *771:74 3.21429 
13 *771:74 *3104:CLK 13.8 
14 *771:74 *771:83 2.55357 
15 *771:83 *3102:CLK 14.3357 
16 *771:83 *3101:CLK 19.1929 
17 *771:14 *3111:CLK 9.3 
18 *771:10 *2798:CLK 9.3 
19 *771:6 *3117:A 18.2107 
*END

*D_NET *772 0.0147398
*CONN
*I *3105:CLK I *D sky130_fd_sc_hd__dfrtp_1
*I *3107:CLK I *D sky130_fd_sc_hd__dfrtp_1
*I *3106:CLK I *D sky130_fd_sc_hd__dfrtp_1
*I *2804:CLK I *D sky130_fd_sc_hd__dfrtp_1
*I *2802:CLK I *D sky130_fd_sc_hd__dfrtp_1
*I *2803:CLK I *D sky130_fd_sc_hd__dfrtp_1
*I *2799:CLK I *D sky130_fd_sc_hd__dfrtp_1
*I *2801:CLK I *D sky130_fd_sc_hd__dfrtp_1
*I *2800:CLK I *D sky130_fd_sc_hd__dfrtp_1
*I *2805:CLK I *D sky130_fd_sc_hd__dfrtp_1
*I *3116:X O *D sky130_fd_sc_hd__clkbuf_16
*CAP
1 *3105:CLK 0.000217029
2 *3107:CLK 0
3 *3106:CLK 2.23854e-05
4 *2804:CLK 3.65869e-05
5 *2802:CLK 0.000876571
6 *2803:CLK 0
7 *2799:CLK 0
8 *2801:CLK 0
9 *2800:CLK 0.000311184
10 *2805:CLK 0.000314115
11 *3116:X 0
12 *772:104 0.000333885
13 *772:91 0.000696226
14 *772:67 0.00100987
15 *772:56 0.00031095
16 *772:29 0.000905515
17 *772:23 0.00136222
18 *772:21 0.00098213
19 *772:19 0.000613702
20 *772:4 0.000370833
21 *2800:CLK *2443:A 0.000364617
22 *2802:CLK *2736:A 4.0342e-06
23 *2802:CLK *786:8 1.55885e-05
24 *2802:CLK *786:21 3.80079e-05
25 *2804:CLK *786:21 5.03772e-05
26 *2805:CLK *2717:A1 1.76039e-05
27 *3105:CLK *2766:A1 2.89114e-05
28 *3105:CLK *972:10 5.53383e-05
29 *3105:CLK *1033:60 0.000407453
30 *3105:CLK *1039:14 0.000565051
31 *772:23 *2396:A 0.000121573
32 *772:23 *2464:D 0
33 *772:23 *2680:D 1.32511e-05
34 *772:23 *868:14 0.000276884
35 *772:23 *947:51 0
36 *772:23 *948:33 0
37 *772:23 *950:94 0
38 *772:23 *951:21 0.000172375
39 *772:23 *951:30 0.000180944
40 *772:29 *2462:C 0.000121573
41 *772:29 *2801:RESET_B 4.73514e-05
42 *772:29 *3239:A 9.77274e-05
43 *772:29 *776:31 0.000405727
44 *772:29 *951:21 7.15521e-05
45 *772:56 *2723:B 1.38247e-05
46 *772:56 *787:41 6.66124e-05
47 *772:56 *868:14 0.000468775
48 *772:67 *2723:B 9.56653e-05
49 *772:67 *868:14 4.687e-05
50 *772:91 *965:33 0.000165161
51 *772:104 *965:33 1.97865e-05
52 *772:104 *1033:60 0.00014734
53 *772:104 *1039:14 0.00014734
54 *2462:B *772:23 3.52562e-05
55 *2462:B *772:29 4.94455e-05
56 *2709:C *772:23 0
57 *2710:B *772:23 4.76575e-05
58 *2710:C *772:23 7.55857e-05
59 *2713:B1 *772:23 1.95772e-05
60 *2724:A2 *2802:CLK 9.41642e-05
61 *2731:B *2802:CLK 0.000178847
62 *2735:A1 *772:23 0
63 *2735:A2 *772:91 0.000312215
64 *2738:A2 *772:19 2.59355e-05
65 *2738:A2 *772:23 5.66157e-05
66 *2738:A2 *772:56 0.000351573
67 *2764:B1 *772:91 8.27532e-05
68 *2799:D *772:23 0
69 *2801:D *772:29 0.000148403
70 *2805:D *2805:CLK 1.99099e-05
71 *503:8 *772:23 0
72 *503:30 *772:23 0
73 *675:10 *772:91 3.14078e-05
74 *701:18 *2805:CLK 0
75 *701:44 *2805:CLK 0.000179659
76 *701:44 *772:19 1.21289e-05
77 *701:44 *772:91 2.24195e-05
78 *701:51 *772:91 0.000139913
79 *704:55 *2802:CLK 0.000102241
80 *706:26 *2802:CLK 4.72938e-06
81 *706:26 *2804:CLK 5.33005e-05
82 *706:26 *772:67 0.000101545
83 *730:24 *2802:CLK 3.99614e-06
*RES
1 *3116:X *772:4 9.3 
2 *772:4 *2805:CLK 24.4786 
3 *772:4 *772:19 0.946429 
4 *772:19 *772:21 4.5 
5 *772:21 *772:23 15 
6 *772:23 *772:29 18.6786 
7 *772:29 *2800:CLK 24.7821 
8 *772:29 *2801:CLK 9.3 
9 *772:23 *2799:CLK 13.8 
10 *772:21 *772:56 6.80357 
11 *772:56 *2803:CLK 13.8 
12 *772:56 *772:67 7.05357 
13 *772:67 *2802:CLK 22.2286 
14 *772:67 *2804:CLK 10.2464 
15 *772:19 *772:91 10.8036 
16 *772:91 *3106:CLK 9.72857 
17 *772:91 *772:104 7.39286 
18 *772:104 *3107:CLK 13.8 
19 *772:104 *3105:CLK 21.7464 
*END

*D_NET *773 0.00519141
*CONN
*I *3242:A I *D sky130_fd_sc_hd__clkbuf_2
*I *3243:A I *D sky130_fd_sc_hd__buf_1
*I *2798:Q O *D sky130_fd_sc_hd__dfrtp_1
*CAP
1 *3242:A 0.000560312
2 *3243:A 0.00123525
3 *2798:Q 0
4 *773:6 0.00179556
5 *3242:A *2702:B 0
6 *3242:A *2777:A1 0.000102207
7 *3242:A *868:73 0
8 *3243:A *2799:RESET_B 6.0038e-05
9 *3243:A *883:119 0.000374198
10 *2691:B *3243:A 0.000115084
11 *2698:A1 *3242:A 0
12 *2700:B *3242:A 0.000175823
13 *2777:B1 *3242:A 0.000184745
14 *2799:D *3243:A 0
15 *471:14 *3242:A 0
16 *474:16 *3243:A 0.000564011
17 *475:10 *3242:A 0
18 *475:25 *3242:A 0
19 *672:49 *3242:A 2.41729e-05
20 *672:65 *3242:A 0
*RES
1 *2798:Q *773:6 13.8 
2 *773:6 *3243:A 25.1013 
3 *773:6 *3242:A 23.8893 
*END

*D_NET *774 0.00447137
*CONN
*I *3241:A I *D sky130_fd_sc_hd__clkbuf_2
*I *2402:C_N I *D sky130_fd_sc_hd__or3b_1
*I *2465:D I *D sky130_fd_sc_hd__nand4b_2
*I *2464:D I *D sky130_fd_sc_hd__and4b_1
*I *2456:A I *D sky130_fd_sc_hd__or4bb_1
*I *2799:Q O *D sky130_fd_sc_hd__dfrtp_1
*CAP
1 *3241:A 0.000256261
2 *2402:C_N 0
3 *2465:D 2.23854e-05
4 *2464:D 0.000168575
5 *2456:A 2.52056e-05
6 *2799:Q 0
7 *774:55 0.000360493
8 *774:29 0.000370629
9 *774:10 0.000511677
10 *774:4 0.000411035
11 *2456:A *948:58 5.52302e-05
12 *2464:D *2680:C 0.000212678
13 *2464:D *947:97 0.000142856
14 *2464:D *948:25 8.07313e-05
15 *2465:D *947:90 0
16 *2465:D *948:25 0
17 *3241:A *950:116 8.31523e-05
18 *3241:A *1033:14 1.99099e-05
19 *774:10 *2764:A1 2.58997e-05
20 *774:10 *776:31 3.92854e-05
21 *774:29 *2456:B 0.000271357
22 *774:29 *2462:A_N 0
23 *774:29 *2764:A1 2.61337e-05
24 *774:29 *947:97 0.000136951
25 *774:29 *948:25 0.000105637
26 *774:29 *948:49 0.000200722
27 *774:29 *948:58 0.00010946
28 *774:55 *2764:A1 0
29 *774:55 *950:116 2.8266e-06
30 *774:55 *1033:14 6.09572e-05
31 *2688:A *3241:A 5.33882e-05
32 *2691:B *774:10 0.000161076
33 *2710:C *2464:D 4.23378e-05
34 *2710:D_N *3241:A 0
35 *2713:B1 *2464:D 7.40571e-05
36 *2799:D *2464:D 0.000160883
37 *3193:A *774:10 8.00806e-05
38 *511:16 *774:10 7.79781e-06
39 *675:30 *2464:D 0.000191698
40 *772:23 *2464:D 0
*RES
1 *2799:Q *774:4 9.3 
2 *774:4 *774:10 9.55357 
3 *774:10 *2456:A 14.3357 
4 *774:10 *774:29 10.8393 
5 *774:29 *2464:D 23.9741 
6 *774:29 *2465:D 9.72857 
7 *774:4 *774:55 6.14286 
8 *774:55 *2402:C_N 13.8 
9 *774:55 *3241:A 18.4786 
*END

*D_NET *775 0.00291478
*CONN
*I *3240:A I *D sky130_fd_sc_hd__clkbuf_2
*I *2680:C I *D sky130_fd_sc_hd__or4_4
*I *2800:Q O *D sky130_fd_sc_hd__dfrtp_1
*CAP
1 *3240:A 0
2 *2680:C 0.000389632
3 *2800:Q 0.000133762
4 *775:8 0.000523394
5 *2680:C *948:8 0.000122689
6 *2680:C *948:81 0.000167626
7 *2680:C *951:34 0.000117552
8 *2680:C *953:18 0
9 *775:8 *2799:RESET_B 4.51641e-05
10 *775:8 *3239:A 0.00014285
11 *775:8 *947:14 0.000144773
12 *775:8 *953:18 5.33005e-05
13 *2464:D *2680:C 0.000212678
14 *2691:B *2680:C 0.000302536
15 *2709:B *2680:C 0.000137983
16 *510:14 *2680:C 0.000225609
17 *675:30 *2680:C 0.000139999
18 *695:8 *2680:C 5.52302e-05
*RES
1 *2800:Q *775:8 12.7286 
2 *775:8 *2680:C 28.8625 
3 *775:8 *3240:A 9.3 
*END

*D_NET *776 0.00681494
*CONN
*I *2764:A1 I *D sky130_fd_sc_hd__o41a_2
*I *2403:A I *D sky130_fd_sc_hd__nor2_1
*I *3239:A I *D sky130_fd_sc_hd__clkbuf_2
*I *2801:Q O *D sky130_fd_sc_hd__dfrtp_1
*CAP
1 *2764:A1 0.000563404
2 *2403:A 0.000433676
3 *3239:A 0.000263324
4 *2801:Q 0
5 *776:31 0.00150644
6 *776:4 0.00077268
7 *2403:A *2402:A 0.000240678
8 *2403:A *2839:D 3.99614e-06
9 *2403:A *948:58 4.88546e-05
10 *2403:A *1033:14 0.000123542
11 *2764:A1 *2462:A_N 0
12 *2764:A1 *880:20 0.000128154
13 *2764:A1 *885:22 0.000350501
14 *2764:A1 *949:19 0
15 *2764:A1 *950:116 7.22497e-05
16 *3239:A *2799:RESET_B 7.77652e-05
17 *776:31 *2462:A_N 5.71472e-05
18 *776:31 *2462:C 0.00023327
19 *776:31 *1033:14 0
20 *2462:B *3239:A 0
21 *2462:B *776:31 0.000343485
22 *2686:A1 *2764:A1 0.000153382
23 *2691:B *3239:A 1.76039e-05
24 *2764:A4 *2764:A1 5.52238e-05
25 *2801:D *3239:A 0
26 *3189:A *2403:A 0
27 *3193:A *776:31 8.22896e-05
28 *478:8 *2403:A 0.000136958
29 *504:12 *2764:A1 0
30 *511:16 *776:31 0.000227532
31 *672:8 *2764:A1 0
32 *675:14 *2764:A1 9.65171e-05
33 *676:12 *2764:A1 8.86512e-05
34 *772:29 *3239:A 9.77274e-05
35 *772:29 *776:31 0.000405727
36 *774:10 *2764:A1 2.58997e-05
37 *774:10 *776:31 3.92854e-05
38 *774:29 *2764:A1 2.61337e-05
39 *774:55 *2764:A1 0
40 *775:8 *3239:A 0.00014285
*RES
1 *2801:Q *776:4 9.3 
2 *776:4 *3239:A 23.3714 
3 *776:4 *776:31 18.7143 
4 *776:31 *2403:A 21.0679 
5 *776:31 *2764:A1 26.55 
*END

*D_NET *777 0.000539395
*CONN
*I *3238:A I *D sky130_fd_sc_hd__clkbuf_2
*I *3108:Q O *D sky130_fd_sc_hd__dfrtp_1
*CAP
1 *3238:A 0.000186494
2 *3108:Q 0.000186494
3 *751:26 *3238:A 0.000166407
*RES
1 *3108:Q *3238:A 22.0286 
*END

*D_NET *778 0.000819485
*CONN
*I *3235:A I *D sky130_fd_sc_hd__buf_1
*I *3109:Q O *D sky130_fd_sc_hd__dfrtp_1
*CAP
1 *3235:A 0.000338999
2 *3109:Q 0.000338999
3 *3235:A *3232:A 1.33343e-05
4 *3235:A *952:34 0.000128154
5 *3157:A *3235:A 0
*RES
1 *3109:Q *3235:A 33.475 
*END

*D_NET *779 0.00502771
*CONN
*I *3232:A I *D sky130_fd_sc_hd__clkbuf_2
*I *2437:C I *D sky130_fd_sc_hd__and4b_1
*I *3110:Q O *D sky130_fd_sc_hd__dfrtp_1
*CAP
1 *3232:A 0.000416509
2 *2437:C 0.000500852
3 *3110:Q 0.000427803
4 *779:8 0.00134516
5 *2437:C *3236:A 0
6 *2437:C *937:17 0.000895576
7 *2437:C *937:19 0.00012501
8 *2437:C *942:10 3.06406e-05
9 *2437:C *942:16 0.000151829
10 *3232:A *883:127 0.000530873
11 *3232:A *937:17 9.95444e-05
12 *3232:A *942:10 5.52302e-05
13 *779:8 *883:127 0.000332901
14 *3110:D *2437:C 8.46895e-05
15 *3110:D *3232:A 1.77525e-05
16 *3235:A *3232:A 1.33343e-05
17 *383:12 *3232:A 0
*RES
1 *3110:Q *779:8 19.675 
2 *779:8 *2437:C 26.9786 
3 *779:8 *3232:A 23.4071 
*END

*D_NET *780 0.00267703
*CONN
*I *3230:A I *D sky130_fd_sc_hd__clkbuf_2
*I *3229:A I *D sky130_fd_sc_hd__clkbuf_2
*I *3111:Q O *D sky130_fd_sc_hd__dfrtp_1
*CAP
1 *3230:A 0.000100438
2 *3229:A 0.000568794
3 *3111:Q 6.00053e-05
4 *780:6 0.000729238
5 *3229:A *2784:B 4.89867e-05
6 *3229:A *3231:A 6.57914e-05
7 *3229:A *936:8 1.40306e-05
8 *3229:A *939:44 5.03772e-05
9 *3230:A *937:17 5.33005e-05
10 *2784:C *3229:A 5.71472e-05
11 *2793:A2 *3230:A 0.000192001
12 *2793:B1 *3230:A 0.000193715
13 *2793:B2 *3229:A 9.90431e-05
14 *2796:A *3229:A 3.4879e-05
15 *2797:B2 *3229:A 0.000106141
16 *3110:D *780:6 3.18676e-05
17 *3111:D *3229:A 9.31011e-05
18 *3111:D *780:6 6.57914e-05
19 *755:10 *3229:A 5.52302e-05
20 *771:24 *780:6 5.71472e-05
*RES
1 *3111:Q *780:6 11.0679 
2 *780:6 *3229:A 20.55 
3 *780:6 *3230:A 21.3893 
*END

*D_NET *781 0.0030119
*CONN
*I *2458:A I *D sky130_fd_sc_hd__and2_1
*I *2844:Q O *D sky130_fd_sc_hd__dlxtn_1
*CAP
1 *2458:A 0.000781652
2 *2844:Q 0.000781652
3 *2458:A *2406:A 0.000123295
4 *2458:A *2722:A 0.00012773
5 *2458:A *2752:A1 6.50156e-05
6 *2458:A *804:10 9.90431e-05
7 *2458:A *804:39 0
8 *2458:A *885:50 9.25014e-06
9 *2458:A *929:8 0.000131331
10 *2458:A *975:16 5.80706e-06
11 *2458:A *975:24 1.41029e-05
12 *2742:A *2458:A 0
13 *2748:A1 *2458:A 0
14 *2751:A1 *2458:A 0
15 *2751:C1 *2458:A 0.000480354
16 *2757:B2 *2458:A 0.000195547
17 *3117:A *2458:A 9.64602e-05
18 *482:12 *2458:A 7.2754e-05
19 *483:10 *2458:A 0
20 *483:14 *2458:A 0
21 *720:12 *2458:A 0
22 *771:10 *2458:A 2.79092e-05
*RES
1 *2844:Q *2458:A 45.3321 
*END

*D_NET *782 0.00708893
*CONN
*I *2745:B2 I *D sky130_fd_sc_hd__o22a_1
*I *2407:A I *D sky130_fd_sc_hd__nor4_1
*I *2406:A I *D sky130_fd_sc_hd__or3_1
*I *2747:A0 I *D sky130_fd_sc_hd__mux2_1
*I *2744:A1 I *D sky130_fd_sc_hd__a21bo_1
*I *2405:A I *D sky130_fd_sc_hd__nor2_1
*I *3101:Q O *D sky130_fd_sc_hd__dfrtp_1
*CAP
1 *2745:B2 0.000261232
2 *2407:A 0
3 *2406:A 0.000439186
4 *2747:A0 0
5 *2744:A1 9.44918e-05
6 *2405:A 4.28171e-05
7 *3101:Q 7.71651e-05
8 *782:45 0.000546397
9 *782:43 0.000808891
10 *782:32 0.000562479
11 *782:10 0.000279959
12 *782:6 0.000341846
13 *2405:A *801:53 5.83233e-05
14 *2406:A *783:40 1.02504e-05
15 *2744:A1 *783:8 1.15172e-05
16 *782:10 *801:53 0.000175512
17 *782:10 *801:64 1.78353e-05
18 *782:10 *952:10 0
19 *782:10 *952:12 0
20 *782:32 *2740:B 6.05161e-06
21 *782:43 *2740:B 0.000162015
22 *782:43 *3332:A 3.17148e-05
23 *782:43 *801:53 0
24 *782:43 *801:64 0
25 *782:43 *804:39 0.000204968
26 *782:45 *783:40 0.000113038
27 *782:45 *804:39 4.31475e-05
28 *2458:A *2406:A 0.000123295
29 *2744:B1_N *2744:A1 9.90367e-05
30 *2747:S *782:43 0
31 *2748:A1 *2406:A 0
32 *2748:A1 *2745:B2 0.00043032
33 *2751:A2 *2744:A1 3.99614e-06
34 *2752:B1 *2744:A1 0
35 *2756:A2 *2745:B2 0.000265447
36 *2756:B1 *2745:B2 1.98839e-05
37 *2758:A1 *2745:B2 0.00022459
38 *2758:A2 *2745:B2 0.000183726
39 *2758:A2 *782:43 0.000160396
40 *2758:A2 *782:45 3.34366e-05
41 *2762:A2 *2406:A 9.25049e-05
42 *2762:A2 *782:45 6.32633e-05
43 *2762:B2 *2406:A 0
44 *2762:B2 *782:45 0
45 *3101:D *782:6 2.27416e-05
46 *3102:D *2744:A1 0.000312215
47 *3157:A *2405:A 0
48 *3157:A *782:10 0
49 *481:18 *2744:A1 5.91452e-05
50 *481:18 *2745:B2 9.80173e-05
51 *481:18 *782:43 7.83587e-05
52 *483:10 *2406:A 2.34204e-05
53 *680:16 *2406:A 0
54 *718:8 *2406:A 0.000355002
55 *719:10 *782:43 0.00012401
56 *722:8 *2406:A 0
57 *722:23 *2745:B2 1.02936e-05
58 *722:29 *2745:B2 1.69961e-05
59 *722:46 *782:45 0
*RES
1 *3101:Q *782:6 10.2464 
2 *782:6 *782:10 7.35714 
3 *782:10 *2405:A 14.5321 
4 *782:10 *2744:A1 17.2286 
5 *782:6 *782:32 1.35714 
6 *782:32 *2747:A0 9.3 
7 *782:32 *782:43 13.1964 
8 *782:43 *782:45 2.85714 
9 *782:45 *2406:A 30.2107 
10 *782:45 *2407:A 13.8 
11 *782:43 *2745:B2 21.7464 
*END

*D_NET *783 0.00479747
*CONN
*I *2407:B I *D sky130_fd_sc_hd__nor4_1
*I *2752:A1 I *D sky130_fd_sc_hd__a22o_1
*I *2406:B I *D sky130_fd_sc_hd__or3_1
*I *2692:A1 I *D sky130_fd_sc_hd__o31a_1
*I *2405:B I *D sky130_fd_sc_hd__nor2_1
*I *3102:Q O *D sky130_fd_sc_hd__dfrtp_1
*CAP
1 *2407:B 0
2 *2752:A1 0.000318595
3 *2406:B 7.70325e-05
4 *2692:A1 5.8698e-05
5 *2405:B 2.27652e-05
6 *3102:Q 0.000291357
7 *783:52 0.000527589
8 *783:40 0.000432086
9 *783:21 0.00050412
10 *783:8 0.00045942
11 *2405:B *801:53 5.59013e-05
12 *2406:B *2406:C 9.41642e-05
13 *2692:A1 *3248:A 9.0573e-05
14 *2692:A1 *784:21 5.7616e-05
15 *2692:A1 *785:12 5.24274e-05
16 *2692:A1 *801:42 4.1331e-06
17 *2692:A1 *801:53 2.00751e-05
18 *2752:A1 *2746:A1 0
19 *2752:A1 *2757:A1 1.17968e-05
20 *2752:A1 *804:39 3.4323e-06
21 *783:8 *3102:RESET_B 5.52238e-05
22 *783:21 *3248:A 5.83304e-05
23 *783:21 *785:12 1.17968e-05
24 *783:21 *801:53 5.79266e-05
25 *783:52 *2406:C 0.000243067
26 *783:52 *2407:D 1.3701e-05
27 *2406:A *783:40 1.02504e-05
28 *2458:A *2752:A1 6.50156e-05
29 *2744:A1 *783:8 1.15172e-05
30 *2751:A1 *2752:A1 2.34204e-05
31 *2752:A2 *2752:A1 0.000194149
32 *2752:B1 *2752:A1 1.74352e-05
33 *2757:A2 *783:52 8.81983e-05
34 *2757:B1 *2752:A1 6.81083e-05
35 *2757:B1 *783:52 5.59013e-05
36 *2757:B2 *2752:A1 0.00012401
37 *2757:B2 *783:52 5.41794e-05
38 *3102:D *783:8 8.36594e-05
39 *481:18 *783:8 5.33005e-05
40 *483:10 *783:52 8.16625e-05
41 *722:29 *783:40 9.92409e-05
42 *722:46 *2405:B 1.59782e-05
43 *722:46 *783:21 0.000116582
44 *782:45 *783:40 0.000113038
*RES
1 *3102:Q *783:8 17.6214 
2 *783:8 *2405:B 14.5321 
3 *783:8 *783:21 3.5 
4 *783:21 *2692:A1 15.7464 
5 *783:21 *783:40 17.7321 
6 *783:40 *783:52 9.21429 
7 *783:52 *2406:B 14.7464 
8 *783:52 *2752:A1 19.8714 
9 *783:40 *2407:B 9.3 
*END

*D_NET *784 0.00276931
*CONN
*I *3248:A I *D sky130_fd_sc_hd__dlygate4sd3_1
*I *2406:C I *D sky130_fd_sc_hd__or3_1
*I *2407:C I *D sky130_fd_sc_hd__nor4_1
*I *2692:A2 I *D sky130_fd_sc_hd__o31a_1
*I *3103:Q O *D sky130_fd_sc_hd__dfrtp_1
*CAP
1 *3248:A 5.12767e-05
2 *2406:C 0.000220074
3 *2407:C 0
4 *2692:A2 2.23854e-05
5 *3103:Q 0.000244713
6 *784:25 0.000265095
7 *784:21 0.000173985
8 *784:8 0.000344785
9 *2692:A2 *2407:D 0
10 *784:8 *2407:D 3.18676e-05
11 *784:21 *2407:D 5.33334e-05
12 *784:21 *801:42 0
13 *784:25 *2407:D 9.60939e-05
14 *2406:B *2406:C 9.41642e-05
15 *2692:A1 *3248:A 9.0573e-05
16 *2692:A1 *784:21 5.7616e-05
17 *2757:A2 *2406:C 3.14078e-05
18 *2762:B2 *3248:A 0.000148189
19 *2762:B2 *784:21 7.90803e-05
20 *3103:D *2406:C 0.000138881
21 *3103:D *784:8 0.000114164
22 *3103:D *784:25 0.00018372
23 *483:10 *2406:C 9.22103e-06
24 *483:10 *784:25 1.72894e-05
25 *783:21 *3248:A 5.83304e-05
26 *783:52 *2406:C 0.000243067
*RES
1 *3103:Q *784:8 13.55 
2 *784:8 *2692:A2 9.72857 
3 *784:8 *784:21 6.48214 
4 *784:21 *784:25 6.26786 
5 *784:25 *2407:C 9.3 
6 *784:25 *2406:C 14.2643 
7 *784:21 *3248:A 15.7464 
*END

*D_NET *785 0.00157554
*CONN
*I *3247:A I *D sky130_fd_sc_hd__dlygate4sd3_1
*I *2692:A3 I *D sky130_fd_sc_hd__o31a_1
*I *2407:D I *D sky130_fd_sc_hd__nor4_1
*I *3104:Q O *D sky130_fd_sc_hd__dfrtp_1
*CAP
1 *3247:A 5.6595e-05
2 *2692:A3 0
3 *2407:D 0.00010562
4 *3104:Q 0.000287432
5 *785:12 0.00016026
6 *785:6 0.000398667
7 *785:12 *801:53 0.000125724
8 *2692:A1 *785:12 5.24274e-05
9 *2692:A2 *2407:D 0
10 *3103:D *2407:D 6.71657e-05
11 *3104:D *785:6 9.90367e-05
12 *680:16 *2407:D 1.58163e-05
13 *783:21 *785:12 1.17968e-05
14 *783:52 *2407:D 1.3701e-05
15 *784:8 *2407:D 3.18676e-05
16 *784:21 *2407:D 5.33334e-05
17 *784:25 *2407:D 9.60939e-05
*RES
1 *3104:Q *785:6 13.5321 
2 *785:6 *785:12 10.6429 
3 *785:12 *2407:D 12.3357 
4 *785:12 *2692:A3 9.3 
5 *785:6 *3247:A 10.2643 
*END

*D_NET *786 0.00678486
*CONN
*I *2682:A I *D sky130_fd_sc_hd__or2_1
*I *2721:A0 I *D sky130_fd_sc_hd__mux2_1
*I *2719:B2 I *D sky130_fd_sc_hd__o2bb2a_1
*I *2685:A I *D sky130_fd_sc_hd__or4_1
*I *2708:D_N I *D sky130_fd_sc_hd__or4b_1
*I *2683:A I *D sky130_fd_sc_hd__or3_1
*I *2723:A I *D sky130_fd_sc_hd__nand2_1
*I *2802:Q O *D sky130_fd_sc_hd__dfrtp_1
*CAP
1 *2682:A 3.87475e-05
2 *2721:A0 5.63613e-05
3 *2719:B2 5.19334e-05
4 *2685:A 2.14228e-05
5 *2708:D_N 0
6 *2683:A 2.4017e-05
7 *2723:A 1.94576e-05
8 *2802:Q 0.000110185
9 *786:64 0.000647233
10 *786:60 0.0009539
11 *786:44 0.000248731
12 *786:25 0.000326524
13 *786:21 0.000751181
14 *786:8 0.000429411
15 *2682:A *2731:A 4.22135e-06
16 *2683:A *3250:A 0.000142856
17 *2683:A *788:49 0.000139772
18 *2685:A *2685:D 0.000144074
19 *2685:A *787:24 2.44318e-05
20 *2685:A *788:27 4.24743e-05
21 *2719:B2 *953:12 0.000160422
22 *2719:B2 *995:12 0.000162365
23 *2721:A0 *953:12 4.33002e-05
24 *2721:A0 *995:12 3.5626e-05
25 *786:8 *2731:A 5.71472e-05
26 *786:21 *2804:RESET_B 0.000133819
27 *786:21 *868:14 7.37655e-05
28 *786:25 *2804:RESET_B 5.58875e-06
29 *786:25 *868:14 3.0298e-05
30 *786:25 *953:104 0.000169457
31 *786:44 *2685:D 6.87574e-05
32 *786:44 *2708:A 9.60875e-05
33 *786:44 *2708:C 3.99614e-06
34 *786:44 *3250:A 0.00027061
35 *786:44 *787:24 0.000309266
36 *786:44 *788:27 0
37 *786:44 *788:49 0.000139907
38 *786:44 *789:21 1.21258e-05
39 *786:44 *789:36 1.39841e-05
40 *786:44 *953:104 6.8646e-06
41 *2721:A1 *2721:A0 2.59355e-05
42 *2724:A1 *2682:A 7.69776e-06
43 *2724:A2 *2682:A 9.54798e-06
44 *2730:A *2721:A0 5.33005e-05
45 *2731:B *2723:A 2.47631e-06
46 *2731:B *786:8 4.59075e-05
47 *2731:B *786:21 2.14658e-05
48 *2732:A2 *2682:A 5.52238e-05
49 *2733:B2 *2682:A 7.80837e-05
50 *2802:CLK *786:8 1.55885e-05
51 *2802:CLK *786:21 3.80079e-05
52 *2803:D *786:25 9.96264e-05
53 *2804:CLK *786:21 5.03772e-05
54 *2804:D *786:21 9.25014e-06
55 *673:8 *2682:A 2.14757e-05
56 *674:6 *786:44 1.98839e-05
57 *674:12 *786:44 0.000121573
58 *701:59 *786:44 2.49484e-05
59 *706:26 *786:21 0.000114166
*RES
1 *2802:Q *786:8 11.4964 
2 *786:8 *2723:A 9.72857 
3 *786:8 *786:21 11.2232 
4 *786:21 *786:25 6.90179 
5 *786:25 *2683:A 10.6571 
6 *786:25 *786:44 16.4464 
7 *786:44 *2708:D_N 9.3 
8 *786:44 *2685:A 10.6571 
9 *786:21 *786:60 4.1056 
10 *786:60 *786:64 4.46593 
11 *786:64 *2719:B2 15.8982 
12 *786:64 *2721:A0 15.3446 
13 *786:60 *2682:A 18.4332 
*END

*D_NET *787 0.00509019
*CONN
*I *3252:A I *D sky130_fd_sc_hd__dlygate4sd3_1
*I *2685:B I *D sky130_fd_sc_hd__or4_1
*I *2708:A I *D sky130_fd_sc_hd__or4b_1
*I *2723:B I *D sky130_fd_sc_hd__nand2_1
*I *2682:B I *D sky130_fd_sc_hd__or2_1
*I *2683:B I *D sky130_fd_sc_hd__or3_1
*I *2803:Q O *D sky130_fd_sc_hd__dfrtp_1
*CAP
1 *3252:A 0.000312337
2 *2685:B 0
3 *2708:A 6.308e-05
4 *2723:B 0.000114589
5 *2682:B 1.40355e-05
6 *2683:B 7.70325e-05
7 *2803:Q 0.000117285
8 *787:41 0.000281189
9 *787:30 0.000521686
10 *787:24 0.000622566
11 *787:12 0.000363665
12 *787:8 0.00052589
13 *2683:B *3250:A 9.41642e-05
14 *2708:A *2708:C 0
15 *2708:A *789:21 7.02611e-05
16 *2723:B *2731:A 0
17 *2723:B *868:14 0
18 *3252:A *2726:A0 0.000140933
19 *3252:A *980:10 4.58194e-05
20 *787:8 *2733:A1 1.00375e-05
21 *787:8 *788:14 2.40261e-05
22 *787:8 *880:20 0
23 *787:12 *788:14 0
24 *787:12 *880:20 0
25 *787:24 *2733:A1 0
26 *787:24 *788:14 0
27 *787:24 *788:27 8.46829e-05
28 *787:24 *788:49 0.00014285
29 *787:24 *880:20 9.87983e-06
30 *787:30 *953:56 5.91306e-05
31 *787:41 *2731:A 0
32 *2685:A *787:24 2.44318e-05
33 *2709:C *787:24 5.33005e-05
34 *2709:C *787:30 4.43256e-05
35 *2724:A1 *2723:B 6.60268e-05
36 *2724:A1 *787:41 1.93392e-05
37 *2731:B *2723:B 0.000144038
38 *2732:A2 *2682:B 2.89114e-05
39 *2733:B1 *787:8 0.000104974
40 *2733:B2 *2682:B 5.52302e-05
41 *2733:B2 *3252:A 0
42 *2733:C1 *787:8 6.75007e-05
43 *2738:A2 *787:30 0.000126439
44 *2738:A2 *787:41 7.90803e-05
45 *2805:D *787:30 0
46 *772:56 *2723:B 1.38247e-05
47 *772:56 *787:41 6.66124e-05
48 *772:67 *2723:B 9.56653e-05
49 *786:44 *2708:A 9.60875e-05
50 *786:44 *787:24 0.000309266
*RES
1 *2803:Q *787:8 16.5054 
2 *787:8 *787:12 1.41964 
3 *787:12 *787:24 10.5536 
4 *787:24 *787:30 9.96429 
5 *787:30 *2683:B 14.7464 
6 *787:30 *787:41 2.85714 
7 *787:41 *2682:B 14.3357 
8 *787:41 *2723:B 16.9607 
9 *787:24 *2708:A 11.0857 
10 *787:12 *2685:B 13.8 
11 *787:8 *3252:A 18.4786 
*END

*D_NET *788 0.0054387
*CONN
*I *3251:A I *D sky130_fd_sc_hd__dlygate4sd3_1
*I *2708:B I *D sky130_fd_sc_hd__or4b_1
*I *2731:A I *D sky130_fd_sc_hd__nand2_1
*I *2683:C I *D sky130_fd_sc_hd__or3_1
*I *2685:C I *D sky130_fd_sc_hd__or4_1
*I *2804:Q O *D sky130_fd_sc_hd__dfrtp_1
*CAP
1 *3251:A 9.34447e-05
2 *2708:B 0
3 *2731:A 0.000501278
4 *2683:C 0
5 *2685:C 0
6 *2804:Q 5.05962e-05
7 *788:49 0.000926459
8 *788:27 0.000624933
9 *788:14 0.000548412
10 *788:8 0.000492701
11 *2731:A *3250:A 8.43535e-06
12 *2731:A *979:16 0
13 *3251:A *3360:A 0
14 *3251:A *881:97 2.8266e-06
15 *788:14 *2685:D 3.18676e-05
16 *788:14 *3360:A 0
17 *788:14 *888:122 0.000342495
18 *788:14 *1033:60 0
19 *788:14 *1039:14 0
20 *788:27 *2685:D 2.90463e-05
21 *788:49 *2726:A0 0
22 *788:49 *3250:A 1.98839e-05
23 *788:49 *880:20 2.05938e-05
24 *788:49 *953:104 1.0562e-05
25 *2682:A *2731:A 4.22135e-06
26 *2683:A *788:49 0.000139772
27 *2685:A *788:27 4.24743e-05
28 *2723:B *2731:A 0
29 *2724:A1 *2731:A 1.00893e-05
30 *2724:A2 *2731:A 9.26774e-05
31 *2731:B *2731:A 5.71472e-05
32 *2732:A1 *788:49 2.16719e-05
33 *2732:A2 *2731:A 5.39678e-05
34 *2733:B1 *3251:A 0
35 *2733:B1 *788:14 0
36 *2733:B2 *788:49 4.34543e-05
37 *2733:C1 *788:14 0.000225307
38 *2738:A2 *2731:A 0.000271339
39 *2769:B *788:27 0
40 *2775:A2 *788:14 1.00375e-05
41 *2803:D *788:49 4.87854e-05
42 *3262:A *788:14 0.000142315
43 *701:59 *788:49 0.000123288
44 *786:8 *2731:A 5.71472e-05
45 *786:44 *788:27 0
46 *786:44 *788:49 0.000139907
47 *787:8 *788:14 2.40261e-05
48 *787:12 *788:14 0
49 *787:24 *788:14 0
50 *787:24 *788:27 8.46829e-05
51 *787:24 *788:49 0.00014285
52 *787:41 *2731:A 0
*RES
1 *2804:Q *788:8 14.3357 
2 *788:8 *788:14 13.4643 
3 *788:14 *2685:C 9.3 
4 *788:14 *788:27 3.57143 
5 *788:27 *788:49 18.0357 
6 *788:49 *2683:C 9.3 
7 *788:49 *2731:A 27.4786 
8 *788:27 *2708:B 9.3 
9 *788:8 *3251:A 15.4429 
*END

*D_NET *789 0.00295882
*CONN
*I *2685:D I *D sky130_fd_sc_hd__or4_1
*I *2708:C I *D sky130_fd_sc_hd__or4b_1
*I *2684:A I *D sky130_fd_sc_hd__nor2_2
*I *3250:A I *D sky130_fd_sc_hd__dlygate4sd3_1
*I *2805:Q O *D sky130_fd_sc_hd__dfrtp_1
*CAP
1 *2685:D 0.000185206
2 *2708:C 2.06112e-05
3 *2684:A 7.51827e-05
4 *3250:A 0.000303613
5 *2805:Q 0
6 *789:36 0.000262629
7 *789:21 0.000278951
8 *789:4 0.000450568
9 *2684:A *880:20 1.76821e-05
10 *3250:A *953:104 3.39982e-05
11 *2683:A *3250:A 0.000142856
12 *2683:B *3250:A 9.41642e-05
13 *2685:A *2685:D 0.000144074
14 *2708:A *2708:C 0
15 *2708:A *789:21 7.02611e-05
16 *2709:C *3250:A 7.0758e-05
17 *2731:A *3250:A 8.43535e-06
18 *2738:A2 *3250:A 2.59355e-05
19 *2764:B1 *2684:A 5.4826e-05
20 *674:6 *3250:A 0.000137983
21 *674:12 *2684:A 2.09776e-05
22 *674:12 *3250:A 3.57844e-05
23 *701:59 *2684:A 7.40571e-05
24 *786:44 *2685:D 6.87574e-05
25 *786:44 *2708:C 3.99614e-06
26 *786:44 *3250:A 0.00027061
27 *786:44 *789:21 1.21258e-05
28 *786:44 *789:36 1.39841e-05
29 *788:14 *2685:D 3.18676e-05
30 *788:27 *2685:D 2.90463e-05
31 *788:49 *3250:A 1.98839e-05
*RES
1 *2805:Q *789:4 9.3 
2 *789:4 *3250:A 25.4071 
3 *789:4 *789:21 1.76786 
4 *789:21 *2684:A 19.9429 
5 *789:21 *789:36 0.964286 
6 *789:36 *2708:C 9.72857 
7 *789:36 *2685:D 13.1214 
*END

*D_NET *790 0.00566544
*CONN
*I *2658:A1 I *D sky130_fd_sc_hd__mux2_1
*I *3253:X O *D sky130_fd_sc_hd__clkbuf_1
*CAP
1 *2658:A1 0
2 *3253:X 0.00172956
3 *790:12 0.00172956
4 *790:12 *2658:A0 0.00012501
5 *790:12 *2658:S 5.80706e-06
6 *790:12 *2665:A0 0
7 *790:12 *2665:A1 0
8 *790:12 *1038:12 0.00123361
9 rdata[12] *790:12 9.90431e-05
10 *3258:A *790:12 7.0528e-05
11 *3264:A *790:12 5.52302e-05
12 *3275:A *790:12 5.52302e-05
13 *3292:A *790:12 0
14 *3293:A *790:12 5.52302e-05
15 *3294:A *790:12 0.000142856
16 *3298:A *790:12 0.000142856
17 *3301:A *790:12 5.52302e-05
18 *3302:A *790:12 5.52302e-05
19 *3306:A *790:12 5.52302e-05
20 *3314:A *790:12 5.52302e-05
*RES
1 *3253:X *790:12 48.425 
2 *790:12 *2658:A1 13.8 
*END

*D_NET *791 0.00937148
*CONN
*I *2661:A1 I *D sky130_fd_sc_hd__mux2_1
*I *3254:X O *D sky130_fd_sc_hd__buf_1
*CAP
1 *2661:A1 0.000194449
2 *3254:X 0.000737459
3 *791:16 0.00186124
4 *791:8 0.00240425
5 *2661:A1 *2665:S 0.000117621
6 *2661:A1 *3053:GATE_N 0.000541793
7 *2661:A1 *3062:GATE_N 5.52238e-05
8 *2661:A1 *829:81 2.77143e-05
9 *791:8 *2817:GATE_N 5.03772e-05
10 *791:8 *3326:A 1.92905e-05
11 *791:8 *3364:A 0.000183726
12 *791:16 *2665:A1 0
13 *791:16 *2666:A0 0.000232399
14 *791:16 *2667:A0 5.71472e-05
15 *791:16 *2667:A1 0.000232399
16 *791:16 *3053:GATE_N 0
17 *791:16 *986:12 0.000226658
18 *791:16 *990:12 5.71472e-05
19 *791:16 *1038:12 0.00228379
20 rdata[6] *791:16 2.72967e-05
21 rdata[8] *791:16 2.47833e-05
22 *3259:A *791:8 3.67142e-05
*RES
1 *3254:X *791:8 18.4786 
2 *791:8 *791:16 45.2321 
3 *791:16 *2661:A1 14.7643 
*END

*D_NET *792 0.00156689
*CONN
*I *3321:A I *D sky130_fd_sc_hd__buf_2
*I *2808:Q O *D sky130_fd_sc_hd__dlxtn_1
*CAP
1 *3321:A 0.000519419
2 *2808:Q 0.000519419
3 *3321:A *2670:A0 0.000115149
4 *3321:A *2808:GATE_N 1.21258e-05
5 *3321:A *3368:A 0
6 *2644:B *3321:A 9.25014e-06
7 *2818:D *3321:A 0.000391526
*RES
1 *2808:Q *3321:A 36.1714 
*END

*D_NET *793 0.00375223
*CONN
*I *3322:A I *D sky130_fd_sc_hd__buf_2
*I *2809:Q O *D sky130_fd_sc_hd__dlxtn_1
*CAP
1 *3322:A 0.000776417
2 *2809:Q 0.000776417
3 *3322:A *2653:A 0.00011904
4 *3322:A *2814:GATE_N 4.11173e-05
5 *3322:A *3326:A 4.66942e-05
6 *3322:A *884:39 3.18676e-05
7 *3322:A *886:39 0.000148446
8 *3322:A *886:41 6.8812e-05
9 *3322:A *1024:18 0
10 *2586:B *3322:A 1.82657e-05
11 *2806:D *3322:A 0.000652761
12 *2816:D *3322:A 0.000128146
13 *2817:D *3322:A 0
14 *2833:D *3322:A 0.000197984
15 *431:49 *3322:A 0.000165262
16 *431:51 *3322:A 0.000387891
17 *431:57 *3322:A 0.000193107
*RES
1 *2809:Q *3322:A 48.2607 
*END

*D_NET *794 0.00841113
*CONN
*I *3323:A I *D sky130_fd_sc_hd__buf_2
*I *2810:Q O *D sky130_fd_sc_hd__dlxtn_1
*CAP
1 *3323:A 0
2 *2810:Q 0.000608054
3 *794:14 0.001577
4 *794:8 0.00218505
5 *794:8 *878:73 4.35421e-05
6 *794:8 *878:85 1.30159e-05
7 *794:14 *2677:S 0
8 *794:14 *2774:B2 0.000142856
9 *794:14 *3105:RESET_B 0.00010377
10 *794:14 *3361:A 0
11 *794:14 *878:73 5.62709e-05
12 *794:14 *883:10 0.000246133
13 *794:14 *883:14 0.000254487
14 *794:14 *972:10 0
15 *794:14 *1007:22 0
16 *2454:B *794:14 0.000738141
17 *2487:A *794:14 0
18 *2619:B *794:14 0.00017309
19 *2763:A_N *794:14 0.000125724
20 *2770:A2_N *794:14 0.000197984
21 *2772:B1 *794:14 0.0005288
22 *2775:B1 *794:14 0.000360629
23 *2775:B2 *794:14 0.000173097
24 *2841:D *794:14 0.000317602
25 *3189:A *794:14 1.41029e-05
26 *3281:A *794:14 1.02504e-05
27 *433:10 *794:14 0.000175561
28 *433:16 *794:14 3.91491e-05
29 *505:18 *794:14 0
30 *505:44 *794:14 0
31 *561:28 *794:14 7.6644e-05
32 *571:8 *794:8 2.15245e-05
33 *739:16 *794:14 0.000213642
34 *767:23 *794:14 1.50181e-05
*RES
1 *2810:Q *794:8 20.4964 
2 *794:8 *794:14 46.3571 
3 *794:14 *3323:A 9.3 
*END

*D_NET *795 0.00690594
*CONN
*I *3324:A I *D sky130_fd_sc_hd__buf_2
*I *2811:Q O *D sky130_fd_sc_hd__dlxtn_1
*CAP
1 *3324:A 0.00321253
2 *2811:Q 0.00321253
3 *3324:A *2733:A1 0.000142167
4 *3324:A *3186:A 6.67824e-05
5 *3324:A *3360:A 0
6 *3324:A *880:10 0.000145196
7 *2734:S *3324:A 0.000126731
8 *3193:A *3324:A 0
*RES
1 *2811:Q *3324:A 49.8507 
*END

*D_NET *796 0.000550023
*CONN
*I *3325:A I *D sky130_fd_sc_hd__buf_2
*I *2812:Q O *D sky130_fd_sc_hd__dlxtn_1
*CAP
1 *3325:A 0.00018875
2 *2812:Q 0.00018875
3 *3325:A *3326:A 0
4 *3325:A *3327:A 0
5 *3325:A *3367:A 9.41642e-05
6 *3325:A *846:28 7.83587e-05
7 *3259:A *3325:A 0
*RES
1 *2812:Q *3325:A 30.4929 
*END

*D_NET *797 0.00123861
*CONN
*I *3326:A I *D sky130_fd_sc_hd__buf_2
*I *2813:Q O *D sky130_fd_sc_hd__dlxtn_1
*CAP
1 *3326:A 0.000343049
2 *2813:Q 0.000343049
3 *3326:A *2653:A 0.000145677
4 *3326:A *2817:GATE_N 8.38281e-05
5 *3326:A *846:28 0
6 *3326:A *877:64 2.94103e-05
7 *3326:A *877:86 4.87252e-05
8 PWDATA[5] *3326:A 0
9 rdata[3] *3326:A 0
10 *2597:B *3326:A 0.000169639
11 *2817:D *3326:A 0
12 *3259:A *3326:A 9.25014e-06
13 *3322:A *3326:A 4.66942e-05
14 *3325:A *3326:A 0
15 *791:8 *3326:A 1.92905e-05
*RES
1 *2813:Q *3326:A 34.9393 
*END

*D_NET *798 0.000912194
*CONN
*I *3327:A I *D sky130_fd_sc_hd__buf_2
*I *2814:Q O *D sky130_fd_sc_hd__dlxtn_1
*CAP
1 *3327:A 0.000285825
2 *2814:Q 0.000285825
3 *3327:A *2670:A0 0
4 *3327:A *3341:A 9.58181e-05
5 *3327:A *3367:A 4.47937e-05
6 *3327:A *846:28 0
7 rdata[14] *3327:A 7.6644e-05
8 *3325:A *3327:A 0
9 *426:10 *3327:A 0.000123288
*RES
1 *2814:Q *3327:A 32.9214 
*END

*D_NET *799 0.000731444
*CONN
*I *3328:A I *D sky130_fd_sc_hd__buf_2
*I *2815:Q O *D sky130_fd_sc_hd__dlxtn_1
*CAP
1 *3328:A 0.00030075
2 *2815:Q 0.00030075
3 *3328:A *2821:GATE_N 7.6644e-05
4 *3328:A *3368:A 0
5 *3328:A *846:28 5.33005e-05
6 *3328:A *1038:10 0
7 *2574:B2 *3328:A 0
*RES
1 *2815:Q *3328:A 32.5107 
*END

*D_NET *800 0.000873304
*CONN
*I *3329:A I *D sky130_fd_sc_hd__buf_2
*I *2458:X O *D sky130_fd_sc_hd__and2_1
*CAP
1 *3329:A 0.000147793
2 *2458:X 0.000147793
3 *3329:A *2722:A 5.52302e-05
4 *3329:A *3359:A 0.00034321
5 *3329:A *957:16 8.08376e-05
6 *3329:A *957:18 2.00751e-05
7 *2750:B1 *3329:A 7.83659e-05
*RES
1 *2458:X *3329:A 32.5107 
*END

*D_NET *801 0.0169632
*CONN
*I *2739:B I *D sky130_fd_sc_hd__nor2_2
*I *3330:A I *D sky130_fd_sc_hd__buf_2
*I *2458:B I *D sky130_fd_sc_hd__and2_1
*I *3113:A I *D sky130_fd_sc_hd__clkbuf_1
*I *2783:A1 I *D sky130_fd_sc_hd__o21a_1
*I *2784:B I *D sky130_fd_sc_hd__or3_1
*I *2740:B I *D sky130_fd_sc_hd__or2_1
*I *2692:B1 I *D sky130_fd_sc_hd__o31a_1
*I *2844:D I *D sky130_fd_sc_hd__dlxtn_1
*I *2776:B2 I *D sky130_fd_sc_hd__a32o_1
*I *2457:Y O *D sky130_fd_sc_hd__inv_2
*CAP
1 *2739:B 7.91055e-05
2 *3330:A 9.21046e-05
3 *2458:B 0.000429213
4 *3113:A 0
5 *2783:A1 0
6 *2784:B 0.00058954
7 *2740:B 8.9305e-05
8 *2692:B1 0
9 *2844:D 3.72704e-05
10 *2776:B2 0.00013877
11 *2457:Y 0.000334723
12 *801:111 0.000559207
13 *801:82 0.00163229
14 *801:76 0.00238432
15 *801:64 0.00147403
16 *801:53 0.000573288
17 *801:42 0.000681851
18 *801:34 0.000570605
19 *801:21 0.000333537
20 *801:10 0.000570702
21 *2458:B *3245:A 0.000603233
22 *2458:B *3359:A 3.57844e-05
23 *2458:B *975:14 7.03295e-05
24 *2458:B *987:16 0.000487467
25 *2740:B *804:39 9.80173e-05
26 *2784:B *2795:A 0.000143188
27 *2784:B *936:10 9.25014e-06
28 *3330:A *2394:A 0.000121573
29 *3330:A *981:14 0.000182153
30 *801:10 *2693:A 0.00010326
31 *801:10 *883:127 1.21289e-05
32 *801:34 *2739:A 5.22205e-05
33 *801:34 *804:10 0
34 *801:42 *2762:A1 0
35 *801:53 *2762:A1 0
36 *801:64 *3332:A 0
37 *801:64 *952:10 0
38 *801:76 *2659:A0 5.52238e-05
39 *801:76 *2659:A1 4.15914e-05
40 *801:76 *2662:A0 0.000413701
41 *801:76 *2662:S 0
42 *801:76 *2671:S 0.00044852
43 *801:76 *3245:A 5.52238e-05
44 *801:76 *883:133 0.000144773
45 *801:76 *952:10 0.000186669
46 *801:76 *987:16 6.6477e-05
47 *801:76 *988:16 3.18676e-05
48 *801:111 *2394:A 3.34295e-05
49 *801:111 *3332:A 0
50 *801:111 *981:14 5.83304e-05
51 *2405:A *801:53 5.83233e-05
52 *2405:B *801:53 5.59013e-05
53 *2692:A1 *801:42 4.1331e-06
54 *2692:A1 *801:53 2.00751e-05
55 *2747:A1 *2740:B 0.000193814
56 *2747:S *801:53 0
57 *2762:A2 *2739:B 3.97677e-05
58 *2762:A2 *801:34 0
59 *2762:A2 *801:42 8.72571e-05
60 *2762:B2 *801:42 0.00014285
61 *2776:B1 *2776:B2 1.33343e-05
62 *2778:A1 *801:10 0.000140933
63 *2778:A1 *801:21 0
64 *2778:A1 *801:34 0
65 *2788:A2 *801:82 0
66 *2788:B1 *801:82 0
67 *2792:B *2784:B 0
68 *2792:B *801:82 0
69 *2794:A1 *2784:B 9.15186e-06
70 *2794:A1 *801:82 0
71 *2796:A *2784:B 9.41642e-05
72 *2796:B *2784:B 9.80405e-05
73 *2797:B2 *2784:B 0.000227532
74 *3157:A *801:53 0
75 *3229:A *2784:B 4.89867e-05
76 *3303:A *3330:A 0
77 *386:14 *801:76 0
78 *471:14 *2458:B 0.000122933
79 *680:16 *2776:B2 0.000142856
80 *680:16 *801:10 3.34366e-05
81 *680:16 *801:21 0.00019187
82 *680:16 *801:34 0.000406926
83 *722:46 *801:53 0
84 *751:18 *2776:B2 7.32272e-05
85 *751:18 *801:10 0.00018372
86 *751:26 *801:10 0
87 *754:12 *801:82 0
88 *758:10 *801:82 0
89 *759:12 *2784:B 4.60232e-06
90 *782:10 *801:53 0.000175512
91 *782:10 *801:64 1.78353e-05
92 *782:32 *2740:B 6.05161e-06
93 *782:43 *2740:B 0.000162015
94 *782:43 *801:53 0
95 *782:43 *801:64 0
96 *783:21 *801:53 5.79266e-05
97 *784:21 *801:42 0
98 *785:12 *801:53 0.000125724
*RES
1 *2457:Y *801:10 19.1571 
2 *801:10 *2776:B2 16.8 
3 *801:10 *801:21 2.55357 
4 *801:21 *2844:D 14.3357 
5 *801:21 *801:34 9.78571 
6 *801:34 *801:42 9.57143 
7 *801:42 *2692:B1 13.8 
8 *801:42 *801:53 8.66071 
9 *801:53 *2740:B 17.6214 
10 *801:53 *801:64 1.64286 
11 *801:64 *801:76 36.3393 
12 *801:76 *801:82 22.875 
13 *801:82 *2784:B 23.175 
14 *801:82 *2783:A1 13.8 
15 *801:76 *3113:A 9.3 
16 *801:64 *801:111 1.03571 
17 *801:111 *2458:B 35.7464 
18 *801:111 *3330:A 16.3536 
19 *801:34 *2739:B 10.675 
*END

*D_NET *802 0.00361409
*CONN
*I *2662:A1 I *D sky130_fd_sc_hd__mux2_1
*I *3255:X O *D sky130_fd_sc_hd__clkbuf_1
*CAP
1 *2662:A1 0.000998852
2 *3255:X 0.000998852
3 *2662:A1 *2659:A0 0
4 *2662:A1 *2659:A1 5.52302e-05
5 *2662:A1 *2662:S 5.80706e-06
6 *2662:A1 *981:14 0.000176196
7 *2662:A1 *988:16 0.00132285
8 *3290:A *2662:A1 5.62995e-05
*RES
1 *3255:X *2662:A1 48.1536 
*END

*D_NET *803 0.000769207
*CONN
*I *3331:A I *D sky130_fd_sc_hd__buf_2
*I *3113:X O *D sky130_fd_sc_hd__clkbuf_1
*CAP
1 *3331:A 0.000313179
2 *3113:X 0.000313179
3 *3331:A *975:14 0
4 *3331:A *988:16 0.00014285
*RES
1 *3113:X *3331:A 33.3321 
*END

*D_NET *804 0.00685204
*CONN
*I *2740:A I *D sky130_fd_sc_hd__or2_1
*I *3332:A I *D sky130_fd_sc_hd__buf_2
*I *2739:A I *D sky130_fd_sc_hd__nor2_2
*I *2399:Y O *D sky130_fd_sc_hd__inv_2
*CAP
1 *2740:A 0
2 *3332:A 0.000689491
3 *2739:A 0.000153393
4 *2399:Y 0.000326886
5 *804:39 0.00121106
6 *804:10 0.00100185
7 *3332:A *2394:A 0
8 *3332:A *2659:A0 7.77751e-05
9 *3332:A *2662:A0 0.000618905
10 *3332:A *975:16 0
11 *3332:A *981:14 0.000493107
12 *3332:A *987:16 0
13 *804:10 *2716:A 4.43157e-05
14 *804:10 *2716:B 5.33005e-05
15 *804:10 *885:50 0.000139907
16 *804:39 *2757:A1 0.00017309
17 *2458:A *804:10 9.90431e-05
18 *2458:A *804:39 0
19 *2740:B *804:39 9.80173e-05
20 *2747:A1 *804:39 1.39726e-05
21 *2751:A1 *804:39 9.91086e-05
22 *2751:B1 *804:39 2.49484e-05
23 *2751:B2 *804:39 0.000149911
24 *2752:A1 *804:39 3.4323e-06
25 *2762:A2 *2739:A 0.000142856
26 *2762:A2 *804:39 0.000332786
27 *2776:B1 *804:10 0.000153054
28 *2778:A1 *804:10 0.000177941
29 *2779:A *804:10 1.56e-05
30 *3117:A *2739:A 6.05161e-06
31 *3117:A *804:10 8.33655e-05
32 *3117:A *804:39 2.94103e-05
33 *481:18 *804:39 7.6644e-05
34 *704:55 *804:39 2.04817e-05
35 *718:8 *2739:A 1.02821e-05
36 *782:43 *3332:A 3.17148e-05
37 *782:43 *804:39 0.000204968
38 *782:45 *804:39 4.31475e-05
39 *801:34 *2739:A 5.22205e-05
40 *801:34 *804:10 0
41 *801:64 *3332:A 0
42 *801:111 *3332:A 0
*RES
1 *2399:Y *804:10 21.6929 
2 *804:10 *2739:A 25.9607 
3 *804:10 *804:39 17.2679 
4 *804:39 *3332:A 34.7286 
5 *804:39 *2740:A 9.3 
*END

*D_NET *805 0.0274941
*CONN
*I *3097:GATE_N I *D sky130_fd_sc_hd__dlxtn_1
*I *3093:GATE_N I *D sky130_fd_sc_hd__dlxtn_1
*I *3099:GATE_N I *D sky130_fd_sc_hd__dlxtn_1
*I *3088:GATE_N I *D sky130_fd_sc_hd__dlxtn_1
*I *3098:GATE_N I *D sky130_fd_sc_hd__dlxtn_1
*I *3086:GATE_N I *D sky130_fd_sc_hd__dlxtn_1
*I *3095:GATE_N I *D sky130_fd_sc_hd__dlxtn_1
*I *3092:GATE_N I *D sky130_fd_sc_hd__dlxtn_1
*I *3085:GATE_N I *D sky130_fd_sc_hd__dlxtn_1
*I *3096:GATE_N I *D sky130_fd_sc_hd__dlxtn_1
*I *3118:X O *D sky130_fd_sc_hd__buf_2
*CAP
1 *3097:GATE_N 0.000101849
2 *3093:GATE_N 0.00106557
3 *3099:GATE_N 3.24572e-05
4 *3088:GATE_N 6.27673e-05
5 *3098:GATE_N 9.57316e-05
6 *3086:GATE_N 6.59781e-05
7 *3095:GATE_N 9.44279e-05
8 *3092:GATE_N 7.15331e-05
9 *3085:GATE_N 9.25611e-05
10 *3096:GATE_N 8.63442e-05
11 *3118:X 3.70117e-05
12 *805:84 0.00216022
13 *805:65 0.00210778
14 *805:36 0.000491518
15 *805:34 0.00052591
16 *805:32 0.00161779
17 *805:28 0.00191361
18 *805:22 0.000533024
19 *805:20 0.00263796
20 *805:8 0.00160034
21 *3085:GATE_N *875:43 0.00036192
22 *3086:GATE_N *2974:GATE_N 0
23 *3086:GATE_N *3086:D 7.57664e-06
24 *3086:GATE_N *874:38 2.14757e-05
25 *3088:GATE_N *2923:GATE_N 0.000112286
26 *3088:GATE_N *909:27 0.000159558
27 *3092:GATE_N *920:23 9.71197e-05
28 *3093:GATE_N *2620:B1 0
29 *3093:GATE_N *3045:D 4.92407e-05
30 *3093:GATE_N *3045:GATE_N 0
31 *3093:GATE_N *811:14 0
32 *3093:GATE_N *825:12 0
33 *3096:GATE_N *827:96 0
34 *3097:GATE_N *850:12 0.000222666
35 *3098:GATE_N *3098:D 9.25014e-06
36 *3098:GATE_N *864:77 9.41642e-05
37 *3098:GATE_N *899:10 3.45894e-05
38 *3099:GATE_N *844:95 2.44318e-05
39 *3099:GATE_N *845:31 5.33005e-05
40 *3099:GATE_N *854:40 3.14163e-05
41 *805:8 *930:14 0.000153054
42 *805:20 *2859:D 0.00018077
43 *805:20 *845:31 0.00040279
44 *805:20 *930:14 0.00012401
45 *805:22 *809:165 0
46 *805:22 *845:31 0.000223032
47 *805:22 *894:10 7.39742e-05
48 *805:28 *2955:GATE_N 0
49 *805:28 *809:119 0
50 *805:28 *845:31 2.95642e-05
51 *805:28 *894:10 0.000185405
52 *805:34 *920:23 0.000175793
53 *805:36 *3092:D 0
54 *805:36 *827:94 0
55 *805:36 *827:96 0
56 *805:36 *920:23 1.52978e-05
57 *805:65 *920:23 2.11362e-05
58 *805:84 *2926:GATE_N 0
59 *805:84 *2974:GATE_N 0.000143663
60 *805:84 *3043:GATE_N 0
61 *805:84 *3049:GATE_N 0.000387079
62 *805:84 *3086:D 2.64293e-05
63 *805:84 *864:77 5.52238e-05
64 *805:84 *874:17 0.000213424
65 *805:84 *874:19 3.98517e-05
66 *805:84 *874:25 1.57523e-05
67 *805:84 *898:127 0
68 *805:84 *920:23 0.000317054
69 *805:84 *920:177 9.5303e-05
70 *805:84 *933:28 0.000552693
71 *2477:B2 *3098:GATE_N 0.000104586
72 *2507:B *805:34 7.83587e-05
73 *2508:B2 *805:28 0.000125817
74 *2508:B2 *805:32 0.00155162
75 *2552:B2 *805:32 6.03803e-05
76 *2554:A1 *3093:GATE_N 0.000108229
77 *2572:A1 *3085:GATE_N 9.92409e-05
78 *2572:B1 *3096:GATE_N 6.74815e-05
79 *2607:B2 *3093:GATE_N 0
80 *2620:A1 *805:20 0.00018077
81 *2620:B2 *805:20 0.000229456
82 *2629:B1 *805:20 7.02611e-05
83 *2636:A1 *805:84 6.24302e-05
84 *2636:C1 *805:84 0.000125724
85 *2638:B1 *805:84 0.000310608
86 *2640:B2 *3093:GATE_N 0.00033948
87 *3219:A *805:84 0.00058389
88 *381:10 *3096:GATE_N 0.000108848
89 *381:10 *805:34 0.000137485
90 *381:10 *805:36 0.000305867
91 *381:10 *805:65 2.11543e-05
92 *381:10 *805:84 0.000292587
93 *435:32 *3093:GATE_N 2.11419e-05
94 *496:24 *3098:GATE_N 0.000150618
95 *498:18 *3093:GATE_N 0.000197103
96 *498:18 *805:22 3.47641e-06
97 *620:18 *805:28 6.29147e-05
98 *620:18 *805:32 0.000812702
99 *661:12 *805:20 0.000906907
100 *671:8 *805:8 0.000144512
101 *671:8 *805:20 0.000125731
*RES
1 *3118:X *805:8 15.7464 
2 *805:8 *805:20 32.2679 
3 *805:20 *805:22 3.16071 
4 *805:22 *805:28 8.95126 
5 *805:28 *805:32 8.14133 
6 *805:32 *805:34 4.52679 
7 *805:34 *805:36 7.41071 
8 *805:36 *3096:GATE_N 16.3536 
9 *805:36 *3085:GATE_N 17.2107 
10 *805:34 *3092:GATE_N 15.1571 
11 *805:32 *805:65 0.580357 
12 *805:65 *3095:GATE_N 15.1571 
13 *805:65 *805:84 49.4643 
14 *805:84 *3086:GATE_N 10.6929 
15 *805:84 *3098:GATE_N 21.1929 
16 *805:28 *3088:GATE_N 19.3082 
17 *805:22 *3099:GATE_N 14.7464 
18 *805:20 *3093:GATE_N 29.4693 
19 *805:8 *3097:GATE_N 15.9786 
*END

*D_NET *806 0.0169139
*CONN
*I *3091:GATE_N I *D sky130_fd_sc_hd__dlxtn_1
*I *3090:GATE_N I *D sky130_fd_sc_hd__dlxtn_1
*I *3087:GATE_N I *D sky130_fd_sc_hd__dlxtn_1
*I *3094:GATE_N I *D sky130_fd_sc_hd__dlxtn_1
*I *3100:GATE_N I *D sky130_fd_sc_hd__dlxtn_1
*I *3089:GATE_N I *D sky130_fd_sc_hd__dlxtn_1
*I *3119:X O *D sky130_fd_sc_hd__clkbuf_2
*CAP
1 *3091:GATE_N 0.000845319
2 *3090:GATE_N 8.97587e-05
3 *3087:GATE_N 0.000711775
4 *3094:GATE_N 5.73306e-05
5 *3100:GATE_N 3.9529e-05
6 *3089:GATE_N 0.000110286
7 *3119:X 0
8 *806:60 0.00238442
9 *806:39 0.00243688
10 *806:10 0.00179859
11 *806:4 0.00184134
12 *3087:GATE_N *2587:A2 0
13 *3087:GATE_N *3055:GATE_N 1.94945e-05
14 *3087:GATE_N *807:59 0.000183478
15 *3087:GATE_N *872:42 1.92789e-05
16 *3087:GATE_N *891:34 8.84294e-05
17 *3089:GATE_N *2945:GATE_N 9.90431e-05
18 *3089:GATE_N *826:12 8.50795e-06
19 *3089:GATE_N *864:51 7.77751e-05
20 *3089:GATE_N *895:50 2.14757e-05
21 *3091:GATE_N *2521:A2 0
22 *3091:GATE_N *2930:GATE_N 2.80507e-05
23 *3091:GATE_N *3074:D 0
24 *3091:GATE_N *3090:D 1.92905e-05
25 *3091:GATE_N *828:37 3.34783e-05
26 *3091:GATE_N *863:16 0.000139913
27 *3091:GATE_N *863:64 4.18895e-05
28 *3094:GATE_N *807:59 0.00010096
29 *3094:GATE_N *822:78 0
30 *3094:GATE_N *909:73 4.01768e-05
31 *3100:GATE_N *2926:GATE_N 0
32 *3100:GATE_N *3068:GATE_N 2.11419e-05
33 *806:10 *2424:B 0.000157311
34 *806:10 *2511:B1 1.07719e-05
35 *806:10 *2513:A2 4.34948e-06
36 *806:10 *2513:B1 1.07719e-05
37 *806:10 *826:12 0
38 *806:10 *891:14 0.00011327
39 *806:10 *893:52 1.82638e-05
40 *806:39 *2924:D 0.00011819
41 *806:39 *2929:D 0.000111527
42 *806:39 *2945:D 5.06883e-05
43 *806:39 *2945:GATE_N 6.2589e-06
44 *806:39 *808:54 7.6644e-05
45 *806:39 *810:20 0
46 *806:39 *810:26 0.000449011
47 *806:39 *826:12 0
48 *806:39 *826:16 0
49 *806:39 *828:29 7.28104e-05
50 *806:39 *843:46 2.11362e-05
51 *806:39 *891:14 9.49567e-05
52 *806:39 *912:72 7.76056e-05
53 *806:60 *2499:A2 0
54 *806:60 *2499:B1 0
55 *806:60 *2554:B1 0.000114326
56 *806:60 *2587:A2 0
57 *806:60 *2948:GATE_N 0.000669916
58 *806:60 *2951:GATE_N 5.05056e-05
59 *806:60 *2956:D 8.45315e-05
60 *806:60 *2972:GATE_N 0
61 *806:60 *3046:D 7.38652e-05
62 *806:60 *3076:D 9.47456e-05
63 *806:60 *807:59 3.17148e-05
64 *806:60 *826:16 0
65 *806:60 *827:52 0.000742722
66 *806:60 *827:67 0.000115489
67 *806:60 *827:71 7.33463e-05
68 *806:60 *843:27 2.2231e-05
69 *806:60 *843:46 9.01911e-05
70 *806:60 *858:40 3.67124e-06
71 *806:60 *861:58 7.57773e-05
72 *806:60 *891:34 0.000158109
73 *806:60 *896:62 0
74 *2513:A1 *806:10 4.08622e-05
75 *2513:B2 *806:10 3.82227e-06
76 *2522:C1 *3091:GATE_N 0.000106533
77 *2532:B2 *3091:GATE_N 0.000341788
78 *2621:A1 *806:60 0.000100478
79 *2629:B1 *806:60 0.000112287
80 *2633:A1 *806:60 0.000105696
81 *2634:C1 *806:39 0.000154576
82 *2634:C1 *806:60 2.70177e-05
83 *3118:A *3091:GATE_N 0.000120236
84 *3134:A *3090:GATE_N 3.98517e-05
85 *3134:A *3091:GATE_N 3.26772e-05
86 *442:6 *3090:GATE_N 1.92789e-05
87 *442:6 *806:10 1.20865e-05
88 *447:22 *806:60 0.000459407
89 *448:45 *3091:GATE_N 0
90 *540:18 *3087:GATE_N 0.000185024
*RES
1 *3119:X *806:4 9.3 
2 *806:4 *806:10 15.5625 
3 *806:10 *3089:GATE_N 16.3982 
4 *806:10 *806:39 24.8393 
5 *806:39 *3100:GATE_N 14.6125 
6 *806:39 *806:60 46.6161 
7 *806:60 *3094:GATE_N 15.2821 
8 *806:60 *3087:GATE_N 25.3226 
9 *806:4 *3090:GATE_N 11.8 
10 *806:4 *3091:GATE_N 34.3536 
*END

*D_NET *807 0.0234994
*CONN
*I *3077:GATE_N I *D sky130_fd_sc_hd__dlxtn_1
*I *3079:GATE_N I *D sky130_fd_sc_hd__dlxtn_1
*I *3078:GATE_N I *D sky130_fd_sc_hd__dlxtn_1
*I *3069:GATE_N I *D sky130_fd_sc_hd__dlxtn_1
*I *3081:GATE_N I *D sky130_fd_sc_hd__dlxtn_1
*I *3083:GATE_N I *D sky130_fd_sc_hd__dlxtn_1
*I *3072:GATE_N I *D sky130_fd_sc_hd__dlxtn_1
*I *3080:GATE_N I *D sky130_fd_sc_hd__dlxtn_1
*I *3071:GATE_N I *D sky130_fd_sc_hd__dlxtn_1
*I *3076:GATE_N I *D sky130_fd_sc_hd__dlxtn_1
*I *3120:X O *D sky130_fd_sc_hd__buf_2
*CAP
1 *3077:GATE_N 0
2 *3079:GATE_N 0
3 *3078:GATE_N 3.38664e-06
4 *3069:GATE_N 0
5 *3081:GATE_N 0.000742369
6 *3083:GATE_N 0.000119315
7 *3072:GATE_N 2.91227e-05
8 *3080:GATE_N 0.000402586
9 *3071:GATE_N 3.00904e-05
10 *3076:GATE_N 0.000223895
11 *3120:X 0.000116911
12 *807:112 0.00143732
13 *807:101 0.000766654
14 *807:73 0.000615145
15 *807:71 0.000918277
16 *807:59 0.00140273
17 *807:43 0.00134759
18 *807:20 0.00149903
19 *807:12 0.00129503
20 *807:10 0.000652201
21 *3071:GATE_N *829:65 9.59532e-06
22 *3071:GATE_N *852:31 1.92789e-05
23 *3072:GATE_N *869:16 3.32631e-05
24 *3076:GATE_N *809:58 9.68453e-05
25 *3080:GATE_N *827:96 9.59532e-06
26 *3080:GATE_N *876:50 0.000131198
27 *3081:GATE_N *825:12 0.000117196
28 *3081:GATE_N *825:18 3.17148e-05
29 *3081:GATE_N *825:94 0
30 *3081:GATE_N *849:19 4.884e-05
31 *3081:GATE_N *892:8 5.52238e-05
32 *3081:GATE_N *892:10 0
33 *3083:GATE_N *825:73 5.33005e-05
34 *3083:GATE_N *854:10 2.59355e-05
35 *3083:GATE_N *854:40 1.98839e-05
36 *807:10 *3065:GATE_N 0.000125555
37 *807:10 *3084:GATE_N 0.000116829
38 *807:12 *3065:GATE_N 0.000768609
39 *807:12 *3084:GATE_N 0.000217163
40 *807:12 *822:22 9.06879e-05
41 *807:12 *822:30 0.000405929
42 *807:12 *911:26 4.22579e-05
43 *807:20 *2543:A2 0.000371887
44 *807:20 *809:54 0
45 *807:20 *809:58 0.00011087
46 *807:20 *822:30 9.00074e-05
47 *807:20 *827:160 0
48 *807:20 *854:59 9.10431e-06
49 *807:20 *892:95 0
50 *807:20 *911:26 0.000192645
51 *807:20 *930:31 0
52 *807:43 *2966:D 0.000113446
53 *807:43 *822:60 0.000143513
54 *807:43 *856:47 0.000131365
55 *807:43 *872:42 2.75549e-05
56 *807:43 *891:34 0
57 *807:43 *990:12 0.00013651
58 *807:59 *2565:A2 0.000225609
59 *807:59 *2587:A2 0
60 *807:59 *3046:D 3.17148e-05
61 *807:59 *3094:D 5.33005e-05
62 *807:59 *822:60 0.000144668
63 *807:59 *875:30 3.7746e-05
64 *807:59 *876:38 0.000489906
65 *807:59 *889:82 5.71472e-05
66 *807:59 *909:73 2.32353e-05
67 *807:71 *2911:D 0
68 *807:71 *3039:D 0
69 *807:71 *875:30 0.000339636
70 *807:71 *889:82 0.0013964
71 *807:73 *825:96 0
72 *807:73 *829:59 5.41794e-05
73 *807:73 *829:65 0.000183645
74 *807:101 *2501:B1 7.6021e-05
75 *807:101 *811:58 1.94945e-05
76 *807:101 *825:96 0
77 *807:101 *829:59 0.000332508
78 *807:112 *2501:B1 6.73313e-05
79 *807:112 *2919:GATE_N 0.000313226
80 *807:112 *3063:GATE_N 2.26973e-05
81 *807:112 *825:18 0.000144903
82 *807:112 *825:94 0
83 *807:112 *829:55 0.000193386
84 *807:112 *829:59 2.04825e-05
85 *807:112 *914:10 0
86 *807:112 *914:16 0
87 *2501:A1 *807:112 4.85029e-05
88 *2572:A1 *3080:GATE_N 0
89 *2576:A1 *807:12 9.9974e-05
90 *3087:GATE_N *807:59 0.000183478
91 *3094:GATE_N *807:59 0.00010096
92 *3155:A *3081:GATE_N 0.000258741
93 *3163:A *807:112 5.71309e-05
94 *3177:A *3072:GATE_N 9.71197e-05
95 *3179:A *3071:GATE_N 1.90936e-05
96 *3179:A *807:73 0.000160032
97 *377:14 *807:73 0.000101775
98 *377:14 *807:112 1.69159e-05
99 *385:12 *807:71 5.41794e-05
100 *390:10 *807:12 0.000327647
101 *390:10 *807:20 7.11735e-05
102 *499:22 *3081:GATE_N 0.000125057
103 *515:18 *3080:GATE_N 0.000497942
104 *535:14 *3071:GATE_N 5.33005e-05
105 *540:18 *3080:GATE_N 0.00139583
106 *598:26 *807:10 9.41642e-05
107 *655:16 *3083:GATE_N 0.000129913
108 *806:60 *807:59 3.17148e-05
*RES
1 *3120:X *807:10 16.3893 
2 *807:10 *807:12 17.4286 
3 *807:12 *807:20 18.5 
4 *807:20 *3076:GATE_N 13.1393 
5 *807:20 *807:43 15.3482 
6 *807:43 *807:59 20.5625 
7 *807:59 *807:71 27.625 
8 *807:71 *807:73 5.4375 
9 *807:73 *3071:GATE_N 14.6125 
10 *807:73 *3080:GATE_N 23.1058 
11 *807:71 *807:101 4.375 
12 *807:101 *3072:GATE_N 14.7464 
13 *807:101 *807:112 12.2679 
14 *807:112 *3083:GATE_N 16.3893 
15 *807:112 *3081:GATE_N 27.425 
16 *807:59 *3069:GATE_N 9.3 
17 *807:43 *3078:GATE_N 14.0768 
18 *807:12 *3079:GATE_N 13.8 
19 *807:10 *3077:GATE_N 13.8 
*END

*D_NET *808 0.0146675
*CONN
*I *3074:GATE_N I *D sky130_fd_sc_hd__dlxtn_1
*I *3073:GATE_N I *D sky130_fd_sc_hd__dlxtn_1
*I *3082:GATE_N I *D sky130_fd_sc_hd__dlxtn_1
*I *3070:GATE_N I *D sky130_fd_sc_hd__dlxtn_1
*I *3075:GATE_N I *D sky130_fd_sc_hd__dlxtn_1
*I *3084:GATE_N I *D sky130_fd_sc_hd__dlxtn_1
*I *3121:X O *D sky130_fd_sc_hd__dlymetal6s2s_1
*CAP
1 *3074:GATE_N 6.95795e-05
2 *3073:GATE_N 2.63523e-05
3 *3082:GATE_N 0.000107896
4 *3070:GATE_N 7.93676e-05
5 *3075:GATE_N 2.1256e-05
6 *3084:GATE_N 0.000421846
7 *3121:X 0.000196276
8 *808:66 0.00287617
9 *808:54 0.00346007
10 *808:20 0.000614323
11 *808:14 0.00107922
12 *808:12 0.000429035
13 *3070:GATE_N *2636:A2 7.90803e-05
14 *3070:GATE_N *3043:GATE_N 0.000149904
15 *3070:GATE_N *921:26 2.05938e-05
16 *3070:GATE_N *923:72 1.21258e-05
17 *3073:GATE_N *3057:GATE_N 5.96006e-05
18 *3074:GATE_N *864:51 1.98839e-05
19 *3082:GATE_N *3043:GATE_N 4.80729e-05
20 *3082:GATE_N *3082:D 4.1331e-06
21 *3082:GATE_N *812:69 0.000195562
22 *3082:GATE_N *832:79 0
23 *3082:GATE_N *893:16 0
24 *3082:GATE_N *921:26 6.13382e-05
25 *3084:GATE_N *3059:GATE_N 6.86099e-05
26 *3084:GATE_N *3065:GATE_N 1.39737e-05
27 *3084:GATE_N *843:8 2.89114e-05
28 *808:12 *810:20 9.60939e-05
29 *808:12 *812:18 0.00032156
30 *808:12 *823:14 0.000137834
31 *808:12 *911:22 9.86249e-07
32 *808:14 *895:62 0.00012116
33 *808:14 *911:22 0.000107657
34 *808:14 *915:62 0.000146474
35 *808:20 *911:22 0.000117378
36 *808:20 *915:62 0.00022117
37 *808:54 *828:29 4.67115e-05
38 *808:54 *828:33 0.000300356
39 *808:66 *2482:A2 9.74243e-05
40 *808:66 *3038:D 2.15245e-05
41 *808:66 *3038:GATE_N 7.48091e-05
42 *808:66 *834:68 1.58029e-05
43 *808:66 *866:32 3.67142e-05
44 *808:66 *866:39 4.16984e-05
45 *808:66 *873:23 8.25843e-06
46 *2480:A1 *3070:GATE_N 6.12754e-05
47 *2482:A1 *808:66 1.20814e-05
48 *2482:B2 *808:66 4.88631e-05
49 *2485:B *808:66 5.52302e-05
50 *2486:B2 *808:66 0.0003297
51 *3119:A *808:12 9.79339e-05
52 *3119:A *808:14 0.000104067
53 *3120:A *3084:GATE_N 0.000376324
54 *3121:A *808:12 3.63437e-05
55 *3139:A *808:66 0.000118993
56 *3152:A *3084:GATE_N 0.00014734
57 *382:14 *3084:GATE_N 9.80173e-05
58 *390:10 *3084:GATE_N 0.000121337
59 *448:6 *3074:GATE_N 5.75147e-05
60 *448:45 *3074:GATE_N 3.69047e-06
61 *448:45 *3084:GATE_N 0.000127801
62 *449:14 *3074:GATE_N 0.000137983
63 *531:10 *808:66 0.000146523
64 *531:37 *3075:GATE_N 2.89114e-05
65 *531:37 *808:20 9.0145e-05
66 *806:39 *808:54 7.6644e-05
67 *807:10 *3084:GATE_N 0.000116829
68 *807:12 *3084:GATE_N 0.000217163
*RES
1 *3121:X *808:12 19.55 
2 *808:12 *808:14 4.67857 
3 *808:14 *808:20 9.125 
4 *808:20 *3084:GATE_N 30.2107 
5 *808:20 *3075:GATE_N 9.83571 
6 *808:14 *808:54 24.6607 
7 *808:54 *808:66 38.1786 
8 *808:66 *3070:GATE_N 16.2821 
9 *808:66 *3082:GATE_N 16.9607 
10 *808:54 *3073:GATE_N 10.0321 
11 *808:12 *3074:GATE_N 15.5679 
*END

*D_NET *809 0.0331914
*CONN
*I *3055:GATE_N I *D sky130_fd_sc_hd__dlxtn_1
*I *3056:GATE_N I *D sky130_fd_sc_hd__dlxtn_1
*I *3054:GATE_N I *D sky130_fd_sc_hd__dlxtn_1
*I *3063:GATE_N I *D sky130_fd_sc_hd__dlxtn_1
*I *3067:GATE_N I *D sky130_fd_sc_hd__dlxtn_1
*I *3064:GATE_N I *D sky130_fd_sc_hd__dlxtn_1
*I *3053:GATE_N I *D sky130_fd_sc_hd__dlxtn_1
*I *3062:GATE_N I *D sky130_fd_sc_hd__dlxtn_1
*I *3060:GATE_N I *D sky130_fd_sc_hd__dlxtn_1
*I *3061:GATE_N I *D sky130_fd_sc_hd__dlxtn_1
*I *3122:X O *D sky130_fd_sc_hd__buf_2
*CAP
1 *3055:GATE_N 0.000486916
2 *3056:GATE_N 0
3 *3054:GATE_N 0.000136255
4 *3063:GATE_N 9.74157e-05
5 *3067:GATE_N 0.000304414
6 *3064:GATE_N 0
7 *3053:GATE_N 0.000305003
8 *3062:GATE_N 0.000573586
9 *3060:GATE_N 7.41624e-05
10 *3061:GATE_N 5.43078e-05
11 *3122:X 9.41717e-05
12 *809:165 0.00162424
13 *809:123 0.000581144
14 *809:119 0.00230065
15 *809:111 0.000665325
16 *809:72 0.00135726
17 *809:68 0.00150579
18 *809:58 0.00245019
19 *809:54 0.00204759
20 *809:35 0.00155762
21 *809:12 0.00146235
22 *3053:GATE_N *2665:A0 9.25014e-06
23 *3053:GATE_N *2665:S 0.000142856
24 *3053:GATE_N *2909:GATE_N 6.97409e-05
25 *3053:GATE_N *829:81 2.44318e-05
26 *3053:GATE_N *882:124 0
27 *3055:GATE_N *2566:B1 0.000226021
28 *3055:GATE_N *827:160 9.82678e-05
29 *3055:GATE_N *871:92 9.90431e-05
30 *3055:GATE_N *892:95 6.73939e-05
31 *3055:GATE_N *909:73 3.65382e-05
32 *3060:GATE_N *827:160 2.30116e-06
33 *3060:GATE_N *861:88 0.00010096
34 *3061:GATE_N *858:14 9.41642e-05
35 *3062:GATE_N *2661:A0 0.00026264
36 *3062:GATE_N *2669:A0 0.000135028
37 *3062:GATE_N *2669:S 0
38 *3062:GATE_N *2934:D 0.000121416
39 *3062:GATE_N *829:81 9.22103e-06
40 *3067:GATE_N *2600:A2 0.000537516
41 *3067:GATE_N *2971:GATE_N 9.38621e-05
42 *3067:GATE_N *3067:D 5.058e-05
43 *3067:GATE_N *845:12 1.03169e-05
44 *3067:GATE_N *914:97 3.10885e-05
45 *3067:GATE_N *916:21 4.87854e-05
46 *3067:GATE_N *916:25 0
47 *809:12 *858:14 0.000222244
48 *809:35 *2664:S 4.16021e-05
49 *809:35 *2670:A0 0.000139913
50 *809:35 *2959:GATE_N 1.94945e-05
51 *809:35 *2964:D 0.000215096
52 *809:35 *2964:GATE_N 2.06178e-05
53 *809:35 *822:14 6.47912e-05
54 *809:35 *827:160 1.90936e-05
55 *809:35 *861:95 0.000476709
56 *809:35 *883:53 8.23597e-06
57 *809:35 *883:57 0.000410722
58 *809:35 *887:104 0.000252623
59 *809:35 *887:123 0
60 *809:35 *892:118 0.000309273
61 *809:35 *909:90 0
62 *809:35 *930:54 0
63 *809:35 *996:26 0.000241397
64 *809:54 *827:160 0.000113173
65 *809:54 *892:95 0.00020112
66 *809:58 *3056:D 5.41609e-05
67 *809:68 *2567:A2 0
68 *809:68 *2968:D 2.59355e-05
69 *809:68 *852:31 4.88637e-05
70 *809:68 *852:38 0.000102197
71 *809:68 *852:51 0.000167998
72 *809:68 *871:92 7.53109e-06
73 *809:68 *875:30 0.00026367
74 *809:68 *876:50 3.90513e-05
75 *809:68 *889:82 0
76 *809:68 *892:54 0
77 *809:68 *894:29 0
78 *809:72 *2567:A2 0
79 *809:72 *2920:GATE_N 0
80 *809:72 *882:124 7.75093e-05
81 *809:111 *889:82 0
82 *809:111 *894:29 0
83 *809:119 *2848:D 0
84 *809:119 *2848:GATE_N 0.000111678
85 *809:119 *2923:GATE_N 0
86 *809:119 *853:133 0.000178865
87 *809:119 *889:82 6.10591e-05
88 *809:119 *889:94 0
89 *809:119 *894:29 0
90 *809:119 *914:97 0.000351156
91 *809:123 *825:18 1.98839e-05
92 *809:123 *853:133 0.000519522
93 *809:123 *914:97 0.000920729
94 *809:165 *2555:A2 0.000132952
95 *809:165 *2556:B1 3.91935e-05
96 *809:165 *2885:D 0
97 *809:165 *2915:GATE_N 2.28499e-05
98 *809:165 *2923:GATE_N 0.000165435
99 *809:165 *2949:D 5.31101e-05
100 *809:165 *830:42 0.000490416
101 *809:165 *842:50 6.28948e-05
102 *809:165 *894:10 7.39742e-05
103 *809:165 *909:27 0.000518671
104 *809:165 *917:70 0.000827218
105 *809:165 *920:177 1.74352e-05
106 *2466:B2 *809:68 7.73758e-05
107 *2481:A1 *3054:GATE_N 0.00030232
108 *2481:A1 *809:165 5.52302e-05
109 *2491:B2 *809:68 2.8266e-06
110 *2499:A1 *809:119 7.83659e-05
111 *2500:B2 *809:119 5.43539e-05
112 *2500:C1 *809:119 4.58919e-05
113 *2544:C1 *3060:GATE_N 3.67142e-05
114 *2552:A1 *809:35 0.000248493
115 *2552:B2 *809:35 2.06178e-05
116 *2555:A1 *809:165 7.20669e-05
117 *2556:A1 *809:165 0.000186669
118 *2562:A1 *3061:GATE_N 5.33005e-05
119 *2562:A1 *809:12 0.000211731
120 *2562:A1 *809:35 3.17148e-05
121 *2562:B2 *3061:GATE_N 1.39841e-05
122 *2562:C1 *809:12 5.01213e-05
123 *2563:A1 *809:35 8.5896e-05
124 *2566:B2 *3055:GATE_N 9.72421e-05
125 *2568:B2 *809:72 0
126 *2568:C1 *809:72 4.25622e-05
127 *2574:B1 *3055:GATE_N 0
128 *2575:B *3055:GATE_N 5.62995e-05
129 *2585:A1 *809:35 0
130 *2599:B2 *809:35 0.000312137
131 *2623:C1 *809:165 3.90513e-05
132 *2629:B2 *3063:GATE_N 8.3116e-05
133 *2650:B *809:35 0
134 *2661:A1 *3053:GATE_N 0.000541793
135 *2661:A1 *3062:GATE_N 5.52238e-05
136 *3076:GATE_N *809:58 9.68453e-05
137 *3087:GATE_N *3055:GATE_N 1.94945e-05
138 *3159:A *809:35 0.000135967
139 *3163:A *3063:GATE_N 1.01912e-05
140 *3164:A *3062:GATE_N 9.90367e-05
141 *3169:A *809:72 5.7836e-06
142 *3171:A *809:35 1.09232e-05
143 *3201:A *3054:GATE_N 0.000326499
144 *377:14 *3062:GATE_N 3.92854e-05
145 *385:12 *809:72 0
146 *390:10 *3055:GATE_N 0
147 *426:10 *809:35 0.000256736
148 *439:30 *809:165 7.61553e-05
149 *492:34 *3054:GATE_N 6.8646e-06
150 *492:34 *3067:GATE_N 3.14048e-05
151 *498:18 *809:165 0.000547037
152 *535:14 *809:68 8.50152e-05
153 *581:12 *809:12 0.000100831
154 *581:12 *809:35 0
155 *610:16 *3062:GATE_N 4.01768e-05
156 *620:18 *3063:GATE_N 0.000254635
157 *620:18 *809:35 0
158 *791:16 *3053:GATE_N 0
159 *805:22 *809:165 0
160 *805:28 *809:119 0
161 *807:20 *809:54 0
162 *807:20 *809:58 0.00011087
163 *807:112 *3063:GATE_N 2.26973e-05
*RES
1 *3122:X *809:12 21.8179 
2 *809:12 *3061:GATE_N 10.675 
3 *809:12 *809:35 47.9732 
4 *809:35 *3060:GATE_N 15.5589 
5 *809:35 *809:54 8.45536 
6 *809:54 *809:58 21.0536 
7 *809:58 *809:68 25.4643 
8 *809:68 *809:72 12.5179 
9 *809:72 *3062:GATE_N 27.5857 
10 *809:72 *3053:GATE_N 25.0321 
11 *809:68 *3064:GATE_N 13.8 
12 *809:58 *809:111 0.732143 
13 *809:111 *809:119 18.5893 
14 *809:119 *809:123 13.6607 
15 *809:123 *3067:GATE_N 21.8536 
16 *809:123 *3063:GATE_N 21.3041 
17 *809:119 *809:165 48.3036 
18 *809:165 *3054:GATE_N 18.175 
19 *809:111 *3056:GATE_N 13.8 
20 *809:54 *3055:GATE_N 29.1393 
*END

*D_NET *810 0.0181007
*CONN
*I *3058:GATE_N I *D sky130_fd_sc_hd__dlxtn_1
*I *3066:GATE_N I *D sky130_fd_sc_hd__dlxtn_1
*I *3057:GATE_N I *D sky130_fd_sc_hd__dlxtn_1
*I *3059:GATE_N I *D sky130_fd_sc_hd__dlxtn_1
*I *3065:GATE_N I *D sky130_fd_sc_hd__dlxtn_1
*I *3068:GATE_N I *D sky130_fd_sc_hd__dlxtn_1
*I *3123:X O *D sky130_fd_sc_hd__dlymetal6s2s_1
*CAP
1 *3058:GATE_N 5.18231e-05
2 *3066:GATE_N 0.00206525
3 *3057:GATE_N 0.000171144
4 *3059:GATE_N 0.000155266
5 *3065:GATE_N 0.000304369
6 *3068:GATE_N 0.000139
7 *3123:X 0.000251714
8 *810:43 0.000837026
9 *810:26 0.000810642
10 *810:22 0.00048041
11 *810:20 0.00272063
12 *810:12 0.0009439
13 *3057:GATE_N *3057:D 1.56e-05
14 *3057:GATE_N *866:39 3.32631e-05
15 *3058:GATE_N *2962:GATE_N 2.59355e-05
16 *3065:GATE_N *822:22 0.000507772
17 *3066:GATE_N *2643:A 0.000283391
18 *3066:GATE_N *2926:GATE_N 0
19 *3066:GATE_N *823:22 2.06112e-05
20 *3066:GATE_N *847:33 2.95642e-05
21 *3066:GATE_N *847:37 5.52238e-05
22 *3066:GATE_N *847:81 5.33005e-05
23 *3066:GATE_N *897:10 0
24 *3066:GATE_N *897:12 7.79781e-06
25 *3066:GATE_N *923:53 0.000245089
26 *3068:GATE_N *2926:GATE_N 7.67234e-05
27 *810:12 *2523:B1 0.000196459
28 *810:12 *812:8 0.000147125
29 *810:12 *812:18 0.00016811
30 *810:12 *823:8 6.81083e-05
31 *810:12 *823:14 5.54856e-05
32 *810:12 *865:60 0
33 *810:12 *911:10 2.19778e-05
34 *810:12 *911:22 6.8646e-06
35 *810:20 *2524:A2 0.000312215
36 *810:20 *2929:D 4.38243e-05
37 *810:20 *2945:D 0.000168224
38 *810:20 *2972:GATE_N 0.000174556
39 *810:20 *826:12 0
40 *810:20 *891:8 4.39656e-05
41 *810:20 *891:14 0.000121017
42 *810:20 *910:70 0.000695773
43 *810:20 *912:35 6.42095e-05
44 *810:22 *2929:D 1.20729e-05
45 *810:22 *2972:GATE_N 4.38265e-05
46 *810:26 *2924:D 2.16719e-05
47 *810:26 *2929:D 7.83174e-05
48 *810:26 *2972:GATE_N 0.000718145
49 *810:26 *843:46 2.11362e-05
50 *810:43 *2926:GATE_N 0.00010729
51 *810:43 *827:25 0.000193992
52 *810:43 *915:79 0.000140489
53 *2486:B1 *3066:GATE_N 2.3704e-05
54 *2518:B *810:20 0.000237695
55 *2524:C1 *810:12 0.000274294
56 *2634:C1 *3068:GATE_N 2.26973e-05
57 *2640:B1 *3059:GATE_N 0.000129898
58 *2640:B1 *3065:GATE_N 3.88614e-05
59 *3073:GATE_N *3057:GATE_N 5.96006e-05
60 *3084:GATE_N *3059:GATE_N 6.86099e-05
61 *3084:GATE_N *3065:GATE_N 1.39737e-05
62 *3100:GATE_N *3068:GATE_N 2.11419e-05
63 *3121:A *3058:GATE_N 2.59355e-05
64 *3123:A *810:12 5.52238e-05
65 *3135:A *810:12 3.00537e-05
66 *3139:A *3057:GATE_N 9.99644e-06
67 *3225:A *3065:GATE_N 0.000324426
68 *3225:A *3068:GATE_N 0.000297755
69 *3225:A *810:43 0.00105963
70 *448:45 *3059:GATE_N 3.10885e-05
71 *580:22 *3068:GATE_N 2.65481e-05
72 *806:39 *810:20 0
73 *806:39 *810:26 0.000449011
74 *807:10 *3065:GATE_N 0.000125555
75 *807:12 *3065:GATE_N 0.000768609
76 *808:12 *810:20 9.60939e-05
*RES
1 *3123:X *810:12 25.8714 
2 *810:12 *810:20 20.8304 
3 *810:20 *810:22 0.580357 
4 *810:22 *810:26 12.7939 
5 *810:26 *3068:GATE_N 17.9662 
6 *810:26 *810:43 5.1866 
7 *810:43 *3065:GATE_N 25.6125 
8 *810:43 *3059:GATE_N 17.1661 
9 *810:22 *3057:GATE_N 16.3 
10 *810:20 *3066:GATE_N 32.4189 
11 *810:12 *3058:GATE_N 10.2464 
*END

*D_NET *811 0.0192045
*CONN
*I *3045:GATE_N I *D sky130_fd_sc_hd__dlxtn_1
*I *3051:GATE_N I *D sky130_fd_sc_hd__dlxtn_1
*I *3040:GATE_N I *D sky130_fd_sc_hd__dlxtn_1
*I *3039:GATE_N I *D sky130_fd_sc_hd__dlxtn_1
*I *3037:GATE_N I *D sky130_fd_sc_hd__dlxtn_1
*I *3044:GATE_N I *D sky130_fd_sc_hd__dlxtn_1
*I *3047:GATE_N I *D sky130_fd_sc_hd__dlxtn_1
*I *3049:GATE_N I *D sky130_fd_sc_hd__dlxtn_1
*I *3048:GATE_N I *D sky130_fd_sc_hd__dlxtn_1
*I *3046:GATE_N I *D sky130_fd_sc_hd__dlxtn_1
*I *3124:X O *D sky130_fd_sc_hd__buf_2
*CAP
1 *3045:GATE_N 0.00118217
2 *3051:GATE_N 3.41715e-05
3 *3040:GATE_N 9.89155e-06
4 *3039:GATE_N 0
5 *3037:GATE_N 0.000201853
6 *3044:GATE_N 0
7 *3047:GATE_N 0
8 *3049:GATE_N 0.00019233
9 *3048:GATE_N 0.000311413
10 *3046:GATE_N 0.000384414
11 *3124:X 0
12 *811:78 0.000431166
13 *811:70 0.000508114
14 *811:62 0.000960968
15 *811:58 0.00146129
16 *811:39 0.00151668
17 *811:35 0.000799014
18 *811:18 0.00159816
19 *811:14 0.00117216
20 *811:6 0.00166172
21 *3037:GATE_N *827:96 0.00020934
22 *3037:GATE_N *876:50 9.15186e-06
23 *3037:GATE_N *889:46 0
24 *3040:GATE_N *909:27 2.06178e-05
25 *3045:GATE_N *2620:B1 0
26 *3045:GATE_N *829:32 0.000119708
27 *3046:GATE_N *2499:A2 0
28 *3046:GATE_N *892:82 0.00044366
29 *3046:GATE_N *894:29 0
30 *3046:GATE_N *896:60 0.000315158
31 *3048:GATE_N *2491:A2 4.65158e-06
32 *3048:GATE_N *822:95 0
33 *3048:GATE_N *909:37 9.01905e-05
34 *3048:GATE_N *911:87 0
35 *3049:GATE_N *853:31 9.46929e-05
36 *3049:GATE_N *853:102 1.5424e-05
37 *3049:GATE_N *920:23 0.000385431
38 *3051:GATE_N *2859:D 5.52302e-05
39 *811:14 *2620:A2 0
40 *811:14 *2859:D 3.98547e-05
41 *811:14 *845:31 0.000136876
42 *811:18 *2621:A2 0
43 *811:18 *2948:GATE_N 0
44 *811:18 *838:14 0.000391423
45 *811:18 *889:94 0
46 *811:18 *894:23 0
47 *811:18 *894:25 0
48 *811:39 *909:27 0.000280623
49 *811:39 *909:37 4.11218e-05
50 *811:39 *911:87 0
51 *811:58 *825:96 0
52 *811:58 *829:129 0.000207598
53 *811:58 *876:50 0
54 *811:62 *2501:B1 2.89016e-05
55 *811:62 *2545:A2 9.90367e-05
56 *811:62 *889:46 4.88637e-05
57 *811:62 *892:31 0.000146533
58 *811:62 *896:31 0.000183726
59 *811:62 *896:50 9.5623e-05
60 *811:70 *827:94 0.000416199
61 *811:70 *827:96 0.000177234
62 *811:70 *860:14 0.00039202
63 *811:78 *3095:D 5.42011e-05
64 *811:78 *827:94 5.6197e-05
65 *811:78 *853:21 1.49363e-05
66 *811:78 *860:10 0
67 *811:78 *889:34 0
68 *811:78 *920:23 0
69 *2469:C1 *3037:GATE_N 0
70 *2499:B2 *811:18 5.26224e-05
71 *2500:A1 *3046:GATE_N 4.84319e-05
72 *2500:C1 *811:18 2.11419e-05
73 *2500:C1 *811:35 0.000442852
74 *2507:A *811:70 9.60875e-05
75 *2507:A *811:78 5.52302e-05
76 *2508:B1 *811:18 0
77 *2508:B2 *811:18 0
78 *2508:B2 *811:78 1.95091e-05
79 *2545:B2 *3037:GATE_N 1.19309e-05
80 *2545:B2 *811:70 0
81 *2546:C1 *811:62 2.89114e-05
82 *2552:B2 *811:35 0.000133293
83 *2554:A1 *3045:GATE_N 7.39195e-05
84 *2584:A *3049:GATE_N 0.000212672
85 *2620:B2 *3045:GATE_N 2.42082e-05
86 *2620:B2 *811:14 2.56694e-05
87 *2621:C1 *811:18 0.000324878
88 *3093:GATE_N *3045:GATE_N 0
89 *3093:GATE_N *811:14 0
90 *3148:A *3045:GATE_N 5.41494e-05
91 *3162:A *3049:GATE_N 9.90367e-05
92 *3162:A *811:78 7.36794e-05
93 *3215:A *811:78 0
94 *805:84 *3049:GATE_N 0.000387079
95 *807:101 *811:58 1.94945e-05
*RES
1 *3124:X *811:6 13.8 
2 *811:6 *811:14 11.7143 
3 *811:14 *811:18 16.6161 
4 *811:18 *3046:GATE_N 22.8625 
5 *811:18 *811:35 8.3804 
6 *811:35 *811:39 4.91071 
7 *811:39 *3048:GATE_N 18.9339 
8 *811:39 *811:58 13.4455 
9 *811:58 *811:62 14.8929 
10 *811:62 *811:70 13.3929 
11 *811:70 *811:78 14.2143 
12 *811:78 *3049:GATE_N 26.2821 
13 *811:78 *3047:GATE_N 9.3 
14 *811:70 *3044:GATE_N 9.3 
15 *811:62 *3037:GATE_N 18.7821 
16 *811:58 *3039:GATE_N 9.3 
17 *811:35 *3040:GATE_N 14.0768 
18 *811:14 *3051:GATE_N 10.2643 
19 *811:6 *3045:GATE_N 29.5321 
*END

*D_NET *812 0.0217134
*CONN
*I *3042:GATE_N I *D sky130_fd_sc_hd__dlxtn_1
*I *3041:GATE_N I *D sky130_fd_sc_hd__dlxtn_1
*I *3050:GATE_N I *D sky130_fd_sc_hd__dlxtn_1
*I *3038:GATE_N I *D sky130_fd_sc_hd__dlxtn_1
*I *3043:GATE_N I *D sky130_fd_sc_hd__dlxtn_1
*I *3052:GATE_N I *D sky130_fd_sc_hd__dlxtn_1
*I *3125:X O *D sky130_fd_sc_hd__clkbuf_2
*CAP
1 *3042:GATE_N 8.07903e-05
2 *3041:GATE_N 0
3 *3050:GATE_N 9.31323e-05
4 *3038:GATE_N 6.37719e-05
5 *3043:GATE_N 0.000615368
6 *3052:GATE_N 0.000357166
7 *3125:X 5.73204e-05
8 *812:69 0.00189213
9 *812:59 0.001854
10 *812:47 0.00265341
11 *812:18 0.00302515
12 *812:8 0.000700569
13 *3038:GATE_N *873:23 9.46929e-05
14 *3042:GATE_N *839:43 0.000184189
15 *3043:GATE_N *2636:A2 0.000266122
16 *3043:GATE_N *2638:A2 0.000183713
17 *3043:GATE_N *2878:D 0.000106542
18 *3043:GATE_N *2926:GATE_N 6.47405e-05
19 *3043:GATE_N *862:30 2.89114e-05
20 *3043:GATE_N *933:28 0
21 *3050:GATE_N *2435:A_N 0.000113647
22 *3050:GATE_N *3233:A 9.36743e-05
23 *3050:GATE_N *834:76 2.14757e-05
24 *3050:GATE_N *941:51 7.22594e-05
25 *3050:GATE_N *941:66 3.32631e-05
26 *3052:GATE_N *2631:B1 0.000100077
27 *3052:GATE_N *2940:GATE_N 5.30637e-06
28 *3052:GATE_N *827:52 0.000264242
29 *3052:GATE_N *842:50 5.33005e-05
30 *3052:GATE_N *863:48 1.00073e-05
31 *3052:GATE_N *891:18 0.000246874
32 *3052:GATE_N *891:34 7.34438e-05
33 *3052:GATE_N *912:37 0.00010096
34 *812:8 *911:22 0.00013162
35 *812:18 *2420:A 0.000201401
36 *812:18 *823:14 0.000136258
37 *812:18 *891:18 0.000136529
38 *812:18 *895:50 0.000465939
39 *812:18 *911:22 0.000527277
40 *812:18 *912:37 8.70687e-05
41 *812:47 *2555:A2 0
42 *812:47 *2807:GATE_N 0.000479416
43 *812:47 *2846:GATE_N 0.00040279
44 *812:47 *828:29 3.48705e-05
45 *812:47 *828:33 0.00051654
46 *812:47 *866:16 0
47 *812:47 *893:37 0
48 *812:47 *910:70 5.30074e-05
49 *812:47 *915:39 0.000104328
50 *812:47 *923:32 0
51 *812:59 *2807:GATE_N 1.94945e-05
52 *812:59 *2881:GATE_N 4.99344e-05
53 *812:59 *887:22 0.000168536
54 *812:69 *2435:A_N 2.11419e-05
55 *812:69 *2435:C 9.20464e-06
56 *812:69 *2878:D 2.58997e-05
57 *812:69 *3082:D 0
58 *812:69 *3233:A 2.16477e-05
59 *812:69 *873:8 5.01213e-05
60 *812:69 *910:14 0.000340976
61 *812:69 *910:18 6.8194e-05
62 *812:69 *921:26 8.84776e-05
63 *812:69 *933:28 0
64 *2512:A1 *812:18 0.000286774
65 *2514:A1 *812:47 4.37138e-05
66 *2518:C *812:47 0
67 *2610:B2 *812:47 0.000167096
68 *2616:A1 *812:69 0.000316835
69 *2636:A1 *3043:GATE_N 0.000108538
70 *2636:C1 *3043:GATE_N 0
71 *2639:B *3043:GATE_N 6.22145e-05
72 *3070:GATE_N *3043:GATE_N 0.000149904
73 *3082:GATE_N *3043:GATE_N 4.80729e-05
74 *3082:GATE_N *812:69 0.000195562
75 *3150:A *812:47 2.86824e-05
76 *3150:A *812:59 0.000423258
77 *3151:A *812:47 3.58772e-05
78 *3151:A *812:59 6.05161e-06
79 *3201:A *812:69 6.6189e-05
80 *435:14 *812:69 0.000578394
81 *477:18 *812:59 0
82 *492:18 *812:59 0.000349657
83 *497:20 *3050:GATE_N 5.52238e-05
84 *498:10 *812:47 9.57872e-05
85 *498:10 *812:59 4.33822e-05
86 *561:20 *3042:GATE_N 0.000137447
87 *575:20 *3043:GATE_N 0.000141985
88 *651:14 *812:59 1.01912e-05
89 *805:84 *3043:GATE_N 0
90 *808:12 *812:18 0.00032156
91 *808:66 *3038:GATE_N 7.48091e-05
92 *810:12 *812:8 0.000147125
93 *810:12 *812:18 0.00016811
*RES
1 *3125:X *812:8 15.7464 
2 *812:8 *812:18 20.5877 
3 *812:18 *3052:GATE_N 23.3893 
4 *812:18 *812:47 46.8571 
5 *812:47 *812:59 14.3919 
6 *812:59 *812:69 21.3727 
7 *812:69 *3043:GATE_N 28.3536 
8 *812:69 *3038:GATE_N 15.5679 
9 *812:59 *3050:GATE_N 17.1482 
10 *812:47 *3041:GATE_N 9.3 
11 *812:8 *3042:GATE_N 16.3893 
*END

*D_NET *813 0.0149429
*CONN
*I *2663:A1 I *D sky130_fd_sc_hd__mux2_1
*I *3256:X O *D sky130_fd_sc_hd__buf_1
*CAP
1 *2663:A1 1.16062e-05
2 *3256:X 0.00338859
3 *813:30 0.00340019
4 *2663:A1 *2646:A 5.52302e-05
5 *2663:A1 *883:53 5.52302e-05
6 *813:30 *2663:A0 1.4363e-05
7 *813:30 *3362:A 7.69776e-06
8 *813:30 *883:53 0.000699607
9 *813:30 *885:118 0
10 *813:30 *996:26 0.00300463
11 *813:30 *999:18 0.000376631
12 *813:30 *1040:18 1.90936e-05
13 PWDATA[5] *813:30 0.000310999
14 rdata[14] *813:30 5.52238e-05
15 *2487:A *813:30 0
16 *2619:B *813:30 8.91534e-05
17 *2813:D *813:30 0.000197797
18 *2814:D *813:30 0.00321774
19 *2835:D *813:30 3.91668e-05
20 *3308:A *813:30 0
*RES
1 *3256:X *813:30 45.579 
2 *813:30 *2663:A1 14.3357 
*END

*D_NET *814 0.0232052
*CONN
*I *3029:GATE_N I *D sky130_fd_sc_hd__dlxtn_1
*I *3033:GATE_N I *D sky130_fd_sc_hd__dlxtn_1
*I *3035:GATE_N I *D sky130_fd_sc_hd__dlxtn_1
*I *3024:GATE_N I *D sky130_fd_sc_hd__dlxtn_1
*I *3031:GATE_N I *D sky130_fd_sc_hd__dlxtn_1
*I *3028:GATE_N I *D sky130_fd_sc_hd__dlxtn_1
*I *3021:GATE_N I *D sky130_fd_sc_hd__dlxtn_1
*I *3030:GATE_N I *D sky130_fd_sc_hd__dlxtn_1
*I *3023:GATE_N I *D sky130_fd_sc_hd__dlxtn_1
*I *3032:GATE_N I *D sky130_fd_sc_hd__dlxtn_1
*I *3126:X O *D sky130_fd_sc_hd__buf_2
*CAP
1 *3029:GATE_N 0.000213179
2 *3033:GATE_N 2.22008e-05
3 *3035:GATE_N 0.000397947
4 *3024:GATE_N 0.000125071
5 *3031:GATE_N 0.000821057
6 *3028:GATE_N 0.000445673
7 *3021:GATE_N 0.00102943
8 *3030:GATE_N 0.000773844
9 *3023:GATE_N 5.28636e-05
10 *3032:GATE_N 0
11 *3126:X 0.00010015
12 *814:144 0.00116215
13 *814:65 0.00115134
14 *814:56 0.00067827
15 *814:48 0.00229036
16 *814:30 0.0015985
17 *814:24 0.00134451
18 *814:20 0.00127276
19 *814:16 0.000787518
20 *814:10 0.000722934
21 *3021:GATE_N *2893:D 6.77308e-05
22 *3021:GATE_N *3021:D 0.000214529
23 *3021:GATE_N *831:46 3.42542e-05
24 *3021:GATE_N *831:67 2.77413e-05
25 *3021:GATE_N *875:62 5.75847e-05
26 *3023:GATE_N *816:45 6.74911e-05
27 *3023:GATE_N *900:51 4.57445e-05
28 *3024:GATE_N *818:100 0
29 *3024:GATE_N *906:16 5.4081e-05
30 *3028:GATE_N *2884:D 2.42122e-05
31 *3028:GATE_N *860:56 9.95456e-05
32 *3029:GATE_N *2603:B1 0.000146474
33 *3029:GATE_N *2604:B1 7.50697e-05
34 *3029:GATE_N *3020:GATE_N 2.22999e-05
35 *3029:GATE_N *831:162 9.41642e-05
36 *3029:GATE_N *862:40 6.86693e-05
37 *3030:GATE_N *2569:A2 8.07313e-05
38 *3030:GATE_N *2591:A2 0.000142856
39 *3030:GATE_N *2872:D 1.92905e-05
40 *3030:GATE_N *2902:GATE_N 4.04898e-05
41 *3030:GATE_N *2904:D 0
42 *3030:GATE_N *3014:GATE_N 4.54234e-05
43 *3030:GATE_N *3032:D 3.14078e-05
44 *3030:GATE_N *836:88 8.86413e-05
45 *3030:GATE_N *851:38 0
46 *3031:GATE_N *3031:D 0.000135785
47 *3031:GATE_N *831:114 8.68665e-05
48 *3031:GATE_N *833:30 7.35668e-05
49 *3031:GATE_N *853:37 6.31627e-05
50 *3031:GATE_N *904:56 0.000145477
51 *3033:GATE_N *898:22 9.90431e-05
52 *3035:GATE_N *2987:D 0
53 *3035:GATE_N *904:121 0
54 *3035:GATE_N *906:12 0
55 *3035:GATE_N *906:16 3.66495e-05
56 *814:10 *2602:B1 0
57 *814:10 *2603:B1 9.91086e-05
58 *814:10 *862:40 5.52238e-05
59 *814:16 *2580:B1 7.79781e-06
60 *814:16 *2602:B1 0
61 *814:16 *2603:A2 0
62 *814:16 *2603:B1 0.000195625
63 *814:16 *2873:GATE_N 0.000150618
64 *814:16 *3017:GATE_N 0
65 *814:16 *3033:D 5.45041e-05
66 *814:16 *849:102 8.33559e-05
67 *814:16 *922:32 0
68 *814:20 *2580:B1 1.19402e-05
69 *814:20 *820:27 0.000455547
70 *814:20 *898:24 5.75896e-05
71 *814:20 *920:107 0.000595208
72 *814:20 *926:37 0
73 *814:20 *926:39 0
74 *814:24 *2547:A2 0.000114587
75 *814:24 *2626:A2 0.000110107
76 *814:24 *922:38 4.72917e-05
77 *814:30 *831:114 1.08359e-05
78 *814:48 *2471:B1 9.86141e-05
79 *814:48 *2472:B1 0
80 *814:48 *831:67 9.60939e-05
81 *814:48 *871:10 7.6644e-05
82 *814:48 *871:118 0.000216771
83 *814:48 *875:47 0.000103984
84 *814:48 *875:62 0.000551898
85 *814:48 *904:64 0
86 *814:56 *836:88 0.000655532
87 *814:56 *875:77 0
88 *814:65 *3032:D 8.00315e-05
89 *814:65 *836:88 1.79397e-05
90 *814:144 *2626:A2 0.000673703
91 *2471:A1 *814:56 5.20829e-05
92 *2471:B2 *3021:GATE_N 2.84026e-05
93 *2471:C1 *814:48 5.5321e-05
94 *2471:C1 *814:56 0.000168569
95 *2493:B2 *814:48 0.000126985
96 *2493:C1 *814:48 0.000123489
97 *2494:A1 *814:56 4.37999e-05
98 *2548:C1 *814:24 5.33005e-05
99 *2548:C1 *814:30 0.000137799
100 *2548:C1 *814:48 0.000121623
101 *2591:A1 *3030:GATE_N 3.57366e-05
102 *2591:B2 *3030:GATE_N 2.46032e-05
103 *2592:A1 *3030:GATE_N 5.52238e-05
104 *2592:C1 *3030:GATE_N 0.000171375
105 *2606:B *3033:GATE_N 3.67257e-05
106 *3132:A *3029:GATE_N 3.39084e-05
107 *575:20 *3029:GATE_N 0.000136951
*RES
1 *3126:X *814:10 15.675 
2 *814:10 *814:16 9.08929 
3 *814:16 *814:20 14.6429 
4 *814:20 *814:24 9.55357 
5 *814:24 *814:30 4.42857 
6 *814:30 *814:48 30.0357 
7 *814:48 *814:56 13.4643 
8 *814:56 *3032:GATE_N 9.3 
9 *814:56 *814:65 4.44643 
10 *814:65 *3023:GATE_N 19.9429 
11 *814:65 *3030:GATE_N 30.8 
12 *814:48 *3021:GATE_N 36.7286 
13 *814:30 *3028:GATE_N 19.5857 
14 *814:24 *3031:GATE_N 25.5321 
15 *814:20 *814:144 16.5357 
16 *814:144 *3024:GATE_N 16.05 
17 *814:144 *3035:GATE_N 20.4429 
18 *814:16 *3033:GATE_N 14.7464 
19 *814:10 *3029:GATE_N 28.0143 
*END

*D_NET *815 0.0150383
*CONN
*I *3034:GATE_N I *D sky130_fd_sc_hd__dlxtn_1
*I *3025:GATE_N I *D sky130_fd_sc_hd__dlxtn_1
*I *3026:GATE_N I *D sky130_fd_sc_hd__dlxtn_1
*I *3027:GATE_N I *D sky130_fd_sc_hd__dlxtn_1
*I *3036:GATE_N I *D sky130_fd_sc_hd__dlxtn_1
*I *3022:GATE_N I *D sky130_fd_sc_hd__dlxtn_1
*I *3127:X O *D sky130_fd_sc_hd__dlymetal6s2s_1
*CAP
1 *3034:GATE_N 0
2 *3025:GATE_N 0
3 *3026:GATE_N 9.61633e-05
4 *3027:GATE_N 0.00148579
5 *3036:GATE_N 0.000309771
6 *3022:GATE_N 3.82418e-05
7 *3127:X 0.000243625
8 *815:69 0.000117653
9 *815:39 0.00244186
10 *815:26 0.00133031
11 *815:20 0.000899891
12 *815:14 0.000476247
13 *3026:GATE_N *2526:A2 8.71377e-05
14 *3026:GATE_N *3025:D 5.52302e-05
15 *3026:GATE_N *3026:D 5.33005e-05
16 *3026:GATE_N *837:39 3.4879e-05
17 *3027:GATE_N *3369:A 0.00268914
18 *3027:GATE_N *817:29 0.000162979
19 *3027:GATE_N *818:10 1.21859e-05
20 *3036:GATE_N *2559:A2 3.74829e-05
21 *3036:GATE_N *2635:A2 9.02023e-05
22 *3036:GATE_N *2988:GATE_N 0.000247032
23 *3036:GATE_N *3004:GATE_N 8.07205e-05
24 *3036:GATE_N *3209:A 2.77258e-05
25 *3036:GATE_N *862:30 9.90367e-05
26 *815:14 *819:46 8.359e-05
27 *815:14 *848:43 9.64979e-05
28 *815:14 *848:58 8.359e-05
29 *815:14 *867:76 9.71197e-05
30 *815:14 *899:82 5.52302e-05
31 *815:20 *840:72 0.000118339
32 *815:20 *867:12 7.48381e-05
33 *815:20 *867:76 0.000441737
34 *815:20 *922:14 4.46186e-06
35 *815:26 *2978:GATE_N 0.000267665
36 *815:26 *840:24 9.58709e-05
37 *815:26 *840:72 0.000171413
38 *815:26 *867:12 9.69119e-06
39 *815:26 *867:14 6.8646e-06
40 *815:26 *927:79 0.000571158
41 *815:39 *2635:A2 0.000149036
42 *815:39 *2988:GATE_N 0.000523811
43 *815:39 *3004:GATE_N 7.91281e-05
44 *815:39 *821:61 0.000153315
45 *815:39 *840:24 4.52397e-05
46 *815:39 *864:77 6.70515e-05
47 *815:39 *905:22 0
48 *815:69 *3025:D 8.57023e-05
49 *815:69 *837:39 3.67142e-05
50 *2516:A1 *815:14 3.14078e-05
51 *2516:A1 *815:20 5.76121e-05
52 *3221:A *815:14 2.89114e-05
53 *446:20 *815:14 0
54 *496:24 *3036:GATE_N 0.000107493
55 *575:20 *3036:GATE_N 0.000183726
56 *597:10 *3036:GATE_N 0.000194491
*RES
1 *3127:X *815:14 24.4607 
2 *815:14 *815:20 11.5893 
3 *815:20 *815:26 16.75 
4 *815:26 *3022:GATE_N 10.0321 
5 *815:26 *815:39 17.5089 
6 *815:39 *3036:GATE_N 23.1304 
7 *815:39 *3027:GATE_N 25.2678 
8 *815:20 *815:69 5.44643 
9 *815:69 *3026:GATE_N 11.8893 
10 *815:69 *3025:GATE_N 9.3 
11 *815:14 *3034:GATE_N 9.3 
*END

*D_NET *816 0.0212794
*CONN
*I *3006:GATE_N I *D sky130_fd_sc_hd__dlxtn_1
*I *3019:GATE_N I *D sky130_fd_sc_hd__dlxtn_1
*I *3015:GATE_N I *D sky130_fd_sc_hd__dlxtn_1
*I *3008:GATE_N I *D sky130_fd_sc_hd__dlxtn_1
*I *3012:GATE_N I *D sky130_fd_sc_hd__dlxtn_1
*I *3016:GATE_N I *D sky130_fd_sc_hd__dlxtn_1
*I *3014:GATE_N I *D sky130_fd_sc_hd__dlxtn_1
*I *3007:GATE_N I *D sky130_fd_sc_hd__dlxtn_1
*I *3005:GATE_N I *D sky130_fd_sc_hd__dlxtn_1
*I *3013:GATE_N I *D sky130_fd_sc_hd__dlxtn_1
*I *3128:X O *D sky130_fd_sc_hd__buf_2
*CAP
1 *3006:GATE_N 4.10366e-05
2 *3019:GATE_N 0.000561968
3 *3015:GATE_N 4.00186e-05
4 *3008:GATE_N 0.000640894
5 *3012:GATE_N 0.000343548
6 *3016:GATE_N 2.76349e-05
7 *3014:GATE_N 0.000731668
8 *3007:GATE_N 5.5316e-05
9 *3005:GATE_N 0.00030944
10 *3013:GATE_N 8.5017e-05
11 *3128:X 0.000312885
12 *816:97 0.000984443
13 *816:53 0.00164033
14 *816:45 0.00243918
15 *816:41 0.000657908
16 *816:39 0.000593713
17 *816:37 0.000633067
18 *816:31 0.00110344
19 *816:14 0.000952545
20 *816:8 0.000877652
21 *3005:GATE_N *3005:D 0.000185817
22 *3006:GATE_N *2416:B 0.000117903
23 *3006:GATE_N *900:14 0.000153047
24 *3008:GATE_N *2888:GATE_N 0.000304394
25 *3008:GATE_N *860:39 9.7765e-05
26 *3008:GATE_N *869:51 0.000296842
27 *3012:GATE_N *2548:B1 0
28 *3012:GATE_N *3012:D 1.92905e-05
29 *3012:GATE_N *860:39 9.50348e-05
30 *3012:GATE_N *926:47 2.97829e-05
31 *3013:GATE_N *3013:D 5.52238e-05
32 *3013:GATE_N *3020:GATE_N 2.65242e-05
33 *3013:GATE_N *831:162 0.000178847
34 *3014:GATE_N *2902:GATE_N 4.87854e-05
35 *3014:GATE_N *871:57 0
36 *3015:GATE_N *853:31 9.71197e-05
37 *3016:GATE_N *875:43 2.89114e-05
38 *3019:GATE_N *2875:GATE_N 8.25843e-06
39 *3019:GATE_N *2907:D 0.000148165
40 *816:8 *2990:GATE_N 2.51343e-06
41 *816:8 *819:76 2.32517e-05
42 *816:14 *2416:B 0.000310314
43 *816:14 *2907:GATE_N 6.05161e-06
44 *816:14 *2997:D 0.000135374
45 *816:14 *2997:GATE_N 5.49584e-05
46 *816:14 *3013:D 4.08637e-05
47 *816:14 *3020:GATE_N 2.89967e-05
48 *816:14 *831:162 0.000178847
49 *816:14 *859:48 8.6281e-05
50 *816:14 *900:14 0.000399823
51 *816:14 *926:27 0.000580261
52 *816:14 *932:29 0.000379195
53 *816:31 *3013:D 3.17148e-05
54 *816:31 *900:30 0.000442762
55 *816:31 *932:29 0.000214094
56 *816:31 *932:31 0.000108848
57 *816:37 *820:12 0.000125731
58 *816:37 *900:30 0.000168939
59 *816:37 *926:39 0.000100576
60 *816:39 *2888:GATE_N 1.19402e-05
61 *816:39 *836:68 0.000210609
62 *816:39 *900:45 0
63 *816:39 *900:47 0
64 *816:39 *926:39 0.000271342
65 *816:39 *926:47 0.000113004
66 *816:39 *932:37 0
67 *816:41 *2888:GATE_N 0.00011166
68 *816:41 *820:33 0
69 *816:45 *2888:GATE_N 9.04813e-05
70 *816:45 *820:33 0
71 *816:45 *836:88 2.06827e-05
72 *816:45 *898:47 0
73 *816:45 *900:51 0
74 *2470:A1 *3007:GATE_N 3.18676e-05
75 *2470:B2 *816:53 5.10822e-05
76 *2471:C1 *816:53 0
77 *2474:B *816:45 0.000128951
78 *2474:C *816:45 0.000340052
79 *2475:B2 *3014:GATE_N 0
80 *2475:B2 *816:45 1.91894e-05
81 *2496:B *816:45 9.65075e-05
82 *2503:A1 *3008:GATE_N 3.18676e-05
83 *2549:A1 *816:39 3.0987e-05
84 *2549:A1 *816:41 5.26091e-05
85 *2551:C *816:39 4.52914e-05
86 *2557:B2 *816:14 6.87975e-06
87 *2584:B *3015:GATE_N 3.69047e-06
88 *2584:B *816:37 0.000176569
89 *2584:B *816:39 4.58096e-05
90 *2592:A1 *3014:GATE_N 1.21258e-05
91 *2604:B2 *816:31 0.000123288
92 *3023:GATE_N *816:45 6.74911e-05
93 *3030:GATE_N *3014:GATE_N 4.54234e-05
94 *3128:A *816:8 0.000353086
95 *446:20 *3006:GATE_N 1.31516e-05
96 *446:20 *816:14 0.000101652
97 *515:18 *816:45 0.000329341
*RES
1 *3128:X *816:8 18.0321 
2 *816:8 *816:14 21.2679 
3 *816:14 *3013:GATE_N 11.4964 
4 *816:14 *816:31 19.875 
5 *816:31 *816:37 9.82143 
6 *816:37 *816:39 10.75 
7 *816:39 *816:41 4.375 
8 *816:41 *816:45 15.8296 
9 *816:45 *816:53 11.7695 
10 *816:53 *3005:GATE_N 14.3714 
11 *816:53 *3007:GATE_N 10.5679 
12 *816:45 *3014:GATE_N 19.7053 
13 *816:41 *3016:GATE_N 14.3357 
14 *816:39 *816:97 4.5 
15 *816:97 *3012:GATE_N 13.8536 
16 *816:97 *3008:GATE_N 19.3179 
17 *816:37 *3015:GATE_N 14.7464 
18 *816:31 *3019:GATE_N 17.2821 
19 *816:8 *3006:GATE_N 15.7464 
*END

*D_NET *817 0.0139441
*CONN
*I *3018:GATE_N I *D sky130_fd_sc_hd__dlxtn_1
*I *3009:GATE_N I *D sky130_fd_sc_hd__dlxtn_1
*I *3011:GATE_N I *D sky130_fd_sc_hd__dlxtn_1
*I *3020:GATE_N I *D sky130_fd_sc_hd__dlxtn_1
*I *3017:GATE_N I *D sky130_fd_sc_hd__dlxtn_1
*I *3010:GATE_N I *D sky130_fd_sc_hd__dlxtn_1
*I *3129:X O *D sky130_fd_sc_hd__dlymetal6s2s_1
*CAP
1 *3018:GATE_N 0.000580133
2 *3009:GATE_N 0
3 *3011:GATE_N 0
4 *3020:GATE_N 0.00110377
5 *3017:GATE_N 7.66034e-05
6 *3010:GATE_N 0.000127634
7 *3129:X 0
8 *817:49 0.0022548
9 *817:29 0.00207597
10 *817:17 0.00107269
11 *817:13 0.000714013
12 *817:4 0.000190362
13 *3010:GATE_N *2525:B1 0.00023314
14 *3010:GATE_N *821:26 0.000156333
15 *3017:GATE_N *922:32 0.000127439
16 *3018:GATE_N *2517:A2 0.000354635
17 *3018:GATE_N *2525:B1 5.52238e-05
18 *3018:GATE_N *2528:C1 3.80079e-05
19 *3018:GATE_N *821:18 9.99303e-05
20 *3018:GATE_N *821:26 1.40034e-05
21 *3018:GATE_N *867:14 0.000331936
22 *3018:GATE_N *927:79 0.000332651
23 *3020:GATE_N *2559:A2 0.000128496
24 *3020:GATE_N *2901:GATE_N 4.05247e-05
25 *3020:GATE_N *2907:GATE_N 2.59355e-05
26 *3020:GATE_N *3013:D 3.4879e-05
27 *3020:GATE_N *831:162 4.14039e-05
28 *3020:GATE_N *898:10 5.52302e-05
29 *817:13 *2525:B1 8.86512e-05
30 *817:13 *821:26 5.38242e-05
31 *817:17 *2525:B1 0.000221671
32 *817:29 *2525:B1 0.000229159
33 *817:29 *3001:GATE_N 0
34 *817:29 *903:32 0.000110632
35 *817:49 *2602:B1 0.000399425
36 *817:49 *2889:D 9.47278e-05
37 *817:49 *3001:GATE_N 0.00065824
38 *817:49 *833:72 0
39 *817:49 *833:91 8.14787e-05
40 *817:49 *862:55 0
41 *817:49 *862:83 0.000226867
42 *2529:A *3018:GATE_N 0.000319267
43 *2529:B *3018:GATE_N 9.41642e-05
44 *2529:C *3018:GATE_N 5.33005e-05
45 *2536:A1 *817:49 1.94056e-05
46 *2602:A1 *817:49 2.57017e-05
47 *2602:B2 *817:49 5.20751e-05
48 *3013:GATE_N *3020:GATE_N 2.65242e-05
49 *3027:GATE_N *817:29 0.000162979
50 *3029:GATE_N *3020:GATE_N 2.22999e-05
51 *3129:A *817:17 0.000188944
52 *3129:A *817:29 0.000122935
53 *3142:A *817:29 0.000202972
54 *3142:A *817:49 0
55 *3146:A *817:29 0.000100781
56 *3147:A *817:17 1.17968e-05
57 *3147:A *817:29 1.18064e-05
58 *438:14 *817:29 0
59 *496:24 *3020:GATE_N 6.97409e-05
60 *814:16 *3017:GATE_N 0
61 *816:14 *3020:GATE_N 2.89967e-05
*RES
1 *3129:X *817:4 9.3 
2 *817:4 *3010:GATE_N 13.5321 
3 *817:4 *817:13 1.76786 
4 *817:13 *817:17 7.35714 
5 *817:17 *817:29 19.9684 
6 *817:29 *817:49 31.9107 
7 *817:49 *3017:GATE_N 19.9429 
8 *817:49 *3020:GATE_N 23.3 
9 *817:29 *3011:GATE_N 9.3 
10 *817:17 *3009:GATE_N 13.8 
11 *817:13 *3018:GATE_N 33.2107 
*END

*D_NET *818 0.024138
*CONN
*I *2994:GATE_N I *D sky130_fd_sc_hd__dlxtn_1
*I *2999:GATE_N I *D sky130_fd_sc_hd__dlxtn_1
*I *2998:GATE_N I *D sky130_fd_sc_hd__dlxtn_1
*I *3000:GATE_N I *D sky130_fd_sc_hd__dlxtn_1
*I *2997:GATE_N I *D sky130_fd_sc_hd__dlxtn_1
*I *3003:GATE_N I *D sky130_fd_sc_hd__dlxtn_1
*I *2992:GATE_N I *D sky130_fd_sc_hd__dlxtn_1
*I *2996:GATE_N I *D sky130_fd_sc_hd__dlxtn_1
*I *2991:GATE_N I *D sky130_fd_sc_hd__dlxtn_1
*I *2989:GATE_N I *D sky130_fd_sc_hd__dlxtn_1
*I *3130:X O *D sky130_fd_sc_hd__buf_2
*CAP
1 *2994:GATE_N 0.000133992
2 *2999:GATE_N 0
3 *2998:GATE_N 0.000505828
4 *3000:GATE_N 0.000269941
5 *2997:GATE_N 0.000533501
6 *3003:GATE_N 9.63004e-05
7 *2992:GATE_N 0
8 *2996:GATE_N 2.23854e-05
9 *2991:GATE_N 0
10 *2989:GATE_N 0.000204374
11 *3130:X 0
12 *818:100 0.00174382
13 *818:74 0.00116474
14 *818:70 0.00154047
15 *818:61 0.00146349
16 *818:42 0.00156826
17 *818:20 0.00111479
18 *818:12 0.00152733
19 *818:10 0.00269035
20 *818:4 0.00232729
21 *2997:GATE_N *2907:GATE_N 0
22 *2997:GATE_N *898:10 0.000149905
23 *2997:GATE_N *898:16 0.000153054
24 *2997:GATE_N *906:12 0
25 *2997:GATE_N *926:27 0.000824431
26 *3000:GATE_N *871:57 3.14163e-05
27 *3003:GATE_N *2625:A2 0.00022459
28 *818:10 *2867:GATE_N 7.35957e-05
29 *818:10 *836:26 0.000513697
30 *818:12 *831:40 0
31 *818:12 *833:20 0
32 *818:12 *836:26 2.42082e-05
33 *818:20 *2989:D 5.5782e-05
34 *818:20 *2991:D 4.37999e-05
35 *818:20 *831:40 0
36 *818:61 *2980:GATE_N 0.000417694
37 *818:61 *2996:D 0.000459848
38 *818:61 *860:91 0.000403603
39 *818:61 *900:116 6.71755e-05
40 *818:61 *932:37 0.000119125
41 *818:61 *932:132 6.05161e-06
42 *818:70 *900:116 9.41642e-05
43 *818:70 *932:132 2.42516e-05
44 *818:74 *2907:GATE_N 0
45 *818:74 *2987:GATE_N 0.000225307
46 *818:74 *833:119 0.000885272
47 *818:74 *898:16 0.000196269
48 *818:74 *906:12 0.000150407
49 *818:100 *2593:A2 0
50 *818:100 *2886:GATE_N 0.000522219
51 *818:100 *2982:GATE_N 0
52 *818:100 *3016:D 2.6949e-05
53 *818:100 *833:119 0.000353935
54 *818:100 *851:34 5.1819e-05
55 *818:100 *851:36 0.000125447
56 *818:100 *851:38 3.20153e-05
57 *818:100 *869:59 8.4525e-05
58 *2492:B2 *818:20 0
59 *2503:B2 *818:100 0
60 *2505:B2 *818:100 0
61 *2536:B2 *818:10 0
62 *2551:A *818:61 7.50342e-05
63 *2551:B *818:61 3.06878e-06
64 *2557:B2 *2997:GATE_N 0.00067567
65 *2592:B2 *2998:GATE_N 2.02508e-05
66 *2592:C1 *818:100 0
67 *2593:A1 *818:100 0
68 *2605:B1 *818:74 4.94268e-05
69 *3024:GATE_N *818:100 0
70 *3027:GATE_N *818:10 1.21859e-05
71 *3130:A *818:10 0
72 *3144:A *818:10 0
73 *437:16 *818:10 0
74 *816:14 *2997:GATE_N 5.49584e-05
*RES
1 *3130:X *818:4 9.3 
2 *818:4 *818:10 47.3929 
3 *818:10 *818:12 9.23214 
4 *818:12 *818:20 19.7857 
5 *818:20 *2989:GATE_N 21.8 
6 *818:20 *2991:GATE_N 9.3 
7 *818:12 *818:42 6.26786 
8 *818:42 *2996:GATE_N 9.72857 
9 *818:42 *818:61 22.3929 
10 *818:61 *2992:GATE_N 9.3 
11 *818:61 *818:70 5.44643 
12 *818:70 *818:74 14.9286 
13 *818:74 *3003:GATE_N 15.9786 
14 *818:74 *2997:GATE_N 29.5679 
15 *818:70 *818:100 24.9643 
16 *818:100 *3000:GATE_N 12.6214 
17 *818:100 *2998:GATE_N 15.4964 
18 *818:10 *2999:GATE_N 13.8 
19 *818:4 *2994:GATE_N 11.5143 
*END

*D_NET *819 0.0145395
*CONN
*I *2990:GATE_N I *D sky130_fd_sc_hd__dlxtn_1
*I *3004:GATE_N I *D sky130_fd_sc_hd__dlxtn_1
*I *2995:GATE_N I *D sky130_fd_sc_hd__dlxtn_1
*I *3001:GATE_N I *D sky130_fd_sc_hd__dlxtn_1
*I *3002:GATE_N I *D sky130_fd_sc_hd__dlxtn_1
*I *2993:GATE_N I *D sky130_fd_sc_hd__dlxtn_1
*I *3131:X O *D sky130_fd_sc_hd__clkbuf_2
*CAP
1 *2990:GATE_N 0.000122149
2 *3004:GATE_N 0.000431656
3 *2995:GATE_N 2.38235e-05
4 *3001:GATE_N 0.000521235
5 *3002:GATE_N 0
6 *2993:GATE_N 0.000172794
7 *3131:X 0.000130154
8 *819:76 0.000696773
9 *819:54 0.00159982
10 *819:46 0.00206076
11 *819:29 0.00120645
12 *819:12 0.000646368
13 *2993:GATE_N *2993:D 1.58163e-05
14 *2995:GATE_N *821:26 4.97876e-05
15 *3001:GATE_N *2889:D 0
16 *3001:GATE_N *2985:GATE_N 0.000755995
17 *3001:GATE_N *821:26 0.000720997
18 *3001:GATE_N *831:34 9.57064e-05
19 *3001:GATE_N *833:91 0.000153047
20 *3004:GATE_N *2557:A2 3.01835e-05
21 *3004:GATE_N *2559:A2 0.000194352
22 *3004:GATE_N *2635:A2 0.000240946
23 *3004:GATE_N *900:14 0
24 *3004:GATE_N *905:22 0
25 *3004:GATE_N *934:20 2.8535e-05
26 *819:12 *2527:B1 0.000186662
27 *819:12 *840:87 3.0285e-05
28 *819:12 *922:14 0.000129944
29 *819:46 *3022:D 0.000223592
30 *819:46 *900:14 0.000172231
31 *819:46 *905:22 0.000249826
32 *819:46 *927:22 2.22043e-05
33 *819:46 *927:54 0.000181548
34 *819:54 *2412:A 0.00014183
35 *819:54 *2995:D 8.67064e-05
36 *819:54 *840:32 0.000169359
37 *819:54 *903:28 0.000394969
38 *2515:A1 *819:46 4.3245e-05
39 *2516:A1 *819:46 0.000148903
40 *2516:B2 *819:46 1.41324e-05
41 *2517:B1 *819:46 6.44832e-05
42 *2517:C1 *819:46 0.000123288
43 *2537:B2 *819:54 0.000226412
44 *2559:B1 *3004:GATE_N 9.82379e-05
45 *3036:GATE_N *3004:GATE_N 8.07205e-05
46 *3128:A *819:54 0.000114793
47 *3128:A *819:76 6.62983e-05
48 *3142:A *2995:GATE_N 0
49 *3142:A *3001:GATE_N 0
50 *3175:A *2993:GATE_N 4.17527e-05
51 *3175:A *819:29 0.000105291
52 *3175:A *819:46 9.90367e-05
53 *436:8 *819:54 3.98547e-05
54 *443:16 *819:54 0.000388045
55 *446:20 *819:46 0
56 *597:10 *3004:GATE_N 0.00014576
57 *597:22 *3004:GATE_N 6.05161e-06
58 *815:14 *819:46 8.359e-05
59 *815:39 *3004:GATE_N 7.91281e-05
60 *816:8 *2990:GATE_N 2.51343e-06
61 *816:8 *819:76 2.32517e-05
62 *817:29 *3001:GATE_N 0
63 *817:49 *3001:GATE_N 0.00065824
*RES
1 *3131:X *819:12 21.4071 
2 *819:12 *2993:GATE_N 12.05 
3 *819:12 *819:29 4.85714 
4 *819:29 *3002:GATE_N 9.3 
5 *819:29 *819:46 28.4464 
6 *819:46 *819:54 23.6607 
7 *819:54 *3001:GATE_N 32.9786 
8 *819:54 *2995:GATE_N 14.5321 
9 *819:46 *819:76 2.58929 
10 *819:76 *3004:GATE_N 28.3714 
11 *819:76 *2990:GATE_N 11.0857 
*END

*D_NET *820 0.0212193
*CONN
*I *2978:GATE_N I *D sky130_fd_sc_hd__dlxtn_1
*I *2981:GATE_N I *D sky130_fd_sc_hd__dlxtn_1
*I *2987:GATE_N I *D sky130_fd_sc_hd__dlxtn_1
*I *2980:GATE_N I *D sky130_fd_sc_hd__dlxtn_1
*I *2976:GATE_N I *D sky130_fd_sc_hd__dlxtn_1
*I *2984:GATE_N I *D sky130_fd_sc_hd__dlxtn_1
*I *2982:GATE_N I *D sky130_fd_sc_hd__dlxtn_1
*I *2973:GATE_N I *D sky130_fd_sc_hd__dlxtn_1
*I *2975:GATE_N I *D sky130_fd_sc_hd__dlxtn_1
*I *2983:GATE_N I *D sky130_fd_sc_hd__dlxtn_1
*I *3132:X O *D sky130_fd_sc_hd__buf_2
*CAP
1 *2978:GATE_N 0.000810649
2 *2981:GATE_N 0
3 *2987:GATE_N 0.000480406
4 *2980:GATE_N 0.000105333
5 *2976:GATE_N 2.9238e-05
6 *2984:GATE_N 0
7 *2982:GATE_N 0.000600701
8 *2973:GATE_N 0
9 *2975:GATE_N 0.000711516
10 *2983:GATE_N 0.000140592
11 *3132:X 4.36033e-05
12 *820:130 0.000889263
13 *820:65 0.000839818
14 *820:41 0.00140557
15 *820:33 0.00132159
16 *820:29 0.000511732
17 *820:27 0.000491413
18 *820:14 0.000559344
19 *820:12 0.000991573
20 *820:8 0.000506639
21 *2975:GATE_N *2975:D 6.72779e-05
22 *2975:GATE_N *831:46 0
23 *2975:GATE_N *871:118 6.61986e-05
24 *2975:GATE_N *875:62 0
25 *2976:GATE_N *860:54 5.33005e-05
26 *2978:GATE_N *2430:B 7.83659e-05
27 *2978:GATE_N *2558:C1 9.71197e-05
28 *2978:GATE_N *821:18 5.36e-05
29 *2978:GATE_N *821:57 5.33005e-05
30 *2978:GATE_N *832:60 0.000108437
31 *2978:GATE_N *840:26 2.41268e-05
32 *2978:GATE_N *840:32 0.000116976
33 *2978:GATE_N *840:72 6.8646e-06
34 *2978:GATE_N *859:54 0.000154517
35 *2978:GATE_N *859:56 9.25014e-06
36 *2978:GATE_N *900:30 0.000387726
37 *2978:GATE_N *903:22 0.000121573
38 *2978:GATE_N *904:36 3.30352e-05
39 *2978:GATE_N *907:56 0.000291844
40 *2978:GATE_N *927:79 0.000127908
41 *2978:GATE_N *927:87 0
42 *2980:GATE_N *2980:D 0.000183726
43 *2980:GATE_N *860:91 9.71197e-05
44 *2982:GATE_N *2571:A2 0.00018372
45 *2982:GATE_N *2593:B1 6.05161e-06
46 *2982:GATE_N *851:28 0.000218206
47 *2982:GATE_N *851:32 5.52302e-05
48 *2982:GATE_N *875:43 0.000186173
49 *2982:GATE_N *932:49 1.90111e-05
50 *2983:GATE_N *2583:C1 9.99303e-05
51 *2987:GATE_N *2583:C1 0.0002083
52 *2987:GATE_N *853:31 0.000358977
53 *2987:GATE_N *900:43 1.98839e-05
54 *2987:GATE_N *906:12 0.000118339
55 *820:12 *2604:B1 0.000590335
56 *820:12 *3033:D 0
57 *820:12 *849:102 0
58 *820:12 *900:30 0.00101824
59 *820:12 *926:37 0.000342502
60 *820:12 *926:39 0.000173804
61 *820:14 *2583:C1 0.000258915
62 *820:27 *920:107 5.39552e-05
63 *820:27 *926:39 0
64 *820:29 *860:89 2.49484e-05
65 *820:29 *920:107 0.000123861
66 *820:33 *2473:A2 0.000188928
67 *820:33 *2495:C1 0
68 *820:33 *898:34 0
69 *820:33 *920:107 0.000187731
70 *820:41 *2473:C1 2.80937e-05
71 *820:65 *2473:C1 6.81335e-05
72 *820:65 *932:49 0.000130405
73 *820:130 *2558:C1 5.33005e-05
74 *820:130 *2604:B1 0.000134792
75 *820:130 *900:30 0.000142327
76 *820:130 *904:36 5.33005e-05
77 *2472:A1 *2975:GATE_N 0.000191969
78 *2472:B2 *2975:GATE_N 3.97657e-05
79 *2473:A1 *820:41 0.00024141
80 *2474:C *820:41 7.43578e-06
81 *2474:C *820:65 0.000134529
82 *2493:B2 *2975:GATE_N 1.83136e-05
83 *2493:B2 *820:41 2.23694e-05
84 *2515:B2 *2978:GATE_N 1.17968e-05
85 *2549:B2 *820:29 0.000172726
86 *2549:B2 *820:33 0.000382404
87 *2551:B *2980:GATE_N 3.1521e-05
88 *2583:A1 *820:27 0.000128154
89 *2583:B1 *2983:GATE_N 1.21258e-05
90 *2584:A *2987:GATE_N 0.00013949
91 *2593:A1 *2982:GATE_N 0.000196276
92 *2594:B1 *2982:GATE_N 5.33005e-05
93 *3133:A *2978:GATE_N 5.52238e-05
94 *446:20 *2978:GATE_N 0.000216643
95 *575:20 *820:8 5.33005e-05
96 *814:20 *820:27 0.000455547
97 *815:26 *2978:GATE_N 0.000267665
98 *816:37 *820:12 0.000125731
99 *816:41 *820:33 0
100 *816:45 *820:33 0
101 *818:61 *2980:GATE_N 0.000417694
102 *818:74 *2987:GATE_N 0.000225307
103 *818:100 *2982:GATE_N 0
*RES
1 *3132:X *820:8 14.3357 
2 *820:8 *820:12 19.5 
3 *820:12 *820:14 2.58929 
4 *820:14 *2983:GATE_N 11.4964 
5 *820:14 *820:27 11.9107 
6 *820:27 *820:29 3.16071 
7 *820:29 *820:33 14.3393 
8 *820:33 *820:41 9.10714 
9 *820:41 *2975:GATE_N 28.6036 
10 *820:41 *2973:GATE_N 9.3 
11 *820:33 *820:65 5.46429 
12 *820:65 *2982:GATE_N 30.5857 
13 *820:65 *2984:GATE_N 9.3 
14 *820:29 *2976:GATE_N 14.3357 
15 *820:27 *2980:GATE_N 18.05 
16 *820:12 *2987:GATE_N 29.6214 
17 *820:8 *820:130 6.98214 
18 *820:130 *2981:GATE_N 9.3 
19 *820:130 *2978:GATE_N 40.2821 
*END

*D_NET *821 0.0148656
*CONN
*I *2986:GATE_N I *D sky130_fd_sc_hd__dlxtn_1
*I *2974:GATE_N I *D sky130_fd_sc_hd__dlxtn_1
*I *2988:GATE_N I *D sky130_fd_sc_hd__dlxtn_1
*I *2977:GATE_N I *D sky130_fd_sc_hd__dlxtn_1
*I *2979:GATE_N I *D sky130_fd_sc_hd__dlxtn_1
*I *2985:GATE_N I *D sky130_fd_sc_hd__dlxtn_1
*I *3133:X O *D sky130_fd_sc_hd__dlymetal6s2s_1
*CAP
1 *2986:GATE_N 0
2 *2974:GATE_N 0.000387329
3 *2988:GATE_N 0.000460326
4 *2977:GATE_N 0
5 *2979:GATE_N 3.39029e-05
6 *2985:GATE_N 0.0003119
7 *3133:X 0
8 *821:61 0.00104885
9 *821:57 0.000452775
10 *821:26 0.00172427
11 *821:18 0.0016371
12 *821:4 0.000510222
13 *2974:GATE_N *837:39 2.06178e-05
14 *2974:GATE_N *874:19 0.000137983
15 *2974:GATE_N *874:25 0.000139081
16 *2974:GATE_N *908:12 1.90936e-05
17 *2985:GATE_N *831:34 0.000101875
18 *2985:GATE_N *833:20 0.000294191
19 *2985:GATE_N *836:26 0
20 *2988:GATE_N *2988:D 5.33005e-05
21 *2988:GATE_N *859:44 6.62868e-05
22 *2988:GATE_N *904:36 3.97677e-05
23 *2988:GATE_N *926:6 2.5215e-05
24 *2988:GATE_N *928:12 0.000739431
25 *821:18 *2528:A2 0.00014734
26 *821:18 *3009:D 9.25014e-06
27 *821:18 *867:14 0.000136375
28 *821:26 *2525:B1 3.35594e-05
29 *821:26 *3010:D 1.83136e-05
30 *821:57 *832:60 0.00069307
31 *821:57 *848:77 5.03772e-05
32 *821:57 *907:38 0.000174076
33 *821:57 *907:56 0.000188038
34 *821:61 *848:77 2.47697e-05
35 *821:61 *864:77 0
36 *821:61 *905:22 0
37 *821:61 *928:12 0.000414683
38 *2515:B2 *821:57 0.000177821
39 *2518:D *2974:GATE_N 0
40 *2525:B2 *821:26 5.39629e-06
41 *2536:B2 *2979:GATE_N 2.59355e-05
42 *2978:GATE_N *821:18 5.36e-05
43 *2978:GATE_N *821:57 5.33005e-05
44 *2995:GATE_N *821:26 4.97876e-05
45 *3001:GATE_N *2985:GATE_N 0.000755995
46 *3001:GATE_N *821:26 0.000720997
47 *3010:GATE_N *821:26 0.000156333
48 *3018:GATE_N *821:18 9.99303e-05
49 *3018:GATE_N *821:26 1.40034e-05
50 *3036:GATE_N *2988:GATE_N 0.000247032
51 *3086:GATE_N *2974:GATE_N 0
52 *3133:A *821:18 5.33005e-05
53 *3142:A *821:26 0
54 *3143:A *821:26 0
55 *3144:A *2985:GATE_N 0.000373955
56 *3144:A *821:26 0.00110105
57 *496:24 *2988:GATE_N 9.22222e-06
58 *805:84 *2974:GATE_N 0.000143663
59 *815:39 *2988:GATE_N 0.000523811
60 *815:39 *821:61 0.000153315
61 *817:13 *821:26 5.38242e-05
*RES
1 *3133:X *821:4 9.3 
2 *821:4 *821:18 14.5179 
3 *821:18 *821:26 30.9464 
4 *821:26 *2985:GATE_N 26.3 
5 *821:26 *2979:GATE_N 14.3357 
6 *821:18 *2977:GATE_N 9.3 
7 *821:4 *821:57 9.30357 
8 *821:57 *821:61 9.9375 
9 *821:61 *2988:GATE_N 27.3446 
10 *821:61 *2974:GATE_N 25.0018 
11 *821:57 *2986:GATE_N 9.3 
*END

*D_NET *822 0.022525
*CONN
*I *2965:GATE_N I *D sky130_fd_sc_hd__dlxtn_1
*I *2969:GATE_N I *D sky130_fd_sc_hd__dlxtn_1
*I *2967:GATE_N I *D sky130_fd_sc_hd__dlxtn_1
*I *2964:GATE_N I *D sky130_fd_sc_hd__dlxtn_1
*I *2959:GATE_N I *D sky130_fd_sc_hd__dlxtn_1
*I *2966:GATE_N I *D sky130_fd_sc_hd__dlxtn_1
*I *2957:GATE_N I *D sky130_fd_sc_hd__dlxtn_1
*I *2960:GATE_N I *D sky130_fd_sc_hd__dlxtn_1
*I *2971:GATE_N I *D sky130_fd_sc_hd__dlxtn_1
*I *2968:GATE_N I *D sky130_fd_sc_hd__dlxtn_1
*I *3134:X O *D sky130_fd_sc_hd__buf_2
*CAP
1 *2965:GATE_N 3.82418e-05
2 *2969:GATE_N 3.38172e-05
3 *2967:GATE_N 0
4 *2964:GATE_N 1.0319e-05
5 *2959:GATE_N 0.000344037
6 *2966:GATE_N 0
7 *2957:GATE_N 0
8 *2960:GATE_N 3.82418e-05
9 *2971:GATE_N 0.000949333
10 *2968:GATE_N 0.00018896
11 *3134:X 0.000848195
12 *822:141 0.00125241
13 *822:95 0.00172063
14 *822:78 0.00136523
15 *822:60 0.000846325
16 *822:44 0.000631374
17 *822:36 0.00141922
18 *822:30 0.00055716
19 *822:22 0.000772848
20 *822:14 0.00136122
21 *2959:GATE_N *2670:A0 0.000394917
22 *2959:GATE_N *930:54 0
23 *2959:GATE_N *996:26 0.000142572
24 *2968:GATE_N *2491:A2 0
25 *2968:GATE_N *3048:D 0
26 *2968:GATE_N *852:51 5.52302e-05
27 *2968:GATE_N *852:57 8.11028e-06
28 *2968:GATE_N *871:92 5.71472e-05
29 *2968:GATE_N *875:30 0
30 *2969:GATE_N *2629:A2 3.32631e-05
31 *2969:GATE_N *930:16 3.69047e-06
32 *2971:GATE_N *2623:A2 1.90936e-05
33 *2971:GATE_N *2623:B1 5.03772e-05
34 *2971:GATE_N *845:8 3.32631e-05
35 *2971:GATE_N *845:12 0.000111218
36 *2971:GATE_N *845:60 7.11841e-05
37 *2971:GATE_N *870:25 2.27416e-05
38 *2971:GATE_N *870:31 3.65069e-05
39 *2971:GATE_N *909:27 0
40 *2971:GATE_N *911:83 4.9894e-05
41 *2971:GATE_N *911:87 4.71848e-05
42 *2971:GATE_N *916:25 0
43 *822:14 *2563:A2 3.86862e-05
44 *822:14 *2853:D 2.32517e-05
45 *822:14 *2853:GATE_N 0.000120123
46 *822:14 *858:22 1.90002e-05
47 *822:14 *858:40 8.25843e-06
48 *822:14 *887:104 0.000134366
49 *822:14 *930:10 3.67142e-05
50 *822:22 *850:22 8.5097e-05
51 *822:22 *850:36 0.000134504
52 *822:22 *850:57 4.75715e-05
53 *822:22 *930:10 3.67257e-05
54 *822:30 *854:59 0.000187541
55 *822:30 *930:31 0.000155163
56 *822:36 *2673:A1 4.27437e-05
57 *822:36 *2673:S 8.55871e-05
58 *822:36 *882:20 0
59 *822:36 *882:28 1.94218e-05
60 *822:36 *911:41 9.41642e-05
61 *822:44 *2966:D 8.66063e-05
62 *822:44 *882:28 0.000132129
63 *822:44 *892:82 3.67257e-05
64 *822:60 *2957:D 2.49858e-06
65 *822:60 *2966:D 0.000137983
66 *822:60 *3046:D 3.03664e-05
67 *822:60 *855:152 1.79065e-05
68 *822:60 *872:42 5.33005e-05
69 *822:60 *891:34 0.000115096
70 *822:60 *892:82 0.000109843
71 *822:78 *2466:A2 5.52238e-05
72 *822:78 *2491:B1 0.000218236
73 *822:78 *2957:D 9.60939e-05
74 *822:78 *855:152 0.000320657
75 *822:78 *872:42 0.000363241
76 *822:95 *2848:D 0.000125828
77 *822:95 *3088:D 0.000127107
78 *822:95 *869:102 4.35131e-05
79 *822:95 *870:31 3.55279e-05
80 *822:95 *876:50 0
81 *822:95 *889:82 0.000261718
82 *822:95 *909:37 0
83 *2466:A1 *822:78 3.68898e-05
84 *2467:C1 *822:78 0.000268396
85 *2552:A1 *2959:GATE_N 4.26495e-05
86 *2552:B2 *822:141 0.000336012
87 *2562:A1 *822:14 0.000123288
88 *2578:B2 *2971:GATE_N 0.00014699
89 *2587:A1 *2968:GATE_N 0
90 *2607:B2 *2971:GATE_N 0.000157501
91 *2629:B2 *2971:GATE_N 0.000583547
92 *2640:B1 *822:22 0.000144896
93 *3048:GATE_N *822:95 0
94 *3065:GATE_N *822:22 0.000507772
95 *3067:GATE_N *2971:GATE_N 9.38621e-05
96 *3094:GATE_N *822:78 0
97 *3118:A *822:22 1.18451e-05
98 *3171:A *822:14 0.000566292
99 *3225:A *2965:GATE_N 0
100 *3225:A *822:22 6.05161e-06
101 *382:14 *822:36 7.83587e-05
102 *390:10 *822:36 0.000407653
103 *390:10 *822:44 0.000376534
104 *426:10 *2959:GATE_N 0.000245667
105 *440:37 *822:14 2.8266e-06
106 *448:45 *822:14 9.87672e-05
107 *655:16 *2971:GATE_N 6.09762e-05
108 *661:12 *2969:GATE_N 9.60939e-05
109 *671:8 *822:30 0
110 *807:12 *822:22 9.06879e-05
111 *807:12 *822:30 0.000405929
112 *807:20 *822:30 9.00074e-05
113 *807:43 *822:60 0.000143513
114 *807:59 *822:60 0.000144668
115 *809:35 *2959:GATE_N 1.94945e-05
116 *809:35 *2964:GATE_N 2.06178e-05
117 *809:35 *822:14 6.47912e-05
*RES
1 *3134:X *822:14 33.3536 
2 *822:14 *822:22 16.1429 
3 *822:22 *822:30 12.5714 
4 *822:30 *822:36 11.7054 
5 *822:36 *822:44 10.8125 
6 *822:44 *822:60 18.7143 
7 *822:60 *822:78 25.6429 
8 *822:78 *2968:GATE_N 17.1929 
9 *822:78 *822:95 17.9464 
10 *822:95 *2971:GATE_N 40.5318 
11 *822:95 *2960:GATE_N 10.0321 
12 *822:60 *2957:GATE_N 9.3 
13 *822:44 *2966:GATE_N 9.3 
14 *822:36 *822:141 8.88487 
15 *822:141 *2959:GATE_N 24.4339 
16 *822:141 *2964:GATE_N 14.0768 
17 *822:30 *2967:GATE_N 9.3 
18 *822:22 *2969:GATE_N 14.7464 
19 *822:14 *2965:GATE_N 10.0321 
*END

*D_NET *823 0.0201934
*CONN
*I *2962:GATE_N I *D sky130_fd_sc_hd__dlxtn_1
*I *2972:GATE_N I *D sky130_fd_sc_hd__dlxtn_1
*I *2961:GATE_N I *D sky130_fd_sc_hd__dlxtn_1
*I *2970:GATE_N I *D sky130_fd_sc_hd__dlxtn_1
*I *2958:GATE_N I *D sky130_fd_sc_hd__dlxtn_1
*I *2963:GATE_N I *D sky130_fd_sc_hd__dlxtn_1
*I *3135:X O *D sky130_fd_sc_hd__clkbuf_2
*CAP
1 *2962:GATE_N 0.000481974
2 *2972:GATE_N 0.000834276
3 *2961:GATE_N 0
4 *2970:GATE_N 0.000527787
5 *2958:GATE_N 0.000155055
6 *2963:GATE_N 0.000742182
7 *3135:X 2.82493e-05
8 *823:38 0.00137412
9 *823:28 0.00134072
10 *823:22 0.00156349
11 *823:14 0.0026485
12 *823:8 0.001097
13 *2958:GATE_N *873:33 5.33005e-05
14 *2958:GATE_N *873:71 0.000392019
15 *2958:GATE_N *915:16 0.000436736
16 *2962:GATE_N *3058:D 4.80865e-05
17 *2962:GATE_N *864:8 2.13481e-06
18 *2962:GATE_N *864:21 4.12921e-06
19 *2962:GATE_N *865:35 8.90314e-05
20 *2963:GATE_N *2942:GATE_N 0.000219107
21 *2963:GATE_N *2963:D 0.000121671
22 *2963:GATE_N *862:131 0.000145241
23 *2963:GATE_N *920:177 3.14048e-05
24 *2970:GATE_N *2897:GATE_N 2.70758e-05
25 *2970:GATE_N *2970:D 1.58163e-05
26 *2970:GATE_N *840:130 2.82999e-05
27 *2970:GATE_N *847:37 2.40107e-05
28 *2970:GATE_N *910:14 0
29 *2970:GATE_N *910:18 0
30 *2970:GATE_N *921:26 4.45592e-05
31 *2972:GATE_N *2554:B1 0
32 *2972:GATE_N *843:40 8.2226e-05
33 *2972:GATE_N *843:46 5.33323e-05
34 *2972:GATE_N *850:57 2.27416e-05
35 *2972:GATE_N *917:44 1.10632e-05
36 *2972:GATE_N *917:48 0.000810031
37 *823:14 *2663:A0 8.42979e-05
38 *823:14 *840:130 0.000251985
39 *823:14 *895:50 2.63641e-05
40 *823:22 *840:130 0.000529731
41 *823:22 *897:10 8.49861e-06
42 *823:28 *2514:A2 0.000522451
43 *823:28 *2897:GATE_N 3.32631e-05
44 *823:28 *910:52 0.000261146
45 *823:38 *2897:GATE_N 4.61259e-05
46 *823:38 *834:68 0
47 *823:38 *864:51 0.000136958
48 *823:38 *921:26 0.000135846
49 *2480:B2 *2963:GATE_N 0.000165495
50 *2480:B2 *823:38 0.00013651
51 *2481:B2 *2958:GATE_N 5.33005e-05
52 *2482:B2 *823:38 7.8327e-05
53 *2485:C *823:28 0.000222666
54 *2518:B *2972:GATE_N 6.98971e-05
55 *2616:A1 *823:28 1.90111e-05
56 *2616:B2 *2970:GATE_N 1.89507e-06
57 *3058:GATE_N *2962:GATE_N 2.59355e-05
58 *3066:GATE_N *823:22 2.06112e-05
59 *3121:A *2962:GATE_N 8.25843e-06
60 *3121:A *823:14 1.66744e-05
61 *3135:A *823:8 7.83659e-05
62 *3135:A *823:14 0.000192983
63 *3198:A *2970:GATE_N 1.3701e-05
64 *3215:A *2963:GATE_N 0.000168954
65 *3216:A *2958:GATE_N 3.19477e-05
66 *3220:A *2970:GATE_N 8.39471e-05
67 *383:12 *823:38 3.07555e-05
68 *435:14 *823:22 0.00114923
69 *447:22 *2972:GATE_N 0.00023047
70 *490:8 *823:38 0
71 *499:22 *2963:GATE_N 9.61199e-05
72 *499:22 *2970:GATE_N 0.000146692
73 *499:22 *823:38 0.000325409
74 *806:60 *2972:GATE_N 0
75 *808:12 *823:14 0.000137834
76 *810:12 *823:8 6.81083e-05
77 *810:12 *823:14 5.54856e-05
78 *810:20 *2972:GATE_N 0.000174556
79 *810:22 *2972:GATE_N 4.38265e-05
80 *810:26 *2972:GATE_N 0.000718145
81 *812:18 *823:14 0.000136258
*RES
1 *3135:X *823:8 14.8357 
2 *823:8 *823:14 7.76313 
3 *823:14 *823:22 11.6209 
4 *823:22 *823:28 13.9821 
5 *823:28 *823:38 19.4107 
6 *823:38 *2963:GATE_N 29.7643 
7 *823:38 *2958:GATE_N 19.2821 
8 *823:28 *2970:GATE_N 21.7107 
9 *823:22 *2961:GATE_N 9.3 
10 *823:14 *2972:GATE_N 39.8796 
11 *823:8 *2962:GATE_N 19.9964 
*END

*D_NET *824 0.00286873
*CONN
*I *2664:A1 I *D sky130_fd_sc_hd__mux2_1
*I *3257:X O *D sky130_fd_sc_hd__clkbuf_1
*CAP
1 *2664:A1 0.00103031
2 *3257:X 0.00103031
3 *2664:A1 *2542:A 4.27338e-05
4 *2664:A1 *3190:A 5.33005e-05
5 *2664:A1 *878:85 7.79781e-06
6 PWDATA[6] *2664:A1 0
7 *2542:B *2664:A1 0.000227117
8 *2648:B *2664:A1 9.41642e-05
9 *2825:D *2664:A1 0.000158272
10 *2828:D *2664:A1 0.000224727
*RES
1 *3257:X *2664:A1 44.4393 
*END

*D_NET *825 0.0267875
*CONN
*I *2954:GATE_N I *D sky130_fd_sc_hd__dlxtn_1
*I *2944:GATE_N I *D sky130_fd_sc_hd__dlxtn_1
*I *2943:GATE_N I *D sky130_fd_sc_hd__dlxtn_1
*I *2950:GATE_N I *D sky130_fd_sc_hd__dlxtn_1
*I *2952:GATE_N I *D sky130_fd_sc_hd__dlxtn_1
*I *2941:GATE_N I *D sky130_fd_sc_hd__dlxtn_1
*I *2953:GATE_N I *D sky130_fd_sc_hd__dlxtn_1
*I *2951:GATE_N I *D sky130_fd_sc_hd__dlxtn_1
*I *2948:GATE_N I *D sky130_fd_sc_hd__dlxtn_1
*I *2955:GATE_N I *D sky130_fd_sc_hd__dlxtn_1
*I *3136:X O *D sky130_fd_sc_hd__buf_2
*CAP
1 *2954:GATE_N 2.3671e-05
2 *2944:GATE_N 0.000105434
3 *2943:GATE_N 0.000268356
4 *2950:GATE_N 0
5 *2952:GATE_N 0.000134702
6 *2941:GATE_N 0.000357941
7 *2953:GATE_N 0.00053599
8 *2951:GATE_N 7.41611e-05
9 *2948:GATE_N 0.000411434
10 *2955:GATE_N 0.000203676
11 *3136:X 0.000365172
12 *825:104 0.000686119
13 *825:100 0.000432264
14 *825:96 0.000858857
15 *825:94 0.000903111
16 *825:73 0.00112159
17 *825:45 0.00100593
18 *825:18 0.00203392
19 *825:12 0.00309502
20 *825:10 0.00203432
21 *2941:GATE_N *2925:D 1.19191e-05
22 *2941:GATE_N *2934:GATE_N 5.80423e-05
23 *2941:GATE_N *2941:D 9.90367e-05
24 *2941:GATE_N *852:8 7.76099e-05
25 *2941:GATE_N *852:19 1.01487e-05
26 *2941:GATE_N *855:20 0.000315165
27 *2941:GATE_N *876:52 0.000196687
28 *2943:GATE_N *2589:A2 0.000128774
29 *2944:GATE_N *829:53 0.000263524
30 *2944:GATE_N *870:8 7.1271e-05
31 *2948:GATE_N *2621:A2 6.55482e-05
32 *2951:GATE_N *854:40 4.53889e-05
33 *2951:GATE_N *914:107 0.000137983
34 *2952:GATE_N *3080:D 0.000137983
35 *2952:GATE_N *3160:A 2.12521e-05
36 *2952:GATE_N *852:19 6.42338e-05
37 *2952:GATE_N *852:31 2.59355e-05
38 *2952:GATE_N *876:52 8.39385e-05
39 *2955:GATE_N *2620:A2 6.84559e-05
40 *2955:GATE_N *844:102 0.000110029
41 *2955:GATE_N *845:31 0
42 *2955:GATE_N *854:40 0.000219711
43 *2955:GATE_N *914:97 0.000102056
44 *825:10 *830:102 0.000315165
45 *825:10 *878:25 0
46 *825:10 *897:10 7.57614e-05
47 *825:10 *897:59 0.000135549
48 *825:10 *917:6 5.33005e-05
49 *825:10 *917:25 9.90431e-05
50 *825:10 *918:12 0.000277291
51 *825:12 *2535:B1 2.22283e-05
52 *825:12 *2600:A2 0
53 *825:12 *2601:B1 0
54 *825:12 *2910:GATE_N 0.000105965
55 *825:12 *2915:GATE_N 7.83659e-05
56 *825:12 *2917:D 0
57 *825:12 *854:10 1.19402e-05
58 *825:12 *858:58 0
59 *825:12 *892:150 0
60 *825:12 *897:10 0.00044044
61 *825:12 *897:12 0.000249623
62 *825:12 *918:12 0.00118143
63 *825:18 *853:133 1.96078e-05
64 *825:18 *854:10 1.37429e-05
65 *825:18 *914:97 0.00152425
66 *825:45 *2621:B1 5.52302e-05
67 *825:45 *853:133 9.22103e-06
68 *825:45 *889:94 0.000235675
69 *825:45 *889:98 0
70 *825:45 *914:97 4.18895e-05
71 *825:45 *914:107 0.000137983
72 *825:94 *892:10 0.000371765
73 *825:94 *914:10 0.000322475
74 *825:96 *2501:B1 3.9745e-05
75 *825:96 *2589:B1 0.00015734
76 *825:96 *829:65 6.1075e-05
77 *825:96 *892:10 0.000224731
78 *825:96 *914:10 2.31791e-05
79 *825:96 *914:16 0.000195555
80 *825:100 *2589:B1 2.90224e-05
81 *825:100 *829:65 0.000125248
82 *825:104 *2468:B1 0.00018631
83 *825:104 *2936:D 9.71197e-05
84 *2468:A1 *2941:GATE_N 0
85 *2479:B2 *825:12 0.000143491
86 *2501:B2 *2944:GATE_N 3.63587e-05
87 *2508:B1 *2948:GATE_N 0
88 *2508:B2 *2948:GATE_N 3.09814e-05
89 *2589:A1 *825:100 0.000100831
90 *2589:B2 *825:100 0
91 *2590:A1 *825:104 3.2687e-05
92 *2590:C1 *825:100 7.05497e-05
93 *2595:A *825:104 6.87574e-05
94 *2600:A1 *2953:GATE_N 5.71472e-05
95 *2601:B2 *825:12 0
96 *2621:A1 *825:45 0.00010096
97 *2629:B1 *2948:GATE_N 7.40526e-05
98 *2629:B1 *2951:GATE_N 4.34069e-05
99 *2629:B1 *825:45 3.28967e-05
100 *3081:GATE_N *825:12 0.000117196
101 *3081:GATE_N *825:18 3.17148e-05
102 *3081:GATE_N *825:94 0
103 *3083:GATE_N *825:73 5.33005e-05
104 *3093:GATE_N *825:12 0
105 *3163:A *825:18 5.64742e-05
106 *3179:A *825:104 0.000434813
107 *498:10 *2954:GATE_N 5.52302e-05
108 *610:12 *2941:GATE_N 0
109 *647:20 *825:12 8.96017e-05
110 *655:16 *2953:GATE_N 0.000310041
111 *655:16 *825:73 7.81878e-05
112 *805:28 *2955:GATE_N 0
113 *806:60 *2948:GATE_N 0.000669916
114 *806:60 *2951:GATE_N 5.05056e-05
115 *807:73 *825:96 0
116 *807:101 *825:96 0
117 *807:112 *825:18 0.000144903
118 *807:112 *825:94 0
119 *809:123 *825:18 1.98839e-05
120 *811:18 *2948:GATE_N 0
121 *811:58 *825:96 0
*RES
1 *3136:X *825:10 23.9071 
2 *825:10 *825:12 38.375 
3 *825:12 *825:18 23.7143 
4 *825:18 *2955:GATE_N 23.1571 
5 *825:18 *825:45 20.5357 
6 *825:45 *2948:GATE_N 23.3893 
7 *825:45 *2951:GATE_N 15.8893 
8 *825:12 *825:73 7.08929 
9 *825:73 *2953:GATE_N 19.175 
10 *825:73 *825:94 14.6429 
11 *825:94 *825:96 9.53571 
12 *825:96 *825:100 9.78571 
13 *825:100 *825:104 11.1964 
14 *825:104 *2941:GATE_N 22.8179 
15 *825:104 *2952:GATE_N 17.4071 
16 *825:100 *2950:GATE_N 9.3 
17 *825:96 *2943:GATE_N 18.05 
18 *825:94 *2944:GATE_N 16.8179 
19 *825:10 *2954:GATE_N 14.3357 
*END

*D_NET *826 0.0136755
*CONN
*I *2946:GATE_N I *D sky130_fd_sc_hd__dlxtn_1
*I *2945:GATE_N I *D sky130_fd_sc_hd__dlxtn_1
*I *2956:GATE_N I *D sky130_fd_sc_hd__dlxtn_1
*I *2942:GATE_N I *D sky130_fd_sc_hd__dlxtn_1
*I *2947:GATE_N I *D sky130_fd_sc_hd__dlxtn_1
*I *2949:GATE_N I *D sky130_fd_sc_hd__dlxtn_1
*I *3137:X O *D sky130_fd_sc_hd__dlymetal6s2s_1
*CAP
1 *2946:GATE_N 0
2 *2945:GATE_N 5.79533e-05
3 *2956:GATE_N 5.40037e-05
4 *2942:GATE_N 0.000422396
5 *2947:GATE_N 0
6 *2949:GATE_N 0
7 *3137:X 0.000186346
8 *826:47 0.00209145
9 *826:20 0.00191305
10 *826:16 0.00121838
11 *826:12 0.00160572
12 *826:10 0.000813727
13 *2942:GATE_N *2901:GATE_N 9.60875e-05
14 *2942:GATE_N *862:131 0.000145241
15 *2942:GATE_N *873:71 0.000181796
16 *2945:GATE_N *895:50 0.00010096
17 *2956:GATE_N *2554:B1 7.77751e-05
18 *826:10 *2418:B 2.14757e-05
19 *826:10 *830:102 4.67173e-05
20 *826:10 *841:24 0.000245201
21 *826:10 *912:35 0
22 *826:12 *830:26 5.05657e-05
23 *826:12 *830:102 7.12302e-05
24 *826:12 *866:22 0.000366764
25 *826:12 *866:26 0.000113978
26 *826:12 *866:32 5.41797e-06
27 *826:12 *891:8 0
28 *826:12 *891:14 0
29 *826:12 *912:35 0
30 *826:12 *917:42 0
31 *826:12 *931:48 3.69697e-05
32 *826:16 *2924:D 0
33 *826:16 *2926:GATE_N 4.53993e-05
34 *826:16 *828:29 0.000309322
35 *826:16 *830:30 0
36 *826:16 *866:32 7.48955e-05
37 *826:16 *912:72 0
38 *826:20 *2554:B1 0.000216862
39 *826:20 *858:40 2.89965e-05
40 *826:47 *2901:GATE_N 0.000222185
41 *826:47 *2915:D 0.000161921
42 *826:47 *858:40 0.000125547
43 *826:47 *858:46 0.000121025
44 *826:47 *858:52 0.000175894
45 *826:47 *858:54 3.67257e-05
46 *826:47 *862:138 3.14048e-05
47 *2480:B2 *2942:GATE_N 3.48867e-05
48 *2519:B2 *826:12 0.000171398
49 *2534:A1 *826:47 0.000135028
50 *2554:A1 *826:20 5.03772e-05
51 *2554:B2 *826:16 0
52 *2554:B2 *826:20 0.000110107
53 *2554:B2 *826:47 7.3679e-05
54 *2633:A1 *826:16 3.47561e-05
55 *2633:B2 *826:16 0
56 *2634:C1 *826:16 0.00017177
57 *2963:GATE_N *2942:GATE_N 0.000219107
58 *3089:GATE_N *2945:GATE_N 9.90431e-05
59 *3089:GATE_N *826:12 8.50795e-06
60 *3136:A *826:10 0.000139907
61 *3215:A *2942:GATE_N 0.000672161
62 *435:32 *826:16 0
63 *435:32 *826:20 9.41642e-05
64 *439:30 *826:16 0
65 *441:6 *826:10 0.000125547
66 *490:8 *2942:GATE_N 5.54204e-05
67 *598:26 *826:16 0
68 *806:10 *826:12 0
69 *806:39 *2945:GATE_N 6.2589e-06
70 *806:39 *826:12 0
71 *806:39 *826:16 0
72 *806:60 *826:16 0
73 *810:20 *826:12 0
*RES
1 *3137:X *826:10 18.6393 
2 *826:10 *826:12 12.7232 
3 *826:12 *826:16 21.4732 
4 *826:16 *826:20 6.30357 
5 *826:20 *2949:GATE_N 9.3 
6 *826:20 *826:47 26.5893 
7 *826:47 *2947:GATE_N 9.3 
8 *826:47 *2942:GATE_N 30.55 
9 *826:16 *2956:GATE_N 10.6571 
10 *826:12 *2945:GATE_N 15.5589 
11 *826:10 *2946:GATE_N 13.8 
*END

*D_NET *827 0.0382239
*CONN
*I *2935:GATE_N I *D sky130_fd_sc_hd__dlxtn_1
*I *2927:GATE_N I *D sky130_fd_sc_hd__dlxtn_1
*I *2932:GATE_N I *D sky130_fd_sc_hd__dlxtn_1
*I *2934:GATE_N I *D sky130_fd_sc_hd__dlxtn_1
*I *2925:GATE_N I *D sky130_fd_sc_hd__dlxtn_1
*I *2936:GATE_N I *D sky130_fd_sc_hd__dlxtn_1
*I *2928:GATE_N I *D sky130_fd_sc_hd__dlxtn_1
*I *2939:GATE_N I *D sky130_fd_sc_hd__dlxtn_1
*I *2926:GATE_N I *D sky130_fd_sc_hd__dlxtn_1
*I *2933:GATE_N I *D sky130_fd_sc_hd__dlxtn_1
*I *3138:X O *D sky130_fd_sc_hd__buf_2
*CAP
1 *2935:GATE_N 0
2 *2927:GATE_N 0
3 *2932:GATE_N 0
4 *2934:GATE_N 0.000886219
5 *2925:GATE_N 0.000163425
6 *2936:GATE_N 3.02011e-05
7 *2928:GATE_N 0.000110184
8 *2939:GATE_N 5.70396e-05
9 *2926:GATE_N 0.00170446
10 *2933:GATE_N 3.26263e-05
11 *3138:X 0.000457408
12 *827:160 0.00114407
13 *827:107 0.0012727
14 *827:96 0.000871606
15 *827:94 0.00197266
16 *827:77 0.00254245
17 *827:71 0.00228436
18 *827:67 0.000253698
19 *827:52 0.000805525
20 *827:25 0.00276932
21 *827:10 0.000997776
22 *2925:GATE_N *2672:A0 0.000144684
23 *2925:GATE_N *2925:D 0
24 *2925:GATE_N *876:52 0
25 *2926:GATE_N *2924:D 1.47089e-05
26 *2926:GATE_N *3369:A 0.000996814
27 *2926:GATE_N *859:30 0.00186668
28 *2926:GATE_N *912:72 4.38074e-05
29 *2926:GATE_N *923:53 0
30 *2928:GATE_N *2928:D 4.1331e-06
31 *2928:GATE_N *916:27 0
32 *2933:GATE_N *2561:A2 1.0334e-05
33 *2933:GATE_N *828:37 5.48198e-05
34 *2934:GATE_N *2669:A0 8.3722e-05
35 *2934:GATE_N *2941:D 3.67142e-05
36 *2934:GATE_N *829:81 0.000186662
37 *2934:GATE_N *855:20 0.000168322
38 *2939:GATE_N *2629:A2 0
39 *827:10 *2561:A2 9.90431e-05
40 *827:10 *2933:D 0.000269428
41 *827:25 *828:37 7.42882e-05
42 *827:25 *915:79 0.000696985
43 *827:52 *2631:B1 0.000135179
44 *827:52 *858:40 1.90936e-05
45 *827:52 *891:34 0.000459888
46 *827:67 *891:34 0.000354223
47 *827:71 *891:34 0.000147715
48 *827:77 *2600:A2 0.000400867
49 *827:77 *911:41 0.000135933
50 *827:77 *911:58 0.00155731
51 *827:77 *914:97 7.8201e-05
52 *827:77 *916:25 0
53 *827:77 *916:27 0
54 *827:94 *2600:A2 2.14658e-05
55 *827:94 *3092:D 0
56 *827:94 *3168:A 0.000225609
57 *827:94 *860:10 0.000192275
58 *827:94 *914:6 0.000309266
59 *827:94 *914:97 0.000472087
60 *827:94 *920:23 0
61 *827:96 *876:50 0
62 *827:96 *876:52 0
63 *827:107 *876:52 0
64 *827:160 *2566:B1 4.79479e-05
65 *827:160 *871:92 9.60875e-05
66 *827:160 *882:20 0
67 *827:160 *891:34 0.000197984
68 *827:160 *892:95 2.05938e-05
69 *827:160 *894:130 0.000865126
70 *827:160 *909:73 7.90803e-05
71 *827:160 *911:41 4.13496e-05
72 *827:160 *930:31 2.27501e-05
73 *827:160 *990:12 0
74 *2478:B2 *2926:GATE_N 0.000216787
75 *2489:B2 *827:160 5.52238e-05
76 *2502:C1 *2928:GATE_N 1.02504e-05
77 *2508:B2 *827:94 0
78 *2562:A1 *827:10 8.25843e-06
79 *2562:C1 *827:10 0.000739164
80 *2563:B2 *827:10 0.00020044
81 *2566:A1 *827:160 5.56943e-05
82 *2572:A1 *827:96 0
83 *2574:B1 *827:160 0.000292715
84 *2575:B *827:160 0.000143522
85 *2579:C1 *827:77 0.000230482
86 *2621:A1 *827:67 0.000100478
87 *2629:B1 *2939:GATE_N 2.59355e-05
88 *2657:B *827:160 0.000443635
89 *2941:GATE_N *2934:GATE_N 5.80423e-05
90 *3037:GATE_N *827:96 0.00020934
91 *3043:GATE_N *2926:GATE_N 6.47405e-05
92 *3052:GATE_N *827:52 0.000264242
93 *3055:GATE_N *827:160 9.82678e-05
94 *3060:GATE_N *827:160 2.30116e-06
95 *3066:GATE_N *2926:GATE_N 0
96 *3068:GATE_N *2926:GATE_N 7.67234e-05
97 *3080:GATE_N *827:96 9.59532e-06
98 *3096:GATE_N *827:96 0
99 *3100:GATE_N *2926:GATE_N 0
100 *3162:A *827:94 7.05112e-05
101 *3215:A *827:94 6.27058e-05
102 *377:14 *2928:GATE_N 0
103 *377:14 *827:77 0
104 *384:12 *2925:GATE_N 5.18051e-05
105 *384:12 *827:96 2.58997e-05
106 *384:12 *827:107 0.000158519
107 *447:22 *827:52 0.000191139
108 *448:45 *827:10 5.33005e-05
109 *551:12 *827:160 0.0004613
110 *580:22 *2926:GATE_N 0.00149069
111 *580:22 *827:25 0.00126127
112 *598:26 *827:10 4.38605e-05
113 *661:12 *2939:GATE_N 0
114 *805:36 *827:94 0
115 *805:36 *827:96 0
116 *805:84 *2926:GATE_N 0
117 *806:60 *827:52 0.000742722
118 *806:60 *827:67 0.000115489
119 *806:60 *827:71 7.33463e-05
120 *807:20 *827:160 0
121 *809:35 *827:160 1.90936e-05
122 *809:54 *827:160 0.000113173
123 *810:43 *2926:GATE_N 0.00010729
124 *810:43 *827:25 0.000193992
125 *811:70 *827:94 0.000416199
126 *811:70 *827:96 0.000177234
127 *811:78 *827:94 5.6197e-05
128 *826:16 *2926:GATE_N 4.53993e-05
*RES
1 *3138:X *827:10 25.4429 
2 *827:10 *2933:GATE_N 14.5321 
3 *827:10 *827:25 6.66237 
4 *827:25 *2926:GATE_N 34.0481 
5 *827:25 *827:52 20.0796 
6 *827:52 *2939:GATE_N 14.7643 
7 *827:52 *827:67 5.21429 
8 *827:67 *827:71 6.44643 
9 *827:71 *827:77 26.9107 
10 *827:77 *2928:GATE_N 15.4429 
11 *827:77 *827:94 30.7143 
12 *827:94 *827:96 11.9643 
13 *827:96 *2936:GATE_N 14.3357 
14 *827:96 *827:107 4.375 
15 *827:107 *2925:GATE_N 16.9607 
16 *827:107 *2934:GATE_N 27.2286 
17 *827:94 *2932:GATE_N 13.8 
18 *827:71 *827:160 49.7321 
19 *827:160 *2927:GATE_N 9.3 
20 *827:67 *2935:GATE_N 13.8 
*END

*D_NET *828 0.0150984
*CONN
*I *2929:GATE_N I *D sky130_fd_sc_hd__dlxtn_1
*I *2931:GATE_N I *D sky130_fd_sc_hd__dlxtn_1
*I *2930:GATE_N I *D sky130_fd_sc_hd__dlxtn_1
*I *2940:GATE_N I *D sky130_fd_sc_hd__dlxtn_1
*I *2937:GATE_N I *D sky130_fd_sc_hd__dlxtn_1
*I *2938:GATE_N I *D sky130_fd_sc_hd__dlxtn_1
*I *3139:X O *D sky130_fd_sc_hd__clkbuf_2
*CAP
1 *2929:GATE_N 0
2 *2931:GATE_N 4.73852e-05
3 *2930:GATE_N 0.000300665
4 *2940:GATE_N 0.000440931
5 *2937:GATE_N 0.000226451
6 *2938:GATE_N 0.000847418
7 *3139:X 0
8 *828:37 0.00109763
9 *828:35 0.000730916
10 *828:33 0.000958937
11 *828:29 0.00157813
12 *828:4 0.00151399
13 *2930:GATE_N *2522:B1 0.000304546
14 *2930:GATE_N *2532:A2 1.46624e-05
15 *2930:GATE_N *863:14 3.17148e-05
16 *2937:GATE_N *2561:B1 7.01532e-05
17 *2937:GATE_N *2853:GATE_N 0.000386717
18 *2937:GATE_N *858:40 2.05413e-05
19 *2937:GATE_N *930:10 0.000220441
20 *2937:GATE_N *930:14 0.000174812
21 *2938:GATE_N *2486:A2 0.000442361
22 *2938:GATE_N *2643:A 0
23 *2938:GATE_N *2961:D 0.000113383
24 *2938:GATE_N *847:88 0.000178847
25 *2938:GATE_N *866:80 0.000107667
26 *2938:GATE_N *893:37 0.000484524
27 *2940:GATE_N *2561:B1 5.33005e-05
28 *2940:GATE_N *3077:D 0.00022459
29 *2940:GATE_N *842:6 0.000390994
30 *2940:GATE_N *842:50 2.89967e-05
31 *2940:GATE_N *863:48 0.000895501
32 *828:29 *866:80 8.86413e-05
33 *828:29 *895:50 0.000470382
34 *828:37 *2561:A2 0
35 *828:37 *2561:B1 0.00025425
36 *828:37 *859:103 3.64479e-05
37 *828:37 *863:14 0.000146474
38 *2522:C1 *2930:GATE_N 0.00016003
39 *2532:A1 *2930:GATE_N 0.000112926
40 *2532:A1 *828:37 7.38652e-05
41 *2532:B2 *2930:GATE_N 0.000236099
42 *2532:B2 *828:37 0.000101545
43 *2533:C1 *828:37 0
44 *2561:B2 *2940:GATE_N 2.60984e-05
45 *2610:B2 *2938:GATE_N 2.89114e-05
46 *2933:GATE_N *828:37 5.48198e-05
47 *3052:GATE_N *2940:GATE_N 5.30637e-06
48 *3091:GATE_N *2930:GATE_N 2.80507e-05
49 *3091:GATE_N *828:37 3.34783e-05
50 *3118:A *2937:GATE_N 0
51 *3118:A *828:37 0
52 *806:39 *828:29 7.28104e-05
53 *808:54 *828:29 4.67115e-05
54 *808:54 *828:33 0.000300356
55 *812:47 *828:29 3.48705e-05
56 *812:47 *828:33 0.00051654
57 *826:16 *828:29 0.000309322
58 *827:25 *828:37 7.42882e-05
*RES
1 *3139:X *828:4 9.3 
2 *828:4 *2938:GATE_N 33.0679 
3 *828:4 *828:29 20.3036 
4 *828:29 *828:33 16.4643 
5 *828:33 *828:35 4.5 
6 *828:35 *828:37 9.83929 
7 *828:37 *2937:GATE_N 20.6036 
8 *828:37 *2940:GATE_N 26.1393 
9 *828:35 *2930:GATE_N 22.5857 
10 *828:33 *2931:GATE_N 10.2643 
11 *828:29 *2929:GATE_N 9.3 
*END

*D_NET *829 0.0229773
*CONN
*I *2917:GATE_N I *D sky130_fd_sc_hd__dlxtn_1
*I *2921:GATE_N I *D sky130_fd_sc_hd__dlxtn_1
*I *2919:GATE_N I *D sky130_fd_sc_hd__dlxtn_1
*I *2923:GATE_N I *D sky130_fd_sc_hd__dlxtn_1
*I *2912:GATE_N I *D sky130_fd_sc_hd__dlxtn_1
*I *2911:GATE_N I *D sky130_fd_sc_hd__dlxtn_1
*I *2918:GATE_N I *D sky130_fd_sc_hd__dlxtn_1
*I *2909:GATE_N I *D sky130_fd_sc_hd__dlxtn_1
*I *2920:GATE_N I *D sky130_fd_sc_hd__dlxtn_1
*I *2916:GATE_N I *D sky130_fd_sc_hd__dlxtn_1
*I *3140:X O *D sky130_fd_sc_hd__buf_2
*CAP
1 *2917:GATE_N 0
2 *2921:GATE_N 0.000387216
3 *2919:GATE_N 0.000155561
4 *2923:GATE_N 0.000514605
5 *2912:GATE_N 0
6 *2911:GATE_N 0
7 *2918:GATE_N 0
8 *2909:GATE_N 0.000483879
9 *2920:GATE_N 0.000104195
10 *2916:GATE_N 0.000471238
11 *3140:X 0.000160692
12 *829:129 0.00123337
13 *829:81 0.00145731
14 *829:65 0.00142367
15 *829:59 0.000703276
16 *829:55 0.000964681
17 *829:53 0.000442634
18 *829:36 0.00137429
19 *829:32 0.00198631
20 *829:12 0.00104674
21 *2909:GATE_N *2909:D 9.46929e-05
22 *2909:GATE_N *875:12 0.000130071
23 *2909:GATE_N *875:30 1.92905e-05
24 *2916:GATE_N *2916:D 7.29433e-05
25 *2920:GATE_N *875:30 0
26 *2921:GATE_N *3158:A 0.000327473
27 *2921:GATE_N *850:65 0.000251087
28 *2923:GATE_N *2912:D 0.00017273
29 *2923:GATE_N *3088:D 0.000129842
30 *2923:GATE_N *869:102 3.30352e-05
31 *2923:GATE_N *894:10 0.000393689
32 *2923:GATE_N *909:27 0.000400786
33 *829:12 *2556:B1 0
34 *829:12 *2917:D 2.83284e-06
35 *829:12 *863:48 1.55953e-05
36 *829:32 *2556:B1 0.000352304
37 *829:32 *2600:A2 0.000657858
38 *829:32 *2917:D 4.40135e-05
39 *829:32 *3045:D 0
40 *829:32 *833:177 0.00052122
41 *829:32 *850:57 2.3704e-05
42 *829:32 *850:65 1.09232e-05
43 *829:32 *858:58 0
44 *829:32 *863:48 0.000271345
45 *829:32 *918:12 0
46 *829:36 *2916:D 0
47 *829:36 *3168:A 0
48 *829:36 *892:10 0.000199293
49 *829:36 *892:150 3.33605e-05
50 *829:36 *896:16 0
51 *829:36 *896:20 0
52 *829:53 *870:8 2.15245e-05
53 *829:65 *855:121 3.40301e-05
54 *829:65 *875:30 7.3237e-05
55 *829:65 *889:82 0.000137983
56 *829:81 *2661:A0 0.000394866
57 *829:81 *2665:S 0.00036192
58 *829:81 *2669:A0 4.05247e-05
59 *829:129 *869:102 0.000118581
60 *829:129 *911:87 2.11419e-05
61 *2467:B2 *2909:GATE_N 9.60875e-05
62 *2502:C1 *829:53 0.000306311
63 *2545:B2 *2916:GATE_N 9.33978e-07
64 *2552:B2 *829:129 0
65 *2579:C1 *829:36 0.000147211
66 *2590:C1 *829:65 0
67 *2600:A1 *829:36 0
68 *2601:B2 *829:32 1.52978e-05
69 *2601:B2 *829:36 5.10822e-05
70 *2601:C1 *2921:GATE_N 9.90367e-05
71 *2601:C1 *829:32 7.83366e-05
72 *2606:A *2921:GATE_N 8.54142e-05
73 *2661:A1 *829:81 2.77143e-05
74 *2934:GATE_N *829:81 0.000186662
75 *2944:GATE_N *829:53 0.000263524
76 *3045:GATE_N *829:32 0.000119708
77 *3053:GATE_N *2909:GATE_N 6.97409e-05
78 *3053:GATE_N *829:81 2.44318e-05
79 *3062:GATE_N *829:81 9.22103e-06
80 *3071:GATE_N *829:65 9.59532e-06
81 *3088:GATE_N *2923:GATE_N 0.000112286
82 *3140:A *829:12 7.86062e-05
83 *3164:A *829:65 1.10866e-05
84 *3164:A *829:81 6.42242e-05
85 *3177:A *829:53 2.59355e-05
86 *3179:A *829:65 4.12317e-05
87 *377:14 *2919:GATE_N 0.000219838
88 *377:14 *829:55 0.000200811
89 *377:14 *829:59 0.000386833
90 *377:14 *829:65 0
91 *377:14 *829:81 0
92 *385:12 *829:81 0.00010096
93 *492:34 *829:32 0
94 *585:10 *829:36 0.000216809
95 *807:73 *829:59 5.41794e-05
96 *807:73 *829:65 0.000183645
97 *807:101 *829:59 0.000332508
98 *807:112 *2919:GATE_N 0.000313226
99 *807:112 *829:55 0.000193386
100 *807:112 *829:59 2.04825e-05
101 *809:72 *2920:GATE_N 0
102 *809:119 *2923:GATE_N 0
103 *809:165 *2923:GATE_N 0.000165435
104 *811:58 *829:129 0.000207598
105 *825:96 *829:65 6.1075e-05
106 *825:100 *829:65 0.000125248
*RES
1 *3140:X *829:12 20.6929 
2 *829:12 *829:32 36.7143 
3 *829:32 *829:36 18.2857 
4 *829:36 *2916:GATE_N 16.05 
5 *829:36 *829:53 9.14286 
6 *829:53 *829:55 2.70536 
7 *829:55 *829:59 9.63393 
8 *829:59 *829:65 16 
9 *829:65 *829:81 21.25 
10 *829:81 *2920:GATE_N 19.9429 
11 *829:81 *2909:GATE_N 17.3893 
12 *829:65 *2918:GATE_N 13.8 
13 *829:59 *2911:GATE_N 9.3 
14 *829:55 *829:129 15.8689 
15 *829:129 *2912:GATE_N 9.3 
16 *829:129 *2923:GATE_N 32.5321 
17 *829:53 *2919:GATE_N 18.175 
18 *829:32 *2921:GATE_N 22.175 
19 *829:12 *2917:GATE_N 9.3 
*END

*D_NET *830 0.0175667
*CONN
*I *2914:GATE_N I *D sky130_fd_sc_hd__dlxtn_1
*I *2922:GATE_N I *D sky130_fd_sc_hd__dlxtn_1
*I *2913:GATE_N I *D sky130_fd_sc_hd__dlxtn_1
*I *2924:GATE_N I *D sky130_fd_sc_hd__dlxtn_1
*I *2910:GATE_N I *D sky130_fd_sc_hd__dlxtn_1
*I *2915:GATE_N I *D sky130_fd_sc_hd__dlxtn_1
*I *3141:X O *D sky130_fd_sc_hd__clkbuf_2
*CAP
1 *2914:GATE_N 0
2 *2922:GATE_N 0
3 *2913:GATE_N 0
4 *2924:GATE_N 0.000127722
5 *2910:GATE_N 0.000107614
6 *2915:GATE_N 0.000514061
7 *3141:X 0.000535098
8 *830:102 0.00110647
9 *830:42 0.00144672
10 *830:30 0.00143815
11 *830:26 0.0008782
12 *830:20 0.00157856
13 *830:16 0.00061437
14 *2910:GATE_N *897:12 6.74886e-05
15 *2915:GATE_N *2534:B1 0.000182628
16 *2915:GATE_N *897:12 3.69697e-05
17 *2915:GATE_N *917:70 0.000307349
18 *2924:GATE_N *912:72 0.000301255
19 *830:16 *2946:D 5.71472e-05
20 *830:16 *865:60 0.000252106
21 *830:16 *911:10 0.00014183
22 *830:16 *995:12 0.000170301
23 *830:20 *931:48 0.000119135
24 *830:26 *866:22 0.000114203
25 *830:26 *866:26 1.7845e-05
26 *830:30 *866:26 0.000102081
27 *830:30 *866:32 8.26195e-05
28 *830:42 *2643:A 5.52302e-05
29 *830:42 *859:30 0.000226215
30 *830:42 *912:72 0.000697427
31 *830:42 *917:70 0.000140142
32 *830:102 *2401:A 0
33 *830:102 *2922:D 7.92831e-05
34 *830:102 *3218:A 0.000223632
35 *830:102 *848:8 9.60939e-05
36 *830:102 *848:23 1.08359e-05
37 *830:102 *867:90 0.000203967
38 *830:102 *897:109 0.000535248
39 *830:102 *912:35 0
40 *830:102 *917:25 0.000476803
41 *830:102 *941:49 0.000125717
42 *2478:A1 *830:42 0.000358971
43 *2481:A1 *2915:GATE_N 8.52551e-05
44 *2518:B *830:26 4.38058e-05
45 *2518:D *830:26 2.06112e-05
46 *2807:D *830:42 1.98839e-05
47 *3136:A *830:102 0.000446597
48 *3157:A *830:102 6.71705e-05
49 *3196:A *830:26 6.53397e-05
50 *3225:A *830:26 2.11419e-05
51 *439:30 *830:26 0.000283723
52 *439:30 *830:30 0.00055416
53 *447:10 *830:16 5.33841e-05
54 *477:18 *830:26 9.54798e-06
55 *477:18 *830:102 0.0006617
56 *499:22 *2915:GATE_N 0
57 *565:20 *830:16 1.74903e-05
58 *565:20 *830:20 0.000101169
59 *597:22 *2915:GATE_N 0.000314749
60 *651:22 *830:16 9.02331e-05
61 *809:165 *2915:GATE_N 2.28499e-05
62 *809:165 *830:42 0.000490416
63 *825:10 *830:102 0.000315165
64 *825:12 *2910:GATE_N 0.000105965
65 *825:12 *2915:GATE_N 7.83659e-05
66 *826:10 *830:102 4.67173e-05
67 *826:12 *830:26 5.05657e-05
68 *826:12 *830:102 7.12302e-05
69 *826:16 *830:30 0
*RES
1 *3141:X *830:16 27.8 
2 *830:16 *830:20 7.08929 
3 *830:20 *830:26 8.07143 
4 *830:26 *830:30 16.4643 
5 *830:30 *830:42 31.3036 
6 *830:42 *2915:GATE_N 34.6929 
7 *830:42 *2910:GATE_N 16.1036 
8 *830:30 *2924:GATE_N 12.3 
9 *830:26 *2913:GATE_N 13.8 
10 *830:20 *830:102 44.2679 
11 *830:102 *2922:GATE_N 9.3 
12 *830:16 *2914:GATE_N 9.3 
*END

*D_NET *831 0.0311774
*CONN
*I *2901:GATE_N I *D sky130_fd_sc_hd__dlxtn_1
*I *2907:GATE_N I *D sky130_fd_sc_hd__dlxtn_1
*I *2905:GATE_N I *D sky130_fd_sc_hd__dlxtn_1
*I *2903:GATE_N I *D sky130_fd_sc_hd__dlxtn_1
*I *2900:GATE_N I *D sky130_fd_sc_hd__dlxtn_1
*I *2896:GATE_N I *D sky130_fd_sc_hd__dlxtn_1
*I *2895:GATE_N I *D sky130_fd_sc_hd__dlxtn_1
*I *2902:GATE_N I *D sky130_fd_sc_hd__dlxtn_1
*I *2904:GATE_N I *D sky130_fd_sc_hd__dlxtn_1
*I *2893:GATE_N I *D sky130_fd_sc_hd__dlxtn_1
*I *3142:X O *D sky130_fd_sc_hd__buf_2
*CAP
1 *2901:GATE_N 0.0017489
2 *2907:GATE_N 0.000396307
3 *2905:GATE_N 0
4 *2903:GATE_N 4.88124e-05
5 *2900:GATE_N 0
6 *2896:GATE_N 0.00143852
7 *2895:GATE_N 3.75977e-05
8 *2902:GATE_N 0.000957809
9 *2904:GATE_N 0
10 *2893:GATE_N 0
11 *3142:X 0.00039675
12 *831:162 0.00315219
13 *831:114 0.00238416
14 *831:67 0.0021465
15 *831:46 0.00163068
16 *831:40 0.00116205
17 *831:36 0.00177526
18 *831:34 0.000812032
19 *831:20 0.00102095
20 *831:12 0.00180861
21 *2895:GATE_N *2991:D 9.90367e-05
22 *2896:GATE_N *869:37 2.06178e-05
23 *2901:GATE_N *2559:A2 4.51611e-05
24 *2901:GATE_N *2915:D 0.000440718
25 *2901:GATE_N *3020:D 0.000521419
26 *2901:GATE_N *842:58 0.000182694
27 *2901:GATE_N *862:30 0.000293092
28 *2901:GATE_N *862:138 9.41642e-05
29 *2901:GATE_N *898:10 1.92905e-05
30 *2902:GATE_N *2591:A2 2.61337e-05
31 *2902:GATE_N *2904:D 7.77751e-05
32 *2902:GATE_N *3014:D 0.000237743
33 *2902:GATE_N *855:24 0.000142856
34 *2902:GATE_N *898:66 0.000251543
35 *2903:GATE_N *833:20 2.84026e-05
36 *2907:GATE_N *2875:GATE_N 1.99099e-05
37 *2907:GATE_N *833:119 3.38136e-05
38 *2907:GATE_N *926:27 0.000360102
39 *2907:GATE_N *932:29 0.000356081
40 *2907:GATE_N *932:31 9.24299e-05
41 *831:12 *862:40 0.000270679
42 *831:12 *904:44 0.000109065
43 *831:20 *833:91 2.96143e-05
44 *831:20 *849:47 0.00026816
45 *831:20 *904:44 0.000116664
46 *831:34 *833:20 0
47 *831:34 *833:91 3.42509e-05
48 *831:36 *833:20 0
49 *831:36 *833:30 2.11419e-05
50 *831:40 *2879:D 0.000154216
51 *831:40 *2879:GATE_N 8.07879e-05
52 *831:40 *2989:D 0
53 *831:40 *833:30 0.00074441
54 *831:40 *833:32 0.00033396
55 *831:40 *871:129 4.46186e-06
56 *831:46 *2989:D 0
57 *831:46 *871:129 8.68665e-05
58 *831:67 *2471:A2 0.000114279
59 *831:67 *2471:B1 5.33005e-05
60 *831:67 *2494:B1 0
61 *831:67 *2893:D 0.000185964
62 *831:67 *871:38 9.83621e-05
63 *831:67 *875:62 0.000224341
64 *831:67 *898:47 0
65 *831:67 *898:66 0.000123902
66 *831:114 *2582:B1 0.000213322
67 *831:114 *904:56 1.00133e-05
68 *831:162 *2602:A2 2.59355e-05
69 *831:162 *2602:B1 0.000105604
70 *2471:B2 *831:67 4.79137e-05
71 *2492:B2 *831:40 0
72 *2494:A1 *831:67 0
73 *2495:A1 *831:67 2.8266e-06
74 *2535:A1 *2901:GATE_N 0.000311196
75 *2548:A1 *2896:GATE_N 4.50149e-05
76 *2548:A1 *831:114 0.000129868
77 *2548:C1 *2896:GATE_N 4.70981e-05
78 *2548:C1 *831:114 0.000307344
79 *2552:B2 *2896:GATE_N 0.000235858
80 *2580:A1 *831:34 7.85137e-05
81 *2591:B2 *2902:GATE_N 7.6644e-05
82 *2592:A1 *2902:GATE_N 1.69675e-05
83 *2592:C1 *2902:GATE_N 0
84 *2602:A1 *831:162 5.33005e-05
85 *2605:B1 *2907:GATE_N 0.000148196
86 *2636:A1 *2901:GATE_N 0.00031119
87 *2942:GATE_N *2901:GATE_N 9.60875e-05
88 *2975:GATE_N *831:46 0
89 *2985:GATE_N *831:34 0.000101875
90 *2997:GATE_N *2907:GATE_N 0
91 *3001:GATE_N *831:34 9.57064e-05
92 *3013:GATE_N *831:162 0.000178847
93 *3014:GATE_N *2902:GATE_N 4.87854e-05
94 *3020:GATE_N *2901:GATE_N 4.05247e-05
95 *3020:GATE_N *2907:GATE_N 2.59355e-05
96 *3020:GATE_N *831:162 4.14039e-05
97 *3021:GATE_N *831:46 3.42542e-05
98 *3021:GATE_N *831:67 2.77413e-05
99 *3029:GATE_N *831:162 9.41642e-05
100 *3030:GATE_N *2902:GATE_N 4.04898e-05
101 *3031:GATE_N *831:114 8.68665e-05
102 *496:24 *2901:GATE_N 0.000269422
103 *814:30 *831:114 1.08359e-05
104 *814:48 *831:67 9.60939e-05
105 *816:14 *2907:GATE_N 6.05161e-06
106 *816:14 *831:162 0.000178847
107 *818:12 *831:40 0
108 *818:20 *831:40 0
109 *818:74 *2907:GATE_N 0
110 *826:47 *2901:GATE_N 0.000222185
*RES
1 *3142:X *831:12 19.6482 
2 *831:12 *831:20 12.0625 
3 *831:20 *831:34 16.9107 
4 *831:34 *831:36 2.40179 
5 *831:36 *831:40 17.9196 
6 *831:40 *831:46 12.5536 
7 *831:46 *2893:GATE_N 9.3 
8 *831:46 *831:67 30.1964 
9 *831:67 *2904:GATE_N 9.3 
10 *831:67 *2902:GATE_N 42.0857 
11 *831:40 *2895:GATE_N 14.7464 
12 *831:36 *831:114 14.9034 
13 *831:114 *2896:GATE_N 24.6951 
14 *831:114 *2900:GATE_N 13.8 
15 *831:34 *2903:GATE_N 14.7643 
16 *831:20 *2905:GATE_N 9.3 
17 *831:12 *831:162 17.5446 
18 *831:162 *2907:GATE_N 29.1036 
19 *831:162 *2901:GATE_N 43.9429 
*END

*D_NET *832 0.0207206
*CONN
*I *2897:GATE_N I *D sky130_fd_sc_hd__dlxtn_1
*I *2894:GATE_N I *D sky130_fd_sc_hd__dlxtn_1
*I *2908:GATE_N I *D sky130_fd_sc_hd__dlxtn_1
*I *2906:GATE_N I *D sky130_fd_sc_hd__dlxtn_1
*I *2898:GATE_N I *D sky130_fd_sc_hd__dlxtn_1
*I *2899:GATE_N I *D sky130_fd_sc_hd__dlxtn_1
*I *3143:X O *D sky130_fd_sc_hd__clkbuf_2
*CAP
1 *2897:GATE_N 0.000593681
2 *2894:GATE_N 0
3 *2908:GATE_N 0.000362984
4 *2906:GATE_N 0
5 *2898:GATE_N 3.36349e-05
6 *2899:GATE_N 0.000637852
7 *3143:X 0.00022354
8 *832:79 0.000914008
9 *832:73 0.00138405
10 *832:64 0.000402014
11 *832:60 0.00238443
12 *832:10 0.000719852
13 *832:6 0.00249367
14 *2897:GATE_N *3054:D 9.25014e-06
15 *2897:GATE_N *847:52 9.41642e-05
16 *2897:GATE_N *847:54 0.000210223
17 *2897:GATE_N *864:51 0.00090204
18 *2897:GATE_N *893:37 0.000475094
19 *2897:GATE_N *910:18 9.46737e-05
20 *2899:GATE_N *2995:D 0.000208506
21 *2899:GATE_N *3010:D 0.000168939
22 *2899:GATE_N *834:16 0
23 *2899:GATE_N *862:55 5.49544e-05
24 *2899:GATE_N *862:66 0.000193654
25 *2899:GATE_N *862:105 0.000144015
26 *2908:GATE_N *2636:A2 1.96517e-05
27 *2908:GATE_N *2636:B1 0.000439692
28 *2908:GATE_N *2894:D 5.52238e-05
29 *2908:GATE_N *3036:D 0.00010096
30 *2908:GATE_N *842:72 9.25014e-06
31 *2908:GATE_N *842:98 0.000188053
32 *2908:GATE_N *904:113 6.17134e-05
33 *832:6 *2866:D 3.69047e-06
34 *832:10 *3010:D 9.25014e-06
35 *832:10 *864:96 0.000139653
36 *832:60 *2866:D 1.58163e-05
37 *832:60 *3098:D 1.40306e-05
38 *832:60 *834:16 4.6361e-05
39 *832:60 *840:12 8.25843e-06
40 *832:60 *848:77 3.19123e-05
41 *832:60 *864:81 0.000208866
42 *832:60 *907:38 5.78173e-05
43 *832:60 *933:14 0.000397381
44 *832:60 *933:22 0.00012358
45 *832:64 *3082:D 0
46 *832:64 *893:16 0
47 *832:64 *933:22 0.00014455
48 *832:64 *933:28 9.25014e-06
49 *832:73 *2410:B 0
50 *832:73 *2906:D 0.000186662
51 *832:73 *847:54 0.000137983
52 *832:79 *2638:A2 1.00375e-05
53 *832:79 *2862:GATE_N 2.49942e-05
54 *832:79 *2874:GATE_N 0.00042709
55 *832:79 *2894:D 0.000173384
56 *832:79 *873:27 0.000131472
57 *832:79 *873:33 8.14438e-05
58 *832:79 *873:42 0.000210097
59 *832:79 *893:16 0.000286516
60 *832:79 *921:26 2.17627e-05
61 *2485:C *2897:GATE_N 3.72551e-05
62 *2485:C *832:73 3.80277e-05
63 *2517:B1 *832:60 0.00014183
64 *2525:A1 *2898:GATE_N 9.58126e-05
65 *2526:A1 *832:60 9.33978e-07
66 *2526:C1 *2898:GATE_N 3.04311e-05
67 *2526:C1 *832:60 0.000131874
68 *2528:A1 *832:60 1.08359e-05
69 *2615:A1 *2897:GATE_N 0.000305285
70 *2616:A1 *2897:GATE_N 1.33343e-05
71 *2636:A1 *2908:GATE_N 1.39726e-05
72 *2636:B2 *2908:GATE_N 3.98662e-05
73 *2970:GATE_N *2897:GATE_N 2.70758e-05
74 *2978:GATE_N *832:60 0.000108437
75 *3082:GATE_N *832:79 0
76 *3133:A *832:60 2.61099e-05
77 *3142:A *2899:GATE_N 0.000766441
78 *3143:A *2899:GATE_N 0.000397805
79 *3143:A *832:6 6.24547e-05
80 *3143:A *832:10 0.000139653
81 *3150:A *832:64 0
82 *3215:A *832:79 6.90424e-05
83 *3219:A *832:64 0
84 *3320:A *832:60 2.89016e-05
85 *490:8 *832:79 1.37429e-05
86 *499:22 *2897:GATE_N 1.09026e-05
87 *575:20 *2908:GATE_N 3.67142e-05
88 *597:22 *2908:GATE_N 0.000919731
89 *821:57 *832:60 0.00069307
90 *823:28 *2897:GATE_N 3.32631e-05
91 *823:38 *2897:GATE_N 4.61259e-05
*RES
1 *3143:X *832:6 11.8893 
2 *832:6 *832:10 6.44643 
3 *832:10 *2899:GATE_N 31.4071 
4 *832:10 *2898:GATE_N 14.7464 
5 *832:6 *832:60 48.1071 
6 *832:60 *832:64 7.35714 
7 *832:64 *2906:GATE_N 9.3 
8 *832:64 *832:73 4.66071 
9 *832:73 *832:79 24.3036 
10 *832:79 *2908:GATE_N 31.2107 
11 *832:79 *2894:GATE_N 9.3 
12 *832:73 *2897:GATE_N 35.4964 
*END

*D_NET *833 0.0308089
*CONN
*I *2885:GATE_N I *D sky130_fd_sc_hd__dlxtn_1
*I *2891:GATE_N I *D sky130_fd_sc_hd__dlxtn_1
*I *2880:GATE_N I *D sky130_fd_sc_hd__dlxtn_1
*I *2888:GATE_N I *D sky130_fd_sc_hd__dlxtn_1
*I *2886:GATE_N I *D sky130_fd_sc_hd__dlxtn_1
*I *2889:GATE_N I *D sky130_fd_sc_hd__dlxtn_1
*I *2887:GATE_N I *D sky130_fd_sc_hd__dlxtn_1
*I *2884:GATE_N I *D sky130_fd_sc_hd__dlxtn_1
*I *2877:GATE_N I *D sky130_fd_sc_hd__dlxtn_1
*I *2879:GATE_N I *D sky130_fd_sc_hd__dlxtn_1
*I *3144:X O *D sky130_fd_sc_hd__buf_2
*CAP
1 *2885:GATE_N 0
2 *2891:GATE_N 2.48946e-05
3 *2880:GATE_N 0
4 *2888:GATE_N 0.000453317
5 *2886:GATE_N 0.00078322
6 *2889:GATE_N 0
7 *2887:GATE_N 0
8 *2884:GATE_N 7.00239e-05
9 *2877:GATE_N 0.00035687
10 *2879:GATE_N 7.88205e-05
11 *3144:X 4.00453e-05
12 *833:177 0.00189773
13 *833:134 0.000453317
14 *833:119 0.00175717
15 *833:101 0.00143462
16 *833:91 0.00469268
17 *833:72 0.00246021
18 *833:32 0.000608681
19 *833:30 0.000707992
20 *833:20 0.0013509
21 *833:6 0.00102699
22 *2877:GATE_N *875:110 0.00032591
23 *2879:GATE_N *2879:D 8.7707e-05
24 *2879:GATE_N *875:110 1.98839e-05
25 *2886:GATE_N *851:28 0.00039051
26 *2886:GATE_N *932:41 1.02504e-05
27 *2886:GATE_N *932:43 0.000335208
28 *2886:GATE_N *932:49 0.000196262
29 *2888:GATE_N *860:39 0.000232702
30 *2888:GATE_N *900:47 0.000204802
31 *2888:GATE_N *900:51 0.000160979
32 *2891:GATE_N *2891:D 4.85245e-06
33 *833:20 *2903:D 5.20669e-05
34 *833:20 *836:26 0.000304631
35 *833:20 *836:43 1.89601e-05
36 *833:30 *2884:D 7.54473e-05
37 *833:30 *3031:D 0.000140088
38 *833:32 *2884:D 4.13122e-06
39 *833:91 *849:43 0.0017168
40 *833:91 *849:45 6.25963e-05
41 *833:91 *849:47 0.000283215
42 *833:91 *898:127 0
43 *833:91 *904:113 0.000254413
44 *833:101 *2625:A2 4.43256e-05
45 *833:101 *889:28 3.32442e-05
46 *833:101 *898:127 0
47 *833:101 *904:113 9.25014e-06
48 *833:119 *2875:GATE_N 0.000576617
49 *833:119 *898:16 2.28598e-05
50 *833:119 *898:22 5.33005e-05
51 *833:119 *900:43 0
52 *833:119 *900:45 0
53 *833:119 *900:116 6.91215e-06
54 *833:119 *932:41 0.000297022
55 *833:177 *2600:A2 1.02821e-05
56 *833:177 *2624:A2 0.000142856
57 *833:177 *3045:D 0.000123295
58 *833:177 *858:58 1.02504e-05
59 *833:177 *896:6 9.60939e-05
60 *833:177 *896:10 0.000140933
61 *833:177 *896:16 1.98839e-05
62 *833:177 *896:138 0.000356028
63 *833:177 *920:17 9.05445e-05
64 *833:177 *920:177 0.00017636
65 *2472:A1 *2879:GATE_N 2.78576e-05
66 *2552:B2 *833:119 7.44645e-06
67 *2580:B2 *833:20 9.97164e-05
68 *2606:A *833:101 6.26995e-05
69 *2606:A *833:119 7.90523e-05
70 *2606:B *833:119 3.61629e-06
71 *2606:C *833:119 2.89016e-05
72 *2625:C1 *833:101 0.00020342
73 *2626:A1 *833:101 7.6644e-05
74 *2637:B2 *833:91 3.92757e-05
75 *2903:GATE_N *833:20 2.84026e-05
76 *2907:GATE_N *833:119 3.38136e-05
77 *2985:GATE_N *833:20 0.000294191
78 *3001:GATE_N *833:91 0.000153047
79 *3008:GATE_N *2888:GATE_N 0.000304394
80 *3031:GATE_N *833:30 7.35668e-05
81 *3219:A *833:91 0
82 *3219:A *833:177 0.000125057
83 *515:18 *2888:GATE_N 5.6468e-05
84 *816:39 *2888:GATE_N 1.19402e-05
85 *816:41 *2888:GATE_N 0.00011166
86 *816:45 *2888:GATE_N 9.04813e-05
87 *817:49 *833:72 0
88 *817:49 *833:91 8.14787e-05
89 *818:12 *833:20 0
90 *818:74 *833:119 0.000885272
91 *818:100 *2886:GATE_N 0.000522219
92 *818:100 *833:119 0.000353935
93 *829:32 *833:177 0.00052122
94 *831:20 *833:91 2.96143e-05
95 *831:34 *833:20 0
96 *831:34 *833:91 3.42509e-05
97 *831:36 *833:20 0
98 *831:36 *833:30 2.11419e-05
99 *831:40 *2879:GATE_N 8.07879e-05
100 *831:40 *833:30 0.00074441
101 *831:40 *833:32 0.00033396
*RES
1 *3144:X *833:6 9.83571 
2 *833:6 *833:20 36.3393 
3 *833:20 *833:30 16.4643 
4 *833:30 *833:32 4.375 
5 *833:32 *2879:GATE_N 15.7821 
6 *833:32 *2877:GATE_N 18.7643 
7 *833:30 *2884:GATE_N 14.7464 
8 *833:20 *2887:GATE_N 9.3 
9 *833:6 *833:72 1.67857 
10 *833:72 *2889:GATE_N 9.3 
11 *833:72 *833:91 47.9107 
12 *833:91 *833:101 12.5536 
13 *833:101 *833:119 28.3571 
14 *833:119 *2886:GATE_N 28.8536 
15 *833:119 *833:134 4.5 
16 *833:134 *2888:GATE_N 31.2643 
17 *833:134 *2880:GATE_N 9.3 
18 *833:101 *2891:GATE_N 10.0321 
19 *833:91 *833:177 44.4821 
20 *833:177 *2885:GATE_N 9.3 
*END

*D_NET *834 0.022474
*CONN
*I *2882:GATE_N I *D sky130_fd_sc_hd__dlxtn_1
*I *2878:GATE_N I *D sky130_fd_sc_hd__dlxtn_1
*I *2890:GATE_N I *D sky130_fd_sc_hd__dlxtn_1
*I *2881:GATE_N I *D sky130_fd_sc_hd__dlxtn_1
*I *2892:GATE_N I *D sky130_fd_sc_hd__dlxtn_1
*I *2883:GATE_N I *D sky130_fd_sc_hd__dlxtn_1
*I *3145:X O *D sky130_fd_sc_hd__clkbuf_2
*CAP
1 *2882:GATE_N 0
2 *2878:GATE_N 4.48944e-05
3 *2890:GATE_N 0
4 *2881:GATE_N 0.000266397
5 *2892:GATE_N 0.000425864
6 *2883:GATE_N 0.000487226
7 *3145:X 2.84371e-05
8 *834:76 0.00104721
9 *834:68 0.00223958
10 *834:50 0.00161242
11 *834:31 0.00208203
12 *834:16 0.0031086
13 *834:6 0.0011024
14 *2878:GATE_N *2635:B1 5.33005e-05
15 *2878:GATE_N *921:41 6.42095e-05
16 *2878:GATE_N *923:72 4.27437e-05
17 *2881:GATE_N *2881:D 5.7836e-06
18 *2881:GATE_N *2890:D 3.31249e-06
19 *2881:GATE_N *878:25 0.000530292
20 *2881:GATE_N *878:44 0.000133734
21 *2881:GATE_N *887:22 0.000250479
22 *2883:GATE_N *2883:D 5.46828e-05
23 *2892:GATE_N *2483:C1 6.19181e-05
24 *2892:GATE_N *2637:A2 0.000598434
25 *2892:GATE_N *3020:D 9.90431e-05
26 *2892:GATE_N *859:30 4.58764e-05
27 *2892:GATE_N *862:30 5.62995e-05
28 *2892:GATE_N *889:28 2.15363e-05
29 *2892:GATE_N *908:12 0.000315708
30 *2892:GATE_N *934:20 7.26751e-05
31 *834:16 *2525:A2 0.000112532
32 *834:16 *2527:A2 0
33 *834:16 *2882:D 0.000183022
34 *834:31 *2483:C1 1.08359e-05
35 *834:31 *2602:A2 9.71197e-05
36 *834:31 *903:14 5.41794e-05
37 *834:31 *908:12 6.81083e-05
38 *834:31 *923:72 0.00186358
39 *834:50 *2635:B1 0.000380608
40 *834:50 *903:16 5.52302e-05
41 *834:50 *921:41 0.000230626
42 *834:68 *2483:A2 3.46549e-05
43 *834:68 *2635:B1 3.17148e-05
44 *834:68 *2636:B1 0.000165094
45 *834:68 *3038:D 9.71197e-05
46 *834:68 *873:23 0.000307343
47 *834:68 *904:8 4.46231e-06
48 *834:68 *904:14 7.2754e-05
49 *834:68 *944:20 7.29667e-05
50 *834:68 *944:26 0.000197991
51 *834:76 *2419:C 1.58163e-05
52 *834:76 *2435:C 9.90367e-05
53 *834:76 *2437:B 3.72659e-05
54 *834:76 *3050:D 6.87574e-05
55 *834:76 *847:27 6.65194e-05
56 *834:76 *937:67 9.90431e-05
57 *834:76 *941:66 2.13481e-06
58 *2526:B2 *834:16 5.48009e-05
59 *2526:C1 *834:16 2.45864e-05
60 *2527:B2 *834:16 1.28171e-05
61 *2537:A1 *2883:GATE_N 3.08664e-05
62 *2537:A1 *834:31 5.94646e-05
63 *2537:B2 *834:16 3.42301e-05
64 *2611:B2 *834:76 0.00026353
65 *2615:B2 *834:68 0.000501646
66 *2617:A *2881:GATE_N 2.21972e-05
67 *2635:B2 *2892:GATE_N 0.000493822
68 *2899:GATE_N *834:16 0
69 *3050:GATE_N *834:76 2.14757e-05
70 *3202:A *834:76 0.000185814
71 *3207:A *834:68 8.25512e-05
72 *383:12 *834:68 9.21316e-05
73 *485:10 *2881:GATE_N 9.59532e-06
74 *490:8 *834:68 0.000983522
75 *497:20 *834:76 0.000137983
76 *499:8 *834:68 6.7257e-05
77 *808:66 *834:68 1.58029e-05
78 *812:59 *2881:GATE_N 4.99344e-05
79 *823:38 *834:68 0
80 *832:60 *834:16 4.6361e-05
*RES
1 *3145:X *834:6 9.83571 
2 *834:6 *834:16 27.9643 
3 *834:16 *2883:GATE_N 15.0857 
4 *834:16 *834:31 25.7857 
5 *834:31 *2892:GATE_N 27.675 
6 *834:31 *834:50 8.73214 
7 *834:50 *834:68 46.3929 
8 *834:68 *834:76 12.1964 
9 *834:76 *2881:GATE_N 26.7295 
10 *834:76 *2890:GATE_N 9.3 
11 *834:50 *2878:GATE_N 10.6571 
12 *834:6 *2882:GATE_N 9.3 
*END

*D_NET *835 0.00124661
*CONN
*I *2665:A1 I *D sky130_fd_sc_hd__mux2_1
*I *3258:X O *D sky130_fd_sc_hd__clkbuf_1
*CAP
1 *2665:A1 0.000407017
2 *3258:X 0.000407017
3 *2665:A1 *2665:A0 0.000282127
4 *2665:A1 *1038:12 6.78942e-05
5 *3260:A *2665:A1 0
6 *3292:A *2665:A1 8.25512e-05
7 *790:12 *2665:A1 0
8 *791:16 *2665:A1 0
*RES
1 *3258:X *2665:A1 34.7607 
*END

*D_NET *836 0.0281498
*CONN
*I *2869:GATE_N I *D sky130_fd_sc_hd__dlxtn_1
*I *2867:GATE_N I *D sky130_fd_sc_hd__dlxtn_1
*I *2875:GATE_N I *D sky130_fd_sc_hd__dlxtn_1
*I *2864:GATE_N I *D sky130_fd_sc_hd__dlxtn_1
*I *2870:GATE_N I *D sky130_fd_sc_hd__dlxtn_1
*I *2872:GATE_N I *D sky130_fd_sc_hd__dlxtn_1
*I *2863:GATE_N I *D sky130_fd_sc_hd__dlxtn_1
*I *2861:GATE_N I *D sky130_fd_sc_hd__dlxtn_1
*I *2868:GATE_N I *D sky130_fd_sc_hd__dlxtn_1
*I *2871:GATE_N I *D sky130_fd_sc_hd__dlxtn_1
*I *3146:X O *D sky130_fd_sc_hd__buf_2
*CAP
1 *2869:GATE_N 0.000509264
2 *2867:GATE_N 0.000118726
3 *2875:GATE_N 0.000734042
4 *2864:GATE_N 0
5 *2870:GATE_N 0.000513004
6 *2872:GATE_N 0
7 *2863:GATE_N 8.80354e-06
8 *2861:GATE_N 0.000410743
9 *2868:GATE_N 0.000163939
10 *2871:GATE_N 3.88172e-05
11 *3146:X 9.4331e-05
12 *836:88 0.00130876
13 *836:76 0.0010675
14 *836:72 0.00116474
15 *836:68 0.000722048
16 *836:60 0.00163008
17 *836:43 0.00138624
18 *836:26 0.00150159
19 *836:20 0.0020831
20 *836:12 0.00168004
21 *2861:GATE_N *3021:D 3.42426e-05
22 *2861:GATE_N *875:77 9.68667e-05
23 *2861:GATE_N *875:79 1.83136e-05
24 *2868:GATE_N *904:56 0
25 *2868:GATE_N *904:64 0.000147474
26 *2869:GATE_N *2536:B1 0.00018101
27 *2869:GATE_N *2538:B1 0.00104717
28 *2869:GATE_N *2557:A2 0.000100445
29 *2869:GATE_N *906:112 5.13009e-05
30 *2869:GATE_N *926:6 9.60875e-05
31 *2870:GATE_N *2572:A2 0.000161868
32 *2870:GATE_N *2870:D 9.60939e-05
33 *2870:GATE_N *2888:D 3.32631e-05
34 *2875:GATE_N *2626:A2 0.000255966
35 *2875:GATE_N *2907:D 0.000485543
36 *2875:GATE_N *844:8 4.62969e-05
37 *2875:GATE_N *844:36 0.000230475
38 *2875:GATE_N *844:38 5.52302e-05
39 *2875:GATE_N *900:43 0.000112027
40 *2875:GATE_N *932:31 0
41 *836:12 *904:44 1.39841e-05
42 *836:20 *2536:B1 0.000154732
43 *836:20 *2538:B1 0.000381994
44 *836:20 *3369:A 0.000165545
45 *836:26 *2999:D 0.000144565
46 *836:43 *2999:D 4.89999e-05
47 *836:43 *853:76 0.000176913
48 *836:43 *904:56 0
49 *836:60 *2547:A2 0.000349432
50 *836:60 *2626:A2 0.000649017
51 *836:60 *904:56 1.10868e-05
52 *836:60 *904:64 5.74499e-06
53 *836:60 *922:38 9.71197e-05
54 *836:68 *2976:D 9.3111e-05
55 *836:68 *926:88 9.0145e-05
56 *836:68 *932:37 0.000105037
57 *836:72 *3016:D 0.00011061
58 *836:72 *851:34 7.70698e-05
59 *836:72 *851:36 3.7671e-05
60 *836:72 *900:45 0.000192269
61 *836:72 *900:47 0.000449974
62 *836:72 *900:51 0.000372911
63 *836:72 *932:41 5.67902e-05
64 *836:72 *932:43 5.93879e-05
65 *836:72 *932:49 1.59782e-05
66 *836:76 *851:36 0.000124289
67 *836:76 *851:38 9.65075e-05
68 *836:76 *871:57 7.02772e-05
69 *836:76 *900:51 0.00050365
70 *836:88 *3032:D 0.000310355
71 *836:88 *898:47 0
72 *836:88 *900:51 2.11784e-05
73 *2471:A1 *2861:GATE_N 1.32056e-05
74 *2471:A1 *2863:GATE_N 1.59373e-05
75 *2471:A1 *836:88 2.91207e-06
76 *2496:A *2870:GATE_N 0.0004652
77 *2547:A1 *2868:GATE_N 3.63298e-05
78 *2547:A1 *836:60 5.20751e-05
79 *2547:B2 *2868:GATE_N 0.000119547
80 *2547:B2 *836:60 6.05161e-06
81 *2550:B1 *836:72 7.17932e-05
82 *2551:C *836:68 0.000197984
83 *2557:A1 *2869:GATE_N 0.000151616
84 *2559:B1 *2869:GATE_N 1.74852e-05
85 *2559:C1 *2869:GATE_N 2.76171e-05
86 *2580:B2 *836:43 8.58981e-05
87 *2624:A1 *2875:GATE_N 0.000484524
88 *2625:B2 *2875:GATE_N 5.71472e-05
89 *2907:GATE_N *2875:GATE_N 1.99099e-05
90 *2985:GATE_N *836:26 0
91 *3019:GATE_N *2875:GATE_N 8.25843e-06
92 *3030:GATE_N *836:88 8.86413e-05
93 *3132:A *836:12 4.19624e-06
94 *3144:A *2867:GATE_N 0
95 *3144:A *836:26 0
96 *3146:A *836:12 4.8005e-05
97 *446:20 *2869:GATE_N 0.000262388
98 *540:18 *2870:GATE_N 0.000103646
99 *620:18 *2875:GATE_N 2.11419e-05
100 *814:56 *836:88 0.000655532
101 *814:65 *836:88 1.79397e-05
102 *816:39 *836:68 0.000210609
103 *816:45 *836:88 2.06827e-05
104 *818:10 *2867:GATE_N 7.35957e-05
105 *818:10 *836:26 0.000513697
106 *818:12 *836:26 2.42082e-05
107 *833:20 *836:26 0.000304631
108 *833:20 *836:43 1.89601e-05
109 *833:119 *2875:GATE_N 0.000576617
*RES
1 *3146:X *836:12 18.4332 
2 *836:12 *836:20 5.92607 
3 *836:20 *836:26 25.9018 
4 *836:26 *2871:GATE_N 10.0321 
5 *836:26 *836:43 13.9464 
6 *836:43 *2868:GATE_N 17.6214 
7 *836:43 *836:60 16.5357 
8 *836:60 *836:68 16.0536 
9 *836:68 *836:72 17.6786 
10 *836:72 *836:76 11 
11 *836:76 *836:88 22.9286 
12 *836:88 *2861:GATE_N 15.9607 
13 *836:88 *2863:GATE_N 9.83571 
14 *836:76 *2872:GATE_N 9.3 
15 *836:72 *2870:GATE_N 25.05 
16 *836:68 *2864:GATE_N 9.3 
17 *836:60 *2875:GATE_N 37.8893 
18 *836:20 *2867:GATE_N 16.5054 
19 *836:12 *2869:GATE_N 22.3877 
*END

*D_NET *837 0.0198337
*CONN
*I *2865:GATE_N I *D sky130_fd_sc_hd__dlxtn_1
*I *2874:GATE_N I *D sky130_fd_sc_hd__dlxtn_1
*I *2862:GATE_N I *D sky130_fd_sc_hd__dlxtn_1
*I *2876:GATE_N I *D sky130_fd_sc_hd__dlxtn_1
*I *2873:GATE_N I *D sky130_fd_sc_hd__dlxtn_1
*I *2866:GATE_N I *D sky130_fd_sc_hd__dlxtn_1
*I *3147:X O *D sky130_fd_sc_hd__clkbuf_2
*CAP
1 *2865:GATE_N 3.00544e-05
2 *2874:GATE_N 0.000357947
3 *2862:GATE_N 6.63479e-05
4 *2876:GATE_N 5.17878e-05
5 *2873:GATE_N 0.000938637
6 *2866:GATE_N 0.000750616
7 *3147:X 0
8 *837:85 0.00155782
9 *837:41 0.0011478
10 *837:39 0.00295697
11 *837:27 0.00190885
12 *837:4 0.000963342
13 *2862:GATE_N *2862:D 9.60875e-05
14 *2865:GATE_N *867:12 5.83304e-05
15 *2866:GATE_N *2527:A2 3.30237e-05
16 *2866:GATE_N *2994:D 0.000108089
17 *2866:GATE_N *864:107 7.68634e-05
18 *2873:GATE_N *2603:A2 2.8266e-06
19 *2873:GATE_N *2637:A2 0.000152993
20 *2873:GATE_N *2637:B1 0.000359775
21 *2873:GATE_N *849:43 0.000513373
22 *2873:GATE_N *849:45 0.000137983
23 *2873:GATE_N *889:28 0
24 *2873:GATE_N *898:127 0.000551225
25 *2873:GATE_N *899:12 3.42554e-05
26 *2873:GATE_N *908:12 0.000243627
27 *2873:GATE_N *922:32 0
28 *2876:GATE_N *842:100 0.000135028
29 *837:27 *922:14 1.39726e-05
30 *837:27 *922:22 7.17235e-05
31 *837:39 *2516:A2 4.34948e-06
32 *837:39 *3025:D 1.15281e-05
33 *837:39 *867:12 7.6644e-05
34 *837:39 *899:8 0.000311336
35 *837:39 *899:10 0.000912939
36 *837:39 *899:12 0.000195064
37 *837:39 *903:8 0.000181796
38 *837:39 *905:16 7.07155e-06
39 *837:39 *908:12 0.000385781
40 *837:39 *927:54 1.15281e-05
41 *837:39 *927:60 0.000125007
42 *837:39 *933:101 0.000220335
43 *837:41 *2988:D 0.000145406
44 *837:41 *899:12 8.80119e-05
45 *837:41 *908:12 0.000345938
46 *837:85 *2539:C1 4.38136e-05
47 *837:85 *2635:A2 0.000304387
48 *837:85 *2635:B1 1.58163e-05
49 *837:85 *2862:D 4.35452e-05
50 *837:85 *2926:D 6.28356e-05
51 *837:85 *889:28 9.97552e-05
52 *837:85 *904:14 2.86974e-05
53 *837:85 *933:30 2.65133e-05
54 *2477:A1 *837:39 0.00033763
55 *2480:B2 *2862:GATE_N 2.59355e-05
56 *2516:B2 *837:39 8.43535e-06
57 *2527:A1 *2866:GATE_N 9.93602e-05
58 *2528:B1 *2866:GATE_N 0.000139907
59 *2528:B1 *837:27 0.000139907
60 *2528:B1 *837:39 0
61 *2604:B2 *2873:GATE_N 0.000219711
62 *2614:B1 *837:39 7.83587e-05
63 *2635:A1 *837:85 5.94896e-06
64 *2635:B2 *837:85 8.71847e-05
65 *2636:C1 *837:85 1.36589e-05
66 *2974:GATE_N *837:39 2.06178e-05
67 *3026:GATE_N *837:39 3.4879e-05
68 *3143:A *2866:GATE_N 3.27461e-05
69 *3144:A *2866:GATE_N 0
70 *3215:A *2862:GATE_N 5.26224e-05
71 *3215:A *2874:GATE_N 7.40571e-05
72 *437:16 *2866:GATE_N 0
73 *490:8 *2874:GATE_N 0.000790219
74 *597:22 *2876:GATE_N 6.57032e-05
75 *814:16 *2873:GATE_N 0.000150618
76 *815:69 *837:39 3.67142e-05
77 *832:79 *2862:GATE_N 2.49942e-05
78 *832:79 *2874:GATE_N 0.00042709
*RES
1 *3147:X *837:4 9.3 
2 *837:4 *2866:GATE_N 30.1571 
3 *837:4 *837:27 7.5 
4 *837:27 *837:39 41.7679 
5 *837:39 *837:41 4.67857 
6 *837:41 *2873:GATE_N 47.2107 
7 *837:41 *2876:GATE_N 15.1571 
8 *837:39 *837:85 33.5536 
9 *837:85 *2862:GATE_N 15.4786 
10 *837:85 *2874:GATE_N 25.1571 
11 *837:27 *2865:GATE_N 14.5321 
*END

*D_NET *838 0.0194385
*CONN
*I *2859:GATE_N I *D sky130_fd_sc_hd__dlxtn_1
*I *2853:GATE_N I *D sky130_fd_sc_hd__dlxtn_1
*I *2857:GATE_N I *D sky130_fd_sc_hd__dlxtn_1
*I *2855:GATE_N I *D sky130_fd_sc_hd__dlxtn_1
*I *2852:GATE_N I *D sky130_fd_sc_hd__dlxtn_1
*I *2847:GATE_N I *D sky130_fd_sc_hd__dlxtn_1
*I *2854:GATE_N I *D sky130_fd_sc_hd__dlxtn_1
*I *2856:GATE_N I *D sky130_fd_sc_hd__dlxtn_1
*I *2845:GATE_N I *D sky130_fd_sc_hd__dlxtn_1
*I *2848:GATE_N I *D sky130_fd_sc_hd__dlxtn_1
*I *3148:X O *D sky130_fd_sc_hd__buf_2
*CAP
1 *2859:GATE_N 0
2 *2853:GATE_N 0.00042089
3 *2857:GATE_N 8.50613e-05
4 *2855:GATE_N 1.99167e-05
5 *2852:GATE_N 8.61506e-05
6 *2847:GATE_N 4.42096e-05
7 *2854:GATE_N 0
8 *2856:GATE_N 0.000175196
9 *2845:GATE_N 0.000241477
10 *2848:GATE_N 0.000388157
11 *3148:X 0.000135841
12 *838:123 0.000820556
13 *838:61 0.000727142
14 *838:51 0.00109484
15 *838:39 0.00134496
16 *838:37 0.000882669
17 *838:35 0.000442419
18 *838:31 0.00166335
19 *838:14 0.0019174
20 *838:10 0.000458704
21 *2845:GATE_N *2667:A0 1.76039e-05
22 *2845:GATE_N *2845:D 0
23 *2847:GATE_N *930:60 0.000126639
24 *2848:GATE_N *853:133 0.000354098
25 *2848:GATE_N *889:94 0.000333159
26 *2853:GATE_N *2561:B1 0.000236778
27 *2853:GATE_N *858:22 0.000350136
28 *2853:GATE_N *930:14 0.000203065
29 *2855:GATE_N *2673:S 5.33433e-05
30 *2855:GATE_N *2855:D 9.90431e-05
31 *2856:GATE_N *875:30 0
32 *2856:GATE_N *999:18 6.60765e-05
33 *2857:GATE_N *2607:A2 0.000158902
34 *2857:GATE_N *2857:D 0.000307343
35 *838:10 *2554:B1 7.83174e-05
36 *838:10 *2620:B1 0
37 *838:14 *2554:B1 0.000206888
38 *838:14 *2620:A2 0
39 *838:14 *2621:A2 0
40 *838:14 *2859:D 0.000143887
41 *838:31 *853:133 0.000425537
42 *838:31 *854:59 0.00023155
43 *838:35 *2673:S 9.15186e-06
44 *838:35 *892:118 0
45 *838:37 *892:118 0.000119123
46 *838:37 *909:90 0
47 *838:39 *909:90 0
48 *838:39 *930:54 0
49 *838:51 *2489:B1 0.000360458
50 *838:51 *2651:A 2.28499e-05
51 *838:51 *2808:GATE_N 2.51389e-05
52 *838:51 *886:84 2.06112e-05
53 *838:51 *886:90 0.000274294
54 *838:61 *2467:A2 1.57155e-05
55 *838:61 *2467:B1 0
56 *838:61 *2489:B1 0.000107276
57 *838:61 *2856:D 0
58 *838:61 *894:73 0.000174537
59 *838:123 *2561:B1 8.53785e-05
60 *838:123 *930:14 3.17163e-05
61 *2467:B2 *838:61 1.28809e-05
62 *2467:C1 *838:61 0.00014183
63 *2475:B2 *2856:GATE_N 6.67439e-05
64 *2488:B2 *838:39 5.26091e-05
65 *2544:B2 *838:37 0.000146869
66 *2544:C1 *838:37 0.000145154
67 *2577:C1 *838:123 3.87217e-05
68 *2588:A1 *2845:GATE_N 2.11372e-05
69 *2588:A1 *838:61 5.43993e-05
70 *2598:B2 *2853:GATE_N 0.000319323
71 *2621:B2 *838:14 0.000121573
72 *2621:C1 *838:14 1.74766e-05
73 *2641:B *838:31 2.40379e-05
74 *2644:B *838:51 0
75 *2657:B *838:35 7.6021e-05
76 *2657:B *838:37 0.00018665
77 *2657:B *838:39 0.000488709
78 *2657:B *838:51 9.34052e-05
79 *2657:B *838:123 4.7312e-05
80 *2808:D *838:51 3.69047e-06
81 *2821:D *838:51 0.00014285
82 *2937:GATE_N *2853:GATE_N 0.000386717
83 *3183:A *2845:GATE_N 0.000364062
84 *3183:A *838:61 3.59911e-05
85 *521:26 *2847:GATE_N 0.000126639
86 *521:26 *838:39 0
87 *521:26 *838:51 0
88 *630:20 *838:61 2.14757e-05
89 *671:8 *838:123 9.14638e-05
90 *809:119 *2848:GATE_N 0.000111678
91 *811:18 *838:14 0.000391423
92 *822:14 *2853:GATE_N 0.000120123
*RES
1 *3148:X *838:10 16.2821 
2 *838:10 *838:14 12.5179 
3 *838:14 *2848:GATE_N 26.0857 
4 *838:14 *838:31 19.8214 
5 *838:31 *838:35 2.48214 
6 *838:35 *838:37 7.41071 
7 *838:37 *838:39 11.9643 
8 *838:39 *838:51 18.5179 
9 *838:51 *838:61 11.9196 
10 *838:61 *2845:GATE_N 18.6304 
11 *838:61 *2856:GATE_N 21.3041 
12 *838:51 *2854:GATE_N 9.3 
13 *838:39 *2847:GATE_N 15.9786 
14 *838:37 *2852:GATE_N 15.1571 
15 *838:35 *2855:GATE_N 14.7464 
16 *838:31 *838:123 6.66071 
17 *838:123 *2857:GATE_N 16.8 
18 *838:123 *2853:GATE_N 27.3536 
19 *838:10 *2859:GATE_N 13.8 
*END

*D_NET *839 0.0173527
*CONN
*I *2858:GATE_N I *D sky130_fd_sc_hd__dlxtn_1
*I *2849:GATE_N I *D sky130_fd_sc_hd__dlxtn_1
*I *2851:GATE_N I *D sky130_fd_sc_hd__dlxtn_1
*I *2860:GATE_N I *D sky130_fd_sc_hd__dlxtn_1
*I *2850:GATE_N I *D sky130_fd_sc_hd__dlxtn_1
*I *2846:GATE_N I *D sky130_fd_sc_hd__dlxtn_1
*I *3149:X O *D sky130_fd_sc_hd__clkbuf_2
*CAP
1 *2858:GATE_N 0
2 *2849:GATE_N 0
3 *2851:GATE_N 0.000305599
4 *2860:GATE_N 0.00136089
5 *2850:GATE_N 3.99336e-05
6 *2846:GATE_N 0.000962143
7 *3149:X 0.00012522
8 *839:60 0.00238597
9 *839:43 0.00231524
10 *839:31 0.00175486
11 *839:27 0.000225873
12 *839:10 0.0011142
13 *2846:GATE_N *2555:A2 8.23597e-06
14 *2846:GATE_N *2846:D 9.90367e-05
15 *2846:GATE_N *2858:D 0.000215121
16 *2846:GATE_N *915:39 0.000332718
17 *2846:GATE_N *923:32 0.000379309
18 *2850:GATE_N *865:10 0
19 *2851:GATE_N *2533:A2 4.34948e-06
20 *2860:GATE_N *2533:B1 8.2018e-05
21 *2860:GATE_N *2561:A2 0.000277138
22 *2860:GATE_N *2562:B1 0.000265385
23 *2860:GATE_N *2598:B1 1.92905e-05
24 *2860:GATE_N *2933:D 0
25 *2860:GATE_N *850:57 1.15172e-05
26 *2860:GATE_N *858:16 0
27 *2860:GATE_N *858:20 0
28 *2860:GATE_N *882:20 0.000119081
29 *2860:GATE_N *915:79 1.71904e-05
30 *839:10 *923:32 8.84708e-05
31 *839:31 *2610:A2 3.33174e-05
32 *839:31 *866:16 0.000118228
33 *839:43 *866:16 7.33786e-06
34 *839:43 *866:22 1.58163e-05
35 *839:60 *2521:B1 0.000166983
36 *839:60 *2522:B1 0
37 *839:60 *2523:A2 0.000104951
38 *839:60 *2532:A2 0
39 *839:60 *2533:B1 0.000502906
40 *839:60 *2930:D 5.72433e-05
41 *839:60 *865:10 1.39726e-05
42 *839:60 *865:16 7.01475e-05
43 *2510:B2 *839:10 6.05161e-06
44 *2519:A1 *839:43 0.000396886
45 *2519:B2 *839:43 8.45527e-05
46 *2521:B2 *839:60 0.000151333
47 *2523:A1 *839:60 0.000132856
48 *2532:A1 *839:60 0
49 *2533:B2 *2860:GATE_N 8.21535e-05
50 *2533:B2 *839:60 6.81083e-05
51 *2533:C1 *839:60 0.000202816
52 *2541:B1 *2851:GATE_N 9.60939e-05
53 *2562:B2 *2860:GATE_N 1.41029e-05
54 *2598:B2 *2860:GATE_N 1.58163e-05
55 *2610:B2 *839:27 9.71197e-05
56 *2610:B2 *839:31 5.6921e-05
57 *2618:B1 *839:27 2.95726e-05
58 *2618:B1 *839:31 0.000181762
59 *2632:A1 *2860:GATE_N 1.33343e-05
60 *2640:A1 *2860:GATE_N 0.00038907
61 *3042:GATE_N *839:43 0.000184189
62 *3134:A *2851:GATE_N 0.000125724
63 *440:37 *2851:GATE_N 6.74911e-05
64 *448:45 *2851:GATE_N 3.40844e-05
65 *498:10 *839:10 2.59355e-05
66 *498:18 *2846:GATE_N 0.000487184
67 *498:18 *839:10 2.51989e-05
68 *561:20 *839:43 0.00022266
69 *561:20 *839:60 1.97756e-05
70 *565:20 *839:10 0.000139468
71 *812:47 *2846:GATE_N 0.00040279
*RES
1 *3149:X *839:10 16.8893 
2 *839:10 *2846:GATE_N 37.4964 
3 *839:10 *839:27 5.44643 
4 *839:27 *839:31 5.07143 
5 *839:31 *839:43 20.8571 
6 *839:43 *2850:GATE_N 10.0321 
7 *839:43 *839:60 22.5357 
8 *839:60 *2860:GATE_N 35.675 
9 *839:60 *2851:GATE_N 27.4429 
10 *839:31 *2849:GATE_N 9.3 
11 *839:27 *2858:GATE_N 9.3 
*END

*D_NET *840 0.02223
*CONN
*I *2438:A I *D sky130_fd_sc_hd__nand2_1
*I *2440:A I *D sky130_fd_sc_hd__nand2_1
*I *2410:B I *D sky130_fd_sc_hd__nand2_1
*I *2428:A I *D sky130_fd_sc_hd__nand2_1
*I *2432:A I *D sky130_fd_sc_hd__nand2_1
*I *2414:A I *D sky130_fd_sc_hd__nand2_1
*I *2416:A I *D sky130_fd_sc_hd__nand2_1
*I *2426:A I *D sky130_fd_sc_hd__nand2_1
*I *2430:A I *D sky130_fd_sc_hd__nand2_1
*I *2412:A I *D sky130_fd_sc_hd__nand2_1
*I *3150:X O *D sky130_fd_sc_hd__buf_2
*CAP
1 *2438:A 0
2 *2440:A 0.000167129
3 *2410:B 3.4553e-05
4 *2428:A 0.000139084
5 *2432:A 3.16523e-05
6 *2414:A 0.000342788
7 *2416:A 0
8 *2426:A 0.000399749
9 *2430:A 1.11927e-05
10 *2412:A 4.76137e-05
11 *3150:X 0
12 *840:130 0.0019725
13 *840:87 0.000427006
14 *840:72 0.00115637
15 *840:50 0.000399749
16 *840:32 0.000212986
17 *840:26 0.00022565
18 *840:24 0.00173396
19 *840:12 0.00150226
20 *840:4 0.00216789
21 *2414:A *867:47 9.60939e-05
22 *2414:A *867:76 0.00014285
23 *2414:A *922:14 4.72818e-05
24 *2414:A *922:22 8.97951e-05
25 *2426:A *3009:D 9.90431e-05
26 *2426:A *907:56 8.9338e-05
27 *2428:A *2428:B 0
28 *2432:A *2527:B1 0.000142856
29 *2440:A *2420:A 4.04691e-06
30 *2440:A *2436:A 6.50032e-05
31 *2440:A *2512:A2 0.000161145
32 *2440:A *841:48 9.54798e-06
33 *2440:A *841:50 0.00013576
34 *2440:A *891:77 0.000125717
35 *2440:A *893:63 2.32979e-05
36 *840:12 *933:22 0.000165901
37 *840:24 *2636:B1 0.000181803
38 *840:24 *864:77 0.000641864
39 *840:24 *907:26 8.43535e-06
40 *840:87 *2428:B 0
41 *840:87 *922:14 0
42 *840:130 *2663:A0 0.000203614
43 *840:130 *2970:D 1.98839e-05
44 *840:130 *841:48 9.82949e-05
45 *840:130 *847:37 0.000216755
46 *840:130 *893:8 3.81416e-06
47 *840:130 *893:63 2.83284e-06
48 *840:130 *910:14 4.19624e-06
49 *840:130 *910:72 0
50 *2484:A1 *2410:B 5.33005e-05
51 *2484:A1 *840:24 8.25897e-05
52 *2484:C1 *840:24 4.58194e-05
53 *2512:B2 *2440:A 1.95045e-05
54 *2515:A1 *840:24 0.000120519
55 *2515:B2 *840:26 0.000152333
56 *2515:B2 *840:72 0.000161976
57 *2518:B *840:130 0.000275313
58 *2518:D *840:72 9.03461e-05
59 *2518:D *840:130 0.00242223
60 *2530:B2 *840:72 1.21859e-05
61 *2530:B2 *840:130 1.64815e-05
62 *2613:B2 *840:24 0.00022459
63 *2970:GATE_N *840:130 2.82999e-05
64 *2978:GATE_N *840:26 2.41268e-05
65 *2978:GATE_N *840:32 0.000116976
66 *2978:GATE_N *840:72 6.8646e-06
67 *3128:A *2412:A 7.43578e-06
68 *3128:A *840:32 9.31011e-05
69 *3129:A *2412:A 2.42662e-05
70 *3150:A *840:130 3.18676e-05
71 *3198:A *840:130 2.72859e-05
72 *3219:A *840:12 0.000103267
73 *3221:A *2432:A 0.00010096
74 *435:14 *840:12 2.21972e-05
75 *435:14 *840:130 0.0020651
76 *436:8 *2412:A 3.18676e-05
77 *438:14 *840:32 1.94945e-05
78 *444:12 *2428:A 0.00011891
79 *444:12 *840:87 9.25014e-06
80 *446:20 *840:26 0.000118579
81 *446:20 *840:32 9.0566e-05
82 *446:20 *840:72 7.49188e-05
83 *446:20 *840:87 0
84 *449:14 *2440:A 0.000123811
85 *815:20 *840:72 0.000118339
86 *815:26 *840:24 9.58709e-05
87 *815:26 *840:72 0.000171413
88 *815:39 *840:24 4.52397e-05
89 *819:12 *840:87 3.0285e-05
90 *819:54 *2412:A 0.00014183
91 *819:54 *840:32 0.000169359
92 *823:14 *840:130 0.000251985
93 *823:22 *840:130 0.000529731
94 *832:60 *840:12 8.25843e-06
95 *832:73 *2410:B 0
*RES
1 *3150:X *840:4 9.3 
2 *840:4 *840:12 14.1607 
3 *840:12 *840:24 23.2857 
4 *840:24 *840:26 2.85714 
5 *840:26 *840:32 8.82143 
6 *840:32 *2412:A 11.0857 
7 *840:32 *2430:A 9.72857 
8 *840:26 *840:50 4.5 
9 *840:50 *2426:A 15.6214 
10 *840:50 *2416:A 9.3 
11 *840:24 *840:72 11.5179 
12 *840:72 *2414:A 19.3 
13 *840:72 *840:87 4.375 
14 *840:87 *2432:A 15.1571 
15 *840:87 *2428:A 16.5857 
16 *840:12 *2410:B 10.2643 
17 *840:4 *840:130 25.7911 
18 *840:130 *2440:A 18.7821 
19 *840:130 *2438:A 13.8 
*END

*D_NET *841 0.00643913
*CONN
*I *2418:A I *D sky130_fd_sc_hd__nand2_1
*I *2424:A I *D sky130_fd_sc_hd__nand2_1
*I *2436:A I *D sky130_fd_sc_hd__nand2_1
*I *2420:A I *D sky130_fd_sc_hd__nand2_1
*I *2434:A I *D sky130_fd_sc_hd__nand2_1
*I *2422:A I *D sky130_fd_sc_hd__nand2_1
*I *3151:X O *D sky130_fd_sc_hd__dlymetal6s2s_1
*CAP
1 *2418:A 3.13246e-05
2 *2424:A 0
3 *2436:A 0.000106293
4 *2420:A 0.000183304
5 *2434:A 0
6 *2422:A 1.60352e-05
7 *3151:X 0.000153639
8 *841:50 0.000346053
9 *841:48 0.000774662
10 *841:35 0.000774583
11 *841:24 0.000458801
12 *841:12 0.000571352
13 *2420:A *2512:A2 4.83885e-05
14 *2420:A *891:18 0.000123288
15 *2420:A *912:37 7.47029e-06
16 *2422:A *2422:B 5.7661e-06
17 *2436:A *2512:B1 7.53095e-05
18 *2436:A *864:51 4.13595e-05
19 *2436:A *891:77 7.90814e-06
20 *841:24 *2418:B 0.000183713
21 *841:24 *878:44 0.00016297
22 *841:24 *912:35 4.19624e-06
23 *841:24 *917:42 0.000225609
24 *841:35 *2422:B 2.36784e-05
25 *841:35 *2522:A2 1.97695e-05
26 *841:48 *2523:B1 0
27 *841:48 *2524:A2 0.0003267
28 *841:48 *897:109 1.33343e-05
29 *841:48 *910:72 0
30 *841:48 *912:35 0
31 *841:48 *931:81 0
32 *841:48 *995:12 0
33 *2440:A *2420:A 4.04691e-06
34 *2440:A *2436:A 6.50032e-05
35 *2440:A *841:48 9.54798e-06
36 *2440:A *841:50 0.00013576
37 *2512:A1 *2436:A 6.91613e-06
38 *2513:C1 *2420:A 2.21972e-05
39 *2513:C1 *841:50 4.41212e-05
40 *2524:B2 *841:48 0.000116516
41 *2610:C1 *841:12 0
42 *3136:A *2418:A 5.33005e-05
43 *3141:A *841:48 2.11419e-05
44 *3213:A *841:12 5.52238e-05
45 *439:10 *2418:A 2.59355e-05
46 *439:10 *841:12 0.000101963
47 *439:30 *841:12 2.04825e-05
48 *441:6 *841:24 0.000161947
49 *441:6 *841:35 3.18676e-05
50 *447:10 *841:35 5.52302e-05
51 *447:10 *841:48 9.44044e-05
52 *449:14 *2436:A 9.90367e-05
53 *477:18 *2418:A 1.94879e-05
54 *477:18 *841:12 1.53472e-05
55 *477:18 *841:24 2.65052e-05
56 *651:14 *841:12 2.27416e-05
57 *812:18 *2420:A 0.000201401
58 *826:10 *841:24 0.000245201
59 *840:130 *841:48 9.82949e-05
*RES
1 *3151:X *841:12 16.9696 
2 *841:12 *841:24 17.1298 
3 *841:24 *2422:A 9.72857 
4 *841:24 *841:35 1.78571 
5 *841:35 *2434:A 9.3 
6 *841:35 *841:48 17.5357 
7 *841:48 *841:50 1.79464 
8 *841:50 *2420:A 18.0589 
9 *841:50 *2436:A 16.8804 
10 *841:48 *2424:A 13.8 
11 *841:12 *2418:A 14.6125 
*END

*D_NET *842 0.0173512
*CONN
*I *2940:D I *D sky130_fd_sc_hd__dlxtn_1
*I *2876:D I *D sky130_fd_sc_hd__dlxtn_1
*I *2988:D I *D sky130_fd_sc_hd__dlxtn_1
*I *3004:D I *D sky130_fd_sc_hd__dlxtn_1
*I *2908:D I *D sky130_fd_sc_hd__dlxtn_1
*I *3036:D I *D sky130_fd_sc_hd__dlxtn_1
*I *2892:D I *D sky130_fd_sc_hd__dlxtn_1
*I *3020:D I *D sky130_fd_sc_hd__dlxtn_1
*I *3084:D I *D sky130_fd_sc_hd__dlxtn_1
*I *2972:D I *D sky130_fd_sc_hd__dlxtn_1
*I *3152:X O *D sky130_fd_sc_hd__clkbuf_2
*CAP
1 *2940:D 0
2 *2876:D 0
3 *2988:D 0.000152662
4 *3004:D 5.90778e-05
5 *2908:D 0
6 *3036:D 0.000302297
7 *2892:D 0
8 *3020:D 0.000137243
9 *3084:D 5.96577e-05
10 *2972:D 0.000236997
11 *3152:X 0.000174248
12 *842:100 0.000309635
13 *842:98 0.000270605
14 *842:74 0.000302297
15 *842:72 0.000187622
16 *842:58 0.000311099
17 *842:50 0.00305436
18 *842:10 0.000395581
19 *842:8 0.00296452
20 *842:6 0.000174248
21 *2972:D *850:57 0.000117553
22 *2972:D *891:34 0.000183712
23 *2972:D *911:22 0
24 *2988:D *859:44 2.47753e-05
25 *2988:D *899:12 0.000146992
26 *2988:D *904:36 0.000175892
27 *3004:D *934:20 0.000224583
28 *3020:D *862:30 0.000147851
29 *3036:D *3209:A 9.60875e-05
30 *3084:D *843:27 0.000225609
31 *842:10 *891:34 0.000154561
32 *842:50 *2633:A2 0.00169628
33 *842:50 *843:46 9.68884e-05
34 *842:50 *863:48 4.86461e-05
35 *842:50 *891:34 7.29667e-05
36 *842:58 *862:30 7.35691e-05
37 *842:58 *904:113 0
38 *842:72 *904:113 0
39 *842:98 *904:113 0
40 *842:100 *934:20 0.000259549
41 *2560:A *842:50 5.33005e-05
42 *2631:B2 *3084:D 8.02593e-05
43 *2632:A1 *2972:D 0
44 *2632:B2 *842:10 5.45756e-05
45 *2632:B2 *842:50 4.35131e-05
46 *2633:A1 *842:50 6.09804e-05
47 *2635:A1 *842:98 0.000114655
48 *2635:A1 *842:100 2.14658e-05
49 *2636:B2 *842:98 1.33343e-05
50 *2637:A1 *842:58 7.91008e-05
51 *2637:A1 *842:72 9.60337e-06
52 *2637:A1 *842:98 0.000100249
53 *2637:B2 *3036:D 0.000140933
54 *2637:B2 *842:58 0.00012401
55 *2639:A *842:10 6.90348e-06
56 *2639:A *842:50 0.000983131
57 *2876:GATE_N *842:100 0.000135028
58 *2892:GATE_N *3020:D 9.90431e-05
59 *2901:GATE_N *3020:D 0.000521419
60 *2901:GATE_N *842:58 0.000182694
61 *2908:GATE_N *3036:D 0.00010096
62 *2908:GATE_N *842:72 9.25014e-06
63 *2908:GATE_N *842:98 0.000188053
64 *2940:GATE_N *842:6 0.000390994
65 *2940:GATE_N *842:50 2.89967e-05
66 *2988:GATE_N *2988:D 5.33005e-05
67 *3052:GATE_N *842:50 5.33005e-05
68 *498:18 *842:50 6.13706e-05
69 *575:20 *3036:D 9.43376e-05
70 *580:22 *842:50 0
71 *597:22 *3004:D 8.18868e-05
72 *597:22 *842:98 5.54432e-05
73 *597:22 *842:100 5.19805e-05
74 *598:26 *842:50 0.00031119
75 *809:165 *842:50 6.28948e-05
76 *837:41 *2988:D 0.000145406
*RES
1 *3152:X *842:6 13.1214 
2 *842:6 *842:8 4.5 
3 *842:8 *842:10 2.25 
4 *842:10 *2972:D 18.8357 
5 *842:10 *3084:D 15.9786 
6 *842:8 *842:50 37.4959 
7 *842:50 *842:58 8.90179 
8 *842:58 *3020:D 14.3536 
9 *842:58 *2892:D 9.3 
10 *842:50 *842:72 0.276786 
11 *842:72 *842:74 4.5 
12 *842:74 *3036:D 15.2107 
13 *842:74 *2908:D 9.3 
14 *842:72 *842:98 9.66071 
15 *842:98 *842:100 3 
16 *842:100 *3004:D 11.4786 
17 *842:100 *2988:D 22.4429 
18 *842:98 *2876:D 9.3 
19 *842:6 *2940:D 9.3 
*END

*D_NET *843 0.00445717
*CONN
*I *3052:D I *D sky130_fd_sc_hd__dlxtn_1
*I *2924:D I *D sky130_fd_sc_hd__dlxtn_1
*I *3100:D I *D sky130_fd_sc_hd__dlxtn_1
*I *3068:D I *D sky130_fd_sc_hd__dlxtn_1
*I *2956:D I *D sky130_fd_sc_hd__dlxtn_1
*I *2860:D I *D sky130_fd_sc_hd__dlxtn_1
*I *3153:X O *D sky130_fd_sc_hd__clkbuf_1
*CAP
1 *3052:D 0
2 *2924:D 0.000113845
3 *3100:D 0
4 *3068:D 0.000107999
5 *2956:D 5.55771e-05
6 *2860:D 5.18775e-05
7 *3153:X 8.12302e-05
8 *843:48 0.000107999
9 *843:46 0.00029547
10 *843:40 0.000260108
11 *843:27 0.00045757
12 *843:8 0.000456618
13 *2860:D *911:22 0.000148926
14 *2924:D *859:30 1.51217e-05
15 *2924:D *912:72 7.19522e-07
16 *2956:D *858:40 0.000118373
17 *843:27 *858:40 7.51141e-05
18 *843:27 *911:22 9.78605e-05
19 *843:46 *863:48 0.000122091
20 *2631:B2 *843:27 4.30382e-05
21 *2632:B2 *843:27 0.000226507
22 *2634:C1 *3068:D 0.000225616
23 *2926:GATE_N *2924:D 1.47089e-05
24 *2972:GATE_N *843:40 8.2226e-05
25 *2972:GATE_N *843:46 5.33323e-05
26 *3084:D *843:27 0.000225609
27 *3084:GATE_N *843:8 2.89114e-05
28 *382:14 *2860:D 0.000147204
29 *382:14 *843:27 8.32242e-05
30 *390:10 *843:27 7.79781e-06
31 *447:22 *843:40 0.00016853
32 *598:26 *3068:D 0.000107985
33 *806:39 *2924:D 0.00011819
34 *806:39 *843:46 2.11362e-05
35 *806:60 *2956:D 8.45315e-05
36 *806:60 *843:27 2.2231e-05
37 *806:60 *843:46 9.01911e-05
38 *810:26 *2924:D 2.16719e-05
39 *810:26 *843:46 2.11362e-05
40 *826:16 *2924:D 0
41 *842:50 *843:46 9.68884e-05
*RES
1 *3153:X *843:8 14.7464 
2 *843:8 *2860:D 15.7464 
3 *843:8 *843:27 12.2679 
4 *843:27 *2956:D 11.4161 
5 *843:27 *843:40 11.25 
6 *843:40 *843:46 9.53571 
7 *843:46 *843:48 4.5 
8 *843:48 *3068:D 12.3 
9 *843:48 *3100:D 9.3 
10 *843:46 *2924:D 16.0411 
11 *843:40 *3052:D 9.3 
*END

*D_NET *844 0.014764
*CONN
*I *2939:D I *D sky130_fd_sc_hd__dlxtn_1
*I *2955:D I *D sky130_fd_sc_hd__dlxtn_1
*I *3099:D I *D sky130_fd_sc_hd__dlxtn_1
*I *2875:D I *D sky130_fd_sc_hd__dlxtn_1
*I *2891:D I *D sky130_fd_sc_hd__dlxtn_1
*I *3019:D I *D sky130_fd_sc_hd__dlxtn_1
*I *3003:D I *D sky130_fd_sc_hd__dlxtn_1
*I *2907:D I *D sky130_fd_sc_hd__dlxtn_1
*I *3035:D I *D sky130_fd_sc_hd__dlxtn_1
*I *2987:D I *D sky130_fd_sc_hd__dlxtn_1
*I *3154:X O *D sky130_fd_sc_hd__clkbuf_2
*CAP
1 *2939:D 0.000147887
2 *2955:D 0
3 *3099:D 0
4 *2875:D 0.0001641
5 *2891:D 8.08846e-05
6 *3019:D 0
7 *3003:D 0.00033028
8 *2907:D 0.000120369
9 *3035:D 4.26984e-05
10 *2987:D 0.000125217
11 *3154:X 0
12 *844:102 0.000351248
13 *844:95 0.0027279
14 *844:38 0.000467947
15 *844:36 8.99141e-05
16 *844:32 0.000193977
17 *844:10 0.000244259
18 *844:8 0.000658056
19 *844:4 0.00322987
20 *2891:D *904:121 0.00016587
21 *2939:D *2554:B1 0
22 *2939:D *854:40 7.15846e-05
23 *2939:D *914:107 0.000175251
24 *2987:D *853:31 0.000186662
25 *2987:D *904:121 0.000173804
26 *3003:D *2625:A2 3.67142e-05
27 *3003:D *904:121 0
28 *3003:D *906:12 0
29 *844:10 *904:121 0.000151333
30 *844:32 *904:121 8.04343e-05
31 *844:95 *3049:D 7.15846e-05
32 *844:95 *845:19 0.000159049
33 *844:95 *845:31 0.000305291
34 *844:95 *854:40 1.40131e-05
35 *844:95 *920:23 0
36 *844:102 *854:40 0.000130502
37 *844:102 *914:107 0.000306324
38 *2584:A *2987:D 7.50473e-05
39 *2607:B2 *3003:D 3.32543e-05
40 *2624:A1 *3003:D 0
41 *2625:A1 *2875:D 5.17614e-05
42 *2625:B2 *2875:D 7.61932e-05
43 *2625:B2 *844:8 1.18881e-05
44 *2628:B *844:95 0
45 *2629:B1 *2939:D 0.000223032
46 *2629:B2 *844:95 4.50033e-05
47 *2875:GATE_N *2907:D 0.000485543
48 *2875:GATE_N *844:8 4.62969e-05
49 *2875:GATE_N *844:36 0.000230475
50 *2875:GATE_N *844:38 5.52302e-05
51 *2891:GATE_N *2891:D 4.85245e-06
52 *2955:GATE_N *844:102 0.000110029
53 *3019:GATE_N *2907:D 0.000148165
54 *3035:GATE_N *2987:D 0
55 *3099:GATE_N *844:95 2.44318e-05
56 *3155:A *2875:D 1.00733e-05
57 *3155:A *844:95 5.63071e-05
58 *3215:A *844:95 0
59 *655:16 *844:95 0.00207342
*RES
1 *3154:X *844:4 9.3 
2 *844:4 *844:8 11.6071 
3 *844:8 *844:10 1.94643 
4 *844:10 *2987:D 17.8179 
5 *844:10 *3035:D 14.3357 
6 *844:8 *844:32 1.03571 
7 *844:32 *844:36 6.67857 
8 *844:36 *844:38 0.535714 
9 *844:38 *2907:D 13.9429 
10 *844:38 *3003:D 24.2286 
11 *844:36 *3019:D 9.3 
12 *844:32 *2891:D 16.175 
13 *844:4 *2875:D 14.5679 
14 *844:4 *844:95 44.5714 
15 *844:95 *3099:D 9.3 
16 *844:95 *844:102 5.46429 
17 *844:102 *2955:D 9.3 
18 *844:102 *2939:D 22.925 
*END

*D_NET *845 0.00562965
*CONN
*I *3067:D I *D sky130_fd_sc_hd__dlxtn_1
*I *2971:D I *D sky130_fd_sc_hd__dlxtn_1
*I *2923:D I *D sky130_fd_sc_hd__dlxtn_1
*I *2859:D I *D sky130_fd_sc_hd__dlxtn_1
*I *3051:D I *D sky130_fd_sc_hd__dlxtn_1
*I *3083:D I *D sky130_fd_sc_hd__dlxtn_1
*I *3155:X O *D sky130_fd_sc_hd__buf_1
*CAP
1 *3067:D 0.000146964
2 *2971:D 0
3 *2923:D 0
4 *2859:D 0.000254959
5 *3051:D 0
6 *3083:D 0
7 *3155:X 0.000159826
8 *845:60 0.000185861
9 *845:31 0.000607693
10 *845:19 0.000490782
11 *845:12 0.000238331
12 *845:8 0.000299005
13 *2859:D *2620:A2 1.00375e-05
14 *3067:D *2556:B1 0
15 *3067:D *916:21 5.33334e-05
16 *3067:D *916:23 0
17 *845:8 *2623:B1 6.13757e-06
18 *845:12 *916:23 0
19 *845:19 *2623:A2 0.000268403
20 *845:19 *854:40 0.000200483
21 *845:31 *2620:A2 0
22 *845:31 *854:40 5.37828e-05
23 *845:60 *916:23 0
24 *2621:C1 *2859:D 0.000120708
25 *2955:GATE_N *845:31 0
26 *2971:GATE_N *845:8 3.32631e-05
27 *2971:GATE_N *845:12 0.000111218
28 *2971:GATE_N *845:60 7.11841e-05
29 *3051:GATE_N *2859:D 5.52302e-05
30 *3067:GATE_N *3067:D 5.058e-05
31 *3067:GATE_N *845:12 1.03169e-05
32 *3099:GATE_N *845:31 5.33005e-05
33 *447:22 *2859:D 4.38244e-05
34 *492:34 *3067:D 3.67142e-05
35 *655:16 *845:19 0.000446597
36 *805:20 *2859:D 0.00018077
37 *805:20 *845:31 0.00040279
38 *805:22 *845:31 0.000223032
39 *805:28 *845:31 2.95642e-05
40 *811:14 *2859:D 3.98547e-05
41 *811:14 *845:31 0.000136876
42 *838:14 *2859:D 0.000143887
43 *844:95 *845:19 0.000159049
44 *844:95 *845:31 0.000305291
*RES
1 *3155:X *845:8 15.5679 
2 *845:8 *845:12 6.44643 
3 *845:12 *3083:D 9.3 
4 *845:12 *845:19 7.10714 
5 *845:19 *845:31 19.4107 
6 *845:31 *3051:D 9.3 
7 *845:31 *2859:D 24.2107 
8 *845:19 *2923:D 9.3 
9 *845:8 *845:60 1.03571 
10 *845:60 *2971:D 13.8 
11 *845:60 *3067:D 16.9964 
*END

*D_NET *846 0.00458055
*CONN
*I *2666:A1 I *D sky130_fd_sc_hd__mux2_1
*I *3259:X O *D sky130_fd_sc_hd__clkbuf_1
*CAP
1 *2666:A1 0
2 *3259:X 0.00122088
3 *846:28 0.00122088
4 *846:28 *2815:GATE_N 9.90367e-05
5 *846:28 *2821:GATE_N 5.52302e-05
6 *846:28 *3341:A 0.000120228
7 *846:28 *3367:A 0.000142856
8 *846:28 *3368:A 0.000186669
9 *846:28 *882:28 0.000137505
10 PWDATA[5] *846:28 0.000280681
11 *2815:D *846:28 0.000183726
12 *2818:D *846:28 8.13286e-05
13 *3325:A *846:28 7.83587e-05
14 *3326:A *846:28 0
15 *3327:A *846:28 0
16 *3328:A *846:28 5.33005e-05
17 *390:8 *846:28 5.74499e-06
18 *426:10 *846:28 0
19 *631:38 *846:28 0.000714135
*RES
1 *3259:X *846:28 44.6214 
2 *846:28 *2666:A1 9.3 
*END

*D_NET *847 0.0098822
*CONN
*I *2890:D I *D sky130_fd_sc_hd__dlxtn_1
*I *2954:D I *D sky130_fd_sc_hd__dlxtn_1
*I *2858:D I *D sky130_fd_sc_hd__dlxtn_1
*I *2938:D I *D sky130_fd_sc_hd__dlxtn_1
*I *3066:D I *D sky130_fd_sc_hd__dlxtn_1
*I *2874:D I *D sky130_fd_sc_hd__dlxtn_1
*I *3082:D I *D sky130_fd_sc_hd__dlxtn_1
*I *2906:D I *D sky130_fd_sc_hd__dlxtn_1
*I *2970:D I *D sky130_fd_sc_hd__dlxtn_1
*I *3050:D I *D sky130_fd_sc_hd__dlxtn_1
*I *3156:X O *D sky130_fd_sc_hd__clkbuf_2
*CAP
1 *2890:D 0.000102633
2 *2954:D 2.36895e-05
3 *2858:D 0.000200538
4 *2938:D 0
5 *3066:D 0
6 *2874:D 0
7 *3082:D 0.000132664
8 *2906:D 3.97479e-05
9 *2970:D 2.41917e-05
10 *3050:D 7.62704e-05
11 *3156:X 0.000391916
12 *847:88 0.000483968
13 *847:81 0.000360461
14 *847:54 0.000287064
15 *847:52 0.000257274
16 *847:37 0.000837995
17 *847:33 0.000973044
18 *847:29 0.000320818
19 *847:27 0.000508557
20 *847:12 0.000801812
21 *2858:D *910:70 0.000141985
22 *2858:D *923:32 0.000215121
23 *2890:D *887:47 4.16756e-05
24 *3050:D *941:66 3.69047e-06
25 *3082:D *893:16 0.000111527
26 *3082:D *933:28 0
27 *847:12 *2922:D 0.000195412
28 *847:12 *3218:A 0.000100823
29 *847:12 *848:23 0.000146474
30 *847:12 *848:43 5.52238e-05
31 *847:12 *918:12 0
32 *847:12 *919:10 1.21258e-05
33 *847:12 *941:49 0
34 *847:29 *2643:A 4.44663e-05
35 *847:29 *887:47 5.01876e-06
36 *847:33 *2643:A 0.000115164
37 *847:33 *897:10 7.43763e-05
38 *847:37 *921:16 1.40306e-05
39 *847:37 *921:103 8.25843e-06
40 *847:52 *921:26 2.09776e-05
41 *2485:C *2906:D 6.81335e-05
42 *2485:C *847:52 2.77258e-05
43 *2485:C *847:54 0.000107648
44 *2518:C *2858:D 9.41642e-05
45 *2610:B2 *2858:D 5.30637e-06
46 *2610:B2 *847:88 4.51726e-05
47 *2611:B2 *847:27 9.99644e-06
48 *2615:A1 *847:52 0.00011333
49 *2617:A *2890:D 3.32442e-05
50 *2617:A *847:29 7.22508e-05
51 *2617:A *847:33 7.84862e-05
52 *2846:GATE_N *2858:D 0.000215121
53 *2881:GATE_N *2890:D 3.31249e-06
54 *2897:GATE_N *847:52 9.41642e-05
55 *2897:GATE_N *847:54 0.000210223
56 *2938:GATE_N *847:88 0.000178847
57 *2970:GATE_N *2970:D 1.58163e-05
58 *2970:GATE_N *847:37 2.40107e-05
59 *3066:GATE_N *847:33 2.95642e-05
60 *3066:GATE_N *847:37 5.52238e-05
61 *3066:GATE_N *847:81 5.33005e-05
62 *3082:GATE_N *3082:D 4.1331e-06
63 *3202:A *847:12 9.25014e-06
64 *3202:A *847:27 0.000122091
65 *3220:A *847:37 0.000107974
66 *383:12 *847:52 0.000159935
67 *497:20 *3050:D 5.33005e-05
68 *497:20 *847:12 9.69119e-06
69 *498:10 *2954:D 5.52238e-05
70 *812:69 *3082:D 0
71 *832:64 *3082:D 0
72 *832:73 *2906:D 0.000186662
73 *832:73 *847:54 0.000137983
74 *834:76 *3050:D 6.87574e-05
75 *834:76 *847:27 6.65194e-05
76 *840:130 *2970:D 1.98839e-05
77 *840:130 *847:37 0.000216755
*RES
1 *3156:X *847:12 25.7464 
2 *847:12 *3050:D 11.0679 
3 *847:12 *847:27 10.3036 
4 *847:27 *847:29 1.94643 
5 *847:29 *847:33 9.78571 
6 *847:33 *847:37 10.8214 
7 *847:37 *2970:D 9.83571 
8 *847:37 *847:52 12.1964 
9 *847:52 *847:54 3.41071 
10 *847:54 *2906:D 11.0679 
11 *847:54 *3082:D 21.1571 
12 *847:52 *2874:D 9.3 
13 *847:33 *847:81 1.375 
14 *847:81 *3066:D 9.3 
15 *847:81 *847:88 5.05357 
16 *847:88 *2938:D 9.3 
17 *847:88 *2858:D 24.1571 
18 *847:29 *2954:D 14.3357 
19 *847:27 *2890:D 15.9071 
*END

*D_NET *848 0.0103354
*CONN
*I *3156:A I *D sky130_fd_sc_hd__clkbuf_2
*I *3018:D I *D sky130_fd_sc_hd__dlxtn_1
*I *3098:D I *D sky130_fd_sc_hd__dlxtn_1
*I *2986:D I *D sky130_fd_sc_hd__dlxtn_1
*I *3034:D I *D sky130_fd_sc_hd__dlxtn_1
*I *3002:D I *D sky130_fd_sc_hd__dlxtn_1
*I *2922:D I *D sky130_fd_sc_hd__dlxtn_1
*I *3157:X O *D sky130_fd_sc_hd__dlymetal6s2s_1
*CAP
1 *3156:A 0
2 *3018:D 0
3 *3098:D 9.17572e-05
4 *2986:D 1.78179e-05
5 *3034:D 2.21089e-05
6 *3002:D 7.90437e-05
7 *2922:D 0.000106901
8 *3157:X 4.85225e-05
9 *848:77 0.000307182
10 *848:71 0.000434804
11 *848:58 0.000337361
12 *848:43 0.00149888
13 *848:23 0.0014413
14 *848:8 0.000254937
15 *2922:D *941:49 1.00375e-05
16 *2986:D *907:38 1.73088e-05
17 *3034:D *867:76 5.52238e-05
18 *3098:D *899:10 0.000144684
19 *3098:D *907:38 4.18895e-05
20 *848:23 *3218:A 1.08359e-05
21 *848:23 *867:90 4.19624e-06
22 *848:43 *2400:C 0
23 *848:43 *2400:D 3.80385e-05
24 *848:43 *2427:A_N 1.04232e-05
25 *848:43 *2612:A2 8.894e-05
26 *848:43 *3236:A 0.000576347
27 *848:43 *899:82 0.000394969
28 *848:43 *919:10 4.58976e-05
29 *848:43 *925:10 0.000165619
30 *848:43 *938:25 0.000115474
31 *848:43 *938:29 6.0038e-05
32 *848:43 *945:12 0.000130419
33 *848:71 *2528:C1 1.41029e-05
34 *848:71 *867:76 0.00022266
35 *848:71 *905:16 0.000268528
36 *848:71 *928:12 3.9745e-05
37 *848:77 *907:38 0.000223558
38 *848:77 *928:12 5.58496e-05
39 *2516:A1 *3034:D 3.69047e-06
40 *2516:B2 *848:58 0.00012401
41 *3098:GATE_N *3098:D 9.25014e-06
42 *3157:A *848:23 0
43 *3175:A *3002:D 9.80173e-05
44 *3205:A *848:71 0.000137939
45 *3205:A *848:77 0.000214449
46 *3207:A *848:43 0.000282443
47 *3208:A *848:43 0.000366445
48 *3221:A *848:43 0.000470633
49 *3224:A *848:43 5.80706e-06
50 *3224:A *848:58 2.39876e-05
51 *3224:A *848:71 7.85886e-05
52 *3317:A *848:43 4.25716e-05
53 *3318:A *848:43 9.74492e-05
54 *477:18 *2922:D 1.90936e-05
55 *487:10 *848:43 2.19684e-05
56 *491:10 *2922:D 1.58163e-05
57 *496:24 *3098:D 6.33359e-05
58 *815:14 *848:43 9.64979e-05
59 *815:14 *848:58 8.359e-05
60 *821:57 *848:77 5.03772e-05
61 *821:61 *848:77 2.47697e-05
62 *830:102 *2922:D 7.92831e-05
63 *830:102 *848:8 9.60939e-05
64 *830:102 *848:23 1.08359e-05
65 *832:60 *3098:D 1.40306e-05
66 *832:60 *848:77 3.19123e-05
67 *847:12 *2922:D 0.000195412
68 *847:12 *848:23 0.000146474
69 *847:12 *848:43 5.52238e-05
*RES
1 *3157:X *848:8 14.7464 
2 *848:8 *2922:D 16.8893 
3 *848:8 *848:23 6.75 
4 *848:23 *848:43 46.6429 
5 *848:43 *3002:D 15.2821 
6 *848:43 *848:58 6.75 
7 *848:58 *3034:D 9.83571 
8 *848:58 *848:71 11.6607 
9 *848:71 *848:77 9.83929 
10 *848:77 *2986:D 9.72857 
11 *848:77 *3098:D 20.7821 
12 *848:71 *3018:D 13.8 
13 *848:23 *3156:A 9.3 
*END

*D_NET *849 0.0121894
*CONN
*I *2873:D I *D sky130_fd_sc_hd__dlxtn_1
*I *3033:D I *D sky130_fd_sc_hd__dlxtn_1
*I *3017:D I *D sky130_fd_sc_hd__dlxtn_1
*I *2905:D I *D sky130_fd_sc_hd__dlxtn_1
*I *2889:D I *D sky130_fd_sc_hd__dlxtn_1
*I *3001:D I *D sky130_fd_sc_hd__dlxtn_1
*I *2985:D I *D sky130_fd_sc_hd__dlxtn_1
*I *3081:D I *D sky130_fd_sc_hd__dlxtn_1
*I *2953:D I *D sky130_fd_sc_hd__dlxtn_1
*I *3049:D I *D sky130_fd_sc_hd__dlxtn_1
*I *3158:X O *D sky130_fd_sc_hd__clkbuf_2
*CAP
1 *2873:D 0
2 *3033:D 0.000204003
3 *3017:D 0
4 *2905:D 0
5 *2889:D 0.000243899
6 *3001:D 0.000128748
7 *2985:D 0.000275479
8 *3081:D 0
9 *2953:D 0.000122082
10 *3049:D 9.26657e-05
11 *3158:X 0
12 *849:102 0.00028513
13 *849:51 0.00049259
14 *849:49 0.000332262
15 *849:47 0.0002776
16 *849:45 0.000332422
17 *849:43 0.00129154
18 *849:19 0.000174626
19 *849:10 0.00031124
20 *849:6 0.00132163
21 *2953:D *896:16 0
22 *2985:D *904:44 0
23 *3033:D *898:22 5.71472e-05
24 *3033:D *926:37 7.12852e-05
25 *849:10 *920:23 0
26 *849:43 *2637:A2 0.000522445
27 *849:43 *2637:B1 2.95641e-05
28 *849:43 *920:23 0
29 *849:43 *920:177 0.00044468
30 *849:102 *2603:B1 0.00012401
31 *849:102 *2604:B1 0
32 *2580:A1 *2985:D 9.94037e-05
33 *2580:B2 *2985:D 9.11048e-06
34 *2602:B2 *2889:D 0.000115082
35 *2602:B2 *2985:D 9.56968e-05
36 *2602:B2 *849:51 7.60306e-05
37 *2603:A1 *849:47 9.47028e-05
38 *2606:B *3033:D 1.92905e-05
39 *2628:B *849:10 0
40 *2638:B1 *849:43 0.000226513
41 *2640:B2 *849:43 4.64488e-06
42 *2873:GATE_N *849:43 0.000513373
43 *2873:GATE_N *849:45 0.000137983
44 *3001:GATE_N *2889:D 0
45 *3081:GATE_N *849:19 4.884e-05
46 *3155:A *3049:D 0.000361914
47 *3155:A *849:19 0.000181796
48 *3215:A *2953:D 0.000220596
49 *3215:A *849:10 7.57056e-05
50 *3215:A *849:43 0.0001387
51 *814:16 *3033:D 5.45041e-05
52 *814:16 *849:102 8.33559e-05
53 *817:49 *2889:D 9.47278e-05
54 *820:12 *3033:D 0
55 *820:12 *849:102 0
56 *831:20 *849:47 0.00026816
57 *833:91 *849:43 0.0017168
58 *833:91 *849:45 6.25963e-05
59 *833:91 *849:47 0.000283215
60 *844:95 *3049:D 7.15846e-05
*RES
1 *3158:X *849:6 13.8 
2 *849:6 *849:10 7.35714 
3 *849:10 *3049:D 12.7107 
4 *849:10 *849:19 1.76786 
5 *849:19 *2953:D 21.1571 
6 *849:19 *3081:D 9.3 
7 *849:6 *849:43 36.625 
8 *849:43 *849:45 1.76786 
9 *849:45 *849:47 7.51786 
10 *849:47 *849:49 4.5 
11 *849:49 *849:51 1.94643 
12 *849:51 *2985:D 19.8 
13 *849:51 *3001:D 15.5857 
14 *849:49 *2889:D 18.8357 
15 *849:47 *2905:D 9.3 
16 *849:45 *3017:D 9.3 
17 *849:43 *849:102 6.75 
18 *849:102 *3033:D 18.2643 
19 *849:102 *2873:D 13.8 
*END

*D_NET *850 0.0152968
*CONN
*I *3097:D I *D sky130_fd_sc_hd__dlxtn_1
*I *3065:D I *D sky130_fd_sc_hd__dlxtn_1
*I *2921:D I *D sky130_fd_sc_hd__dlxtn_1
*I *3158:A I *D sky130_fd_sc_hd__clkbuf_2
*I *2937:D I *D sky130_fd_sc_hd__dlxtn_1
*I *2857:D I *D sky130_fd_sc_hd__dlxtn_1
*I *2969:D I *D sky130_fd_sc_hd__dlxtn_1
*I *3159:X O *D sky130_fd_sc_hd__dlymetal6s2s_1
*CAP
1 *3097:D 2.23854e-05
2 *3065:D 0
3 *2921:D 0
4 *3158:A 3.91958e-05
5 *2937:D 0.000316503
6 *2857:D 0.000164653
7 *2969:D 0
8 *3159:X 0.000498247
9 *850:65 0.000215146
10 *850:57 0.00312466
11 *850:36 0.00333903
12 *850:22 0.000331546
13 *850:14 0.000240714
14 *850:12 0.00036215
15 *850:8 0.000882783
16 *2857:D *2607:A2 7.47337e-05
17 *2857:D *930:16 4.35452e-05
18 *850:22 *930:16 2.27416e-05
19 *850:57 *2534:B1 0.00014285
20 *850:57 *2620:B1 0.000304767
21 *850:57 *882:20 0.000517573
22 *850:57 *896:138 0.00150424
23 *2534:A1 *850:57 0.00010096
24 *2534:B2 *850:57 4.59075e-05
25 *2600:A1 *850:57 1.50563e-05
26 *2600:A1 *850:65 9.94909e-05
27 *2601:C1 *850:65 0.000150625
28 *2606:A *3158:A 5.23057e-05
29 *2606:A *850:65 8.5229e-05
30 *2632:A1 *850:57 5.19842e-06
31 *2857:GATE_N *2857:D 0.000307343
32 *2860:GATE_N *850:57 1.15172e-05
33 *2921:GATE_N *3158:A 0.000327473
34 *2921:GATE_N *850:65 0.000251087
35 *2972:D *850:57 0.000117553
36 *2972:GATE_N *850:57 2.27416e-05
37 *3097:GATE_N *850:12 0.000222666
38 *3118:A *2937:D 5.52302e-05
39 *3118:A *850:36 3.34295e-05
40 *3118:A *850:57 0.000101545
41 *492:34 *850:57 0
42 *661:12 *2857:D 0.000646966
43 *661:12 *850:22 5.71472e-05
44 *671:8 *850:22 5.40543e-05
45 *671:8 *850:36 8.40012e-05
46 *822:22 *850:22 8.5097e-05
47 *822:22 *850:36 0.000134504
48 *822:22 *850:57 4.75715e-05
49 *829:32 *850:57 2.3704e-05
50 *829:32 *850:65 1.09232e-05
*RES
1 *3159:X *850:8 16.0143 
2 *850:8 *850:12 5.48214 
3 *850:12 *850:14 4.5 
4 *850:14 *850:22 7.82143 
5 *850:22 *2969:D 9.3 
6 *850:22 *2857:D 15.5857 
7 *850:14 *850:36 3.16071 
8 *850:36 *2937:D 18.05 
9 *850:36 *850:57 49.9375 
10 *850:57 *850:65 10.0268 
11 *850:65 *3158:A 11.4786 
12 *850:65 *2921:D 9.3 
13 *850:12 *3065:D 9.3 
14 *850:8 *3097:D 9.72857 
*END

*D_NET *851 0.00984513
*CONN
*I *2952:D I *D sky130_fd_sc_hd__dlxtn_1
*I *3080:D I *D sky130_fd_sc_hd__dlxtn_1
*I *3096:D I *D sky130_fd_sc_hd__dlxtn_1
*I *2984:D I *D sky130_fd_sc_hd__dlxtn_1
*I *3016:D I *D sky130_fd_sc_hd__dlxtn_1
*I *2888:D I *D sky130_fd_sc_hd__dlxtn_1
*I *3000:D I *D sky130_fd_sc_hd__dlxtn_1
*I *2872:D I *D sky130_fd_sc_hd__dlxtn_1
*I *3032:D I *D sky130_fd_sc_hd__dlxtn_1
*I *2904:D I *D sky130_fd_sc_hd__dlxtn_1
*I *3160:X O *D sky130_fd_sc_hd__clkbuf_2
*CAP
1 *2952:D 0
2 *3080:D 0.000156091
3 *3096:D 0
4 *2984:D 0
5 *3016:D 0.000144633
6 *2888:D 2.91227e-05
7 *3000:D 0
8 *2872:D 1.51975e-05
9 *3032:D 0.000137002
10 *2904:D 0.000164834
11 *3160:X 2.75924e-05
12 *851:110 0.000245832
13 *851:53 0.0001522
14 *851:38 0.000284412
15 *851:36 0.000319686
16 *851:34 0.00032504
17 *851:32 0.000256003
18 *851:28 0.00115169
19 *851:12 0.00163154
20 *851:6 0.000612747
21 *2904:D *898:66 7.39304e-05
22 *2904:D *900:51 4.46612e-05
23 *3016:D *2593:B1 4.53889e-05
24 *3016:D *875:43 0.00018077
25 *3016:D *932:49 0.000148903
26 *3080:D *852:31 4.70078e-05
27 *851:6 *3160:A 5.33005e-05
28 *851:12 *3160:A 0.000181796
29 *851:28 *2594:A2 5.33005e-05
30 *851:28 *2886:D 8.45319e-05
31 *851:28 *932:49 5.30637e-06
32 *851:32 *932:49 1.92905e-05
33 *851:36 *871:57 5.89394e-05
34 *851:38 *871:57 9.25014e-06
35 *851:38 *900:51 3.38861e-06
36 *851:110 *914:32 0.000140602
37 *2469:C1 *851:110 3.7929e-05
38 *2496:A *2888:D 9.71197e-05
39 *2590:B2 *851:12 9.93178e-05
40 *2591:B2 *2872:D 2.28598e-05
41 *2591:B2 *2904:D 0
42 *2591:B2 *3032:D 7.48091e-05
43 *2594:A1 *851:28 0.000125057
44 *2595:C *851:28 1.92789e-05
45 *2870:GATE_N *2888:D 3.32631e-05
46 *2886:GATE_N *851:28 0.00039051
47 *2902:GATE_N *2904:D 7.77751e-05
48 *2952:GATE_N *3080:D 0.000137983
49 *2982:GATE_N *851:28 0.000218206
50 *2982:GATE_N *851:32 5.52302e-05
51 *3030:GATE_N *2872:D 1.92905e-05
52 *3030:GATE_N *2904:D 0
53 *3030:GATE_N *3032:D 3.14078e-05
54 *3030:GATE_N *851:38 0
55 *535:14 *3080:D 0.00052833
56 *814:65 *3032:D 8.00315e-05
57 *818:100 *3016:D 2.6949e-05
58 *818:100 *851:34 5.1819e-05
59 *818:100 *851:36 0.000125447
60 *818:100 *851:38 3.20153e-05
61 *836:72 *3016:D 0.00011061
62 *836:72 *851:34 7.70698e-05
63 *836:72 *851:36 3.7671e-05
64 *836:76 *851:36 0.000124289
65 *836:76 *851:38 9.65075e-05
66 *836:88 *3032:D 0.000310355
*RES
1 *3160:X *851:6 9.83571 
2 *851:6 *851:12 8.89286 
3 *851:12 *851:28 19.25 
4 *851:28 *851:32 5.03571 
5 *851:32 *851:34 2.25 
6 *851:34 *851:36 4.98214 
7 *851:36 *851:38 2.85714 
8 *851:38 *2904:D 17.5321 
9 *851:38 *851:53 4.5 
10 *851:53 *3032:D 13.9429 
11 *851:53 *2872:D 9.83571 
12 *851:36 *3000:D 13.8 
13 *851:34 *2888:D 14.7464 
14 *851:32 *3016:D 18.425 
15 *851:28 *2984:D 9.3 
16 *851:12 *3096:D 9.3 
17 *851:6 *851:110 10.9464 
18 *851:110 *3080:D 14.3536 
19 *851:110 *2952:D 9.3 
*END

*D_NET *852 0.00862387
*CONN
*I *3160:A I *D sky130_fd_sc_hd__clkbuf_2
*I *2968:D I *D sky130_fd_sc_hd__dlxtn_1
*I *2856:D I *D sky130_fd_sc_hd__dlxtn_1
*I *2920:D I *D sky130_fd_sc_hd__dlxtn_1
*I *3048:D I *D sky130_fd_sc_hd__dlxtn_1
*I *3064:D I *D sky130_fd_sc_hd__dlxtn_1
*I *2936:D I *D sky130_fd_sc_hd__dlxtn_1
*I *3161:X O *D sky130_fd_sc_hd__dlymetal6s2s_1
*CAP
1 *3160:A 0.000261253
2 *2968:D 2.27214e-05
3 *2856:D 0.000157104
4 *2920:D 2.69596e-05
5 *3048:D 0.000148148
6 *3064:D 0
7 *2936:D 6.92459e-05
8 *3161:X 0.000115476
9 *852:57 0.000362407
10 *852:51 0.000270093
11 *852:38 0.000251745
12 *852:31 0.00124756
13 *852:19 0.00157856
14 *852:8 0.000289033
15 *2968:D *871:92 1.21258e-05
16 *3048:D *911:95 0
17 *3160:A *876:50 0
18 *3160:A *876:52 0
19 *852:8 *914:34 0
20 *852:19 *914:32 0
21 *852:31 *871:61 1.92905e-05
22 *852:31 *871:92 0.000354523
23 *852:38 *871:92 7.88669e-05
24 *852:51 *871:92 0.000128696
25 *852:57 *2568:B1 0.000147835
26 *852:57 *875:30 8.0087e-05
27 *2469:C1 *3160:A 0.000229151
28 *2469:C1 *852:19 7.6644e-05
29 *2587:A1 *852:57 0.000218272
30 *2587:B2 *852:57 7.62707e-05
31 *2588:A1 *2856:D 7.46326e-05
32 *2590:B2 *3160:A 0.000141204
33 *2595:A *2936:D 0.000312215
34 *2595:A *852:8 2.41354e-05
35 *2941:GATE_N *852:8 7.76099e-05
36 *2941:GATE_N *852:19 1.01487e-05
37 *2952:GATE_N *3160:A 2.12521e-05
38 *2952:GATE_N *852:19 6.42338e-05
39 *2952:GATE_N *852:31 2.59355e-05
40 *2968:GATE_N *3048:D 0
41 *2968:GATE_N *852:51 5.52302e-05
42 *2968:GATE_N *852:57 8.11028e-06
43 *3071:GATE_N *852:31 1.92789e-05
44 *3080:D *852:31 4.70078e-05
45 *3179:A *2936:D 8.00315e-05
46 *535:14 *852:31 0.000467325
47 *630:20 *2856:D 0.000270302
48 *630:20 *2920:D 2.59355e-05
49 *809:68 *2968:D 2.59355e-05
50 *809:68 *852:31 4.88637e-05
51 *809:68 *852:38 0.000102197
52 *809:68 *852:51 0.000167998
53 *825:104 *2936:D 9.71197e-05
54 *838:61 *2856:D 0
55 *851:6 *3160:A 5.33005e-05
56 *851:12 *3160:A 0.000181796
*RES
1 *3161:X *852:8 16.05 
2 *852:8 *2936:D 16.8 
3 *852:8 *852:19 1.94643 
4 *852:19 *852:31 23.2857 
5 *852:31 *3064:D 9.3 
6 *852:31 *852:38 1.76786 
7 *852:38 *3048:D 20.55 
8 *852:38 *852:51 3 
9 *852:51 *852:57 13.9821 
10 *852:57 *2920:D 9.83571 
11 *852:57 *2856:D 14.3714 
12 *852:51 *2968:D 9.83571 
13 *852:19 *3160:A 19.9607 
*END

*D_NET *853 0.0184156
*CONN
*I *3079:D I *D sky130_fd_sc_hd__dlxtn_1
*I *3047:D I *D sky130_fd_sc_hd__dlxtn_1
*I *3015:D I *D sky130_fd_sc_hd__dlxtn_1
*I *2983:D I *D sky130_fd_sc_hd__dlxtn_1
*I *2871:D I *D sky130_fd_sc_hd__dlxtn_1
*I *2999:D I *D sky130_fd_sc_hd__dlxtn_1
*I *2903:D I *D sky130_fd_sc_hd__dlxtn_1
*I *2887:D I *D sky130_fd_sc_hd__dlxtn_1
*I *3031:D I *D sky130_fd_sc_hd__dlxtn_1
*I *3095:D I *D sky130_fd_sc_hd__dlxtn_1
*I *3162:X O *D sky130_fd_sc_hd__clkbuf_2
*CAP
1 *3079:D 0
2 *3047:D 1.78392e-05
3 *3015:D 2.23854e-05
4 *2983:D 0
5 *2871:D 0
6 *2999:D 0.000248334
7 *2903:D 0.000100641
8 *2887:D 0
9 *3031:D 0.000219718
10 *3095:D 0.000112965
11 *3162:X 0
12 *853:133 0.00244183
13 *853:102 0.00258547
14 *853:76 0.000382382
15 *853:61 0.000523211
16 *853:59 0.000410307
17 *853:37 0.000544953
18 *853:33 0.000752015
19 *853:31 0.00160341
20 *853:21 0.00149187
21 *853:6 0.000203005
22 *3095:D *920:23 5.03894e-05
23 *853:21 *920:23 2.35849e-05
24 *853:37 *2582:B1 5.52302e-05
25 *853:59 *922:32 0.000126439
26 *853:76 *904:56 0
27 *853:133 *2579:A2 1.93192e-05
28 *853:133 *2621:A2 1.66856e-05
29 *853:133 *2621:B1 1.74352e-05
30 *853:133 *854:59 0.000649011
31 *853:133 *889:94 0.000141875
32 *853:133 *914:97 6.07526e-05
33 *2576:A1 *853:133 0.000180777
34 *2578:B2 *853:133 0.000315158
35 *2579:A1 *853:133 7.72379e-05
36 *2579:B2 *853:133 8.67774e-06
37 *2580:B2 *3031:D 9.77423e-05
38 *2580:B2 *853:76 0.000223592
39 *2581:B2 *853:61 6.72779e-05
40 *2582:A1 *853:37 6.87574e-05
41 *2582:B2 *853:59 2.56601e-05
42 *2582:B2 *853:61 0.000121263
43 *2583:A1 *853:33 0.000136958
44 *2583:B1 *853:33 5.52302e-05
45 *2584:A *853:31 0.000292517
46 *2584:A *853:102 1.15281e-05
47 *2584:A *853:133 0.000191765
48 *2584:B *853:31 1.15281e-05
49 *2621:A1 *853:133 0.00021914
50 *2621:B2 *853:133 7.70134e-06
51 *2621:C1 *853:133 4.87854e-05
52 *2626:B2 *853:31 0.00010096
53 *2627:B1 *853:31 5.52238e-05
54 *2848:GATE_N *853:133 0.000354098
55 *2987:D *853:31 0.000186662
56 *2987:GATE_N *853:31 0.000358977
57 *3015:GATE_N *853:31 9.71197e-05
58 *3031:GATE_N *3031:D 0.000135785
59 *3031:GATE_N *853:37 6.31627e-05
60 *3049:GATE_N *853:31 9.46929e-05
61 *3049:GATE_N *853:102 1.5424e-05
62 *3162:A *853:102 0.000186662
63 *809:119 *853:133 0.000178865
64 *809:123 *853:133 0.000519522
65 *811:78 *3095:D 5.42011e-05
66 *811:78 *853:21 1.49363e-05
67 *825:18 *853:133 1.96078e-05
68 *825:45 *853:133 9.22103e-06
69 *833:20 *2903:D 5.20669e-05
70 *833:30 *3031:D 0.000140088
71 *836:26 *2999:D 0.000144565
72 *836:43 *2999:D 4.89999e-05
73 *836:43 *853:76 0.000176913
74 *838:31 *853:133 0.000425537
*RES
1 *3162:X *853:6 13.8 
2 *853:6 *3095:D 16.2821 
3 *853:6 *853:21 5.83929 
4 *853:21 *853:31 22.5893 
5 *853:31 *853:33 5.05357 
6 *853:33 *853:37 5.89286 
7 *853:37 *3031:D 14.3536 
8 *853:37 *2887:D 9.3 
9 *853:33 *853:59 11.6071 
10 *853:59 *853:61 5.46429 
11 *853:61 *2903:D 11.0679 
12 *853:61 *853:76 12.8036 
13 *853:76 *2999:D 14.3536 
14 *853:76 *2871:D 9.3 
15 *853:59 *2983:D 9.3 
16 *853:31 *3015:D 9.72857 
17 *853:21 *853:102 2.58929 
18 *853:102 *3047:D 9.72857 
19 *853:102 *853:133 47.3571 
20 *853:133 *3079:D 9.3 
*END

*D_NET *854 0.00957963
*CONN
*I *2951:D I *D sky130_fd_sc_hd__dlxtn_1
*I *2855:D I *D sky130_fd_sc_hd__dlxtn_1
*I *2967:D I *D sky130_fd_sc_hd__dlxtn_1
*I *2935:D I *D sky130_fd_sc_hd__dlxtn_1
*I *3063:D I *D sky130_fd_sc_hd__dlxtn_1
*I *2919:D I *D sky130_fd_sc_hd__dlxtn_1
*I *3163:X O *D sky130_fd_sc_hd__buf_1
*CAP
1 *2951:D 0
2 *2855:D 0.00018452
3 *2967:D 0
4 *2935:D 0
5 *3063:D 0
6 *2919:D 7.65303e-05
7 *3163:X 0
8 *854:59 0.00046083
9 *854:44 0.000393505
10 *854:40 0.0019157
11 *854:10 0.000222966
12 *854:4 0.00194494
13 *2855:D *2673:A1 0.000448717
14 *2855:D *2673:S 0.0001004
15 *2919:D *2600:A2 0.000229
16 *854:10 *2600:A2 0.000226492
17 *854:40 *2623:A2 0.000246053
18 *854:40 *882:20 0
19 *854:40 *914:107 4.55244e-05
20 *854:44 *882:20 0
21 *854:44 *891:34 7.20159e-05
22 *854:59 *2673:A1 4.47339e-05
23 *854:59 *2673:S 1.58163e-05
24 *854:59 *930:31 0.000217756
25 *2577:A1 *2855:D 2.65133e-05
26 *2623:A1 *854:40 0.000179745
27 *2629:B2 *854:40 7.247e-05
28 *2629:B2 *854:44 2.06178e-05
29 *2855:GATE_N *2855:D 9.90431e-05
30 *2939:D *854:40 7.15846e-05
31 *2951:GATE_N *854:40 4.53889e-05
32 *2955:GATE_N *854:40 0.000219711
33 *3083:GATE_N *854:10 2.59355e-05
34 *3083:GATE_N *854:40 1.98839e-05
35 *3099:GATE_N *854:40 3.14163e-05
36 *3163:A *2919:D 0.000180412
37 *3163:A *854:10 0.000146896
38 *377:14 *2919:D 5.88389e-05
39 *655:16 *854:40 3.40043e-05
40 *807:20 *854:59 9.10431e-06
41 *822:30 *854:59 0.000187541
42 *825:12 *854:10 1.19402e-05
43 *825:18 *854:10 1.37429e-05
44 *838:31 *854:59 0.00023155
45 *844:95 *854:40 1.40131e-05
46 *844:102 *854:40 0.000130502
47 *845:19 *854:40 0.000200483
48 *845:31 *854:40 5.37828e-05
49 *853:133 *854:59 0.000649011
*RES
1 *3163:X *854:4 9.3 
2 *854:4 *854:10 8.0625 
3 *854:10 *2919:D 16.7911 
4 *854:10 *3063:D 13.8 
5 *854:4 *854:40 30.1786 
6 *854:40 *854:44 6.75 
7 *854:44 *2935:D 9.3 
8 *854:44 *854:59 18.6786 
9 *854:59 *2967:D 9.3 
10 *854:59 *2855:D 15.3357 
11 *854:40 *2951:D 13.8 
*END

*D_NET *855 0.015797
*CONN
*I *2918:D I *D sky130_fd_sc_hd__dlxtn_1
*I *3078:D I *D sky130_fd_sc_hd__dlxtn_1
*I *2950:D I *D sky130_fd_sc_hd__dlxtn_1
*I *2902:D I *D sky130_fd_sc_hd__dlxtn_1
*I *2982:D I *D sky130_fd_sc_hd__dlxtn_1
*I *2886:D I *D sky130_fd_sc_hd__dlxtn_1
*I *2870:D I *D sky130_fd_sc_hd__dlxtn_1
*I *2998:D I *D sky130_fd_sc_hd__dlxtn_1
*I *3030:D I *D sky130_fd_sc_hd__dlxtn_1
*I *3014:D I *D sky130_fd_sc_hd__dlxtn_1
*I *3164:X O *D sky130_fd_sc_hd__clkbuf_2
*CAP
1 *2918:D 0
2 *3078:D 0
3 *2950:D 5.98895e-05
4 *2902:D 0
5 *2982:D 0.000203588
6 *2886:D 6.53493e-05
7 *2870:D 4.45249e-05
8 *2998:D 2.91823e-05
9 *3030:D 0.000152641
10 *3014:D 0.000191754
11 *3164:X 0
12 *855:152 0.00155185
13 *855:121 0.00170732
14 *855:115 0.000267565
15 *855:82 0.000347395
16 *855:71 0.000361534
17 *855:56 0.000423352
18 *855:43 0.000308259
19 *855:24 0.000283779
20 *855:20 0.0014328
21 *855:4 0.00151277
22 *2870:D *2572:A2 5.23057e-05
23 *2950:D *2468:B1 0.000151006
24 *2982:D *2571:A2 1.58163e-05
25 *2982:D *2572:A2 0
26 *2982:D *875:43 5.33005e-05
27 *2982:D *904:142 0.000247771
28 *2982:D *906:18 0
29 *2998:D *2591:A2 1.92789e-05
30 *3030:D *2569:A2 7.50473e-05
31 *3030:D *2569:B1 0.00018372
32 *3030:D *2591:A2 4.94455e-05
33 *855:20 *1044:DIODE 0.000117621
34 *855:20 *2672:A0 0.000183713
35 *855:56 *2591:A2 5.85135e-05
36 *855:71 *2570:B1 4.54039e-05
37 *855:71 *904:142 0.000252586
38 *855:82 *2572:A2 0
39 *855:82 *904:142 0.000142725
40 *855:152 *2466:A2 9.25014e-06
41 *855:152 *2468:B1 0.000351745
42 *855:152 *2567:A2 0.00018372
43 *855:152 *2568:B1 2.59355e-05
44 *855:152 *2587:A2 0.00040279
45 *855:152 *2588:B1 8.68665e-05
46 *855:152 *2957:D 0.000140859
47 *855:152 *872:42 4.0434e-05
48 *855:152 *894:29 7.03773e-05
49 *855:152 *894:31 4.43256e-05
50 *2466:A1 *855:152 0.000110821
51 *2468:B2 *855:20 0.000269428
52 *2475:B2 *855:152 0.000111763
53 *2496:A *2870:D 0.000227532
54 *2567:B2 *855:152 7.56915e-05
55 *2568:C1 *855:152 3.14078e-05
56 *2569:A1 *3030:D 0
57 *2569:A1 *855:20 4.58976e-05
58 *2569:A1 *855:24 0.000188586
59 *2570:A1 *855:20 6.78055e-06
60 *2570:C1 *3030:D 0
61 *2570:C1 *855:56 0
62 *2573:A *855:115 0.00013768
63 *2588:A1 *855:152 0
64 *2588:C1 *855:152 0.000296821
65 *2592:A1 *3014:D 1.15172e-05
66 *2592:A1 *855:56 0
67 *2592:A1 *855:71 0
68 *2595:C *855:71 0.000215242
69 *2595:C *855:82 0.000102277
70 *2870:GATE_N *2870:D 9.60939e-05
71 *2902:GATE_N *3014:D 0.000237743
72 *2902:GATE_N *855:24 0.000142856
73 *2934:GATE_N *855:20 0.000168322
74 *2941:GATE_N *855:20 0.000315165
75 *3161:A *855:20 0.000127439
76 *3164:A *855:20 0.000110441
77 *3179:A *2950:D 3.72932e-05
78 *3179:A *855:152 2.51343e-06
79 *3183:A *855:152 0.000173384
80 *377:14 *855:121 0.000138634
81 *381:10 *855:20 1.03968e-05
82 *822:60 *855:152 1.79065e-05
83 *822:78 *855:152 0.000320657
84 *829:65 *855:121 3.40301e-05
85 *851:28 *2886:D 8.45319e-05
*RES
1 *3164:X *855:4 9.3 
2 *855:4 *855:20 31.4643 
3 *855:20 *855:24 3.01786 
4 *855:24 *3014:D 13.425 
5 *855:24 *855:43 4.5 
6 *855:43 *3030:D 17.5143 
7 *855:43 *855:56 3.16071 
8 *855:56 *2998:D 14.3357 
9 *855:56 *855:71 5.64286 
10 *855:71 *2870:D 15.9786 
11 *855:71 *855:82 1.94643 
12 *855:82 *2886:D 15.175 
13 *855:82 *2982:D 17.4964 
14 *855:20 *2902:D 9.3 
15 *855:4 *855:115 3.55357 
16 *855:115 *855:121 10.9464 
17 *855:121 *2950:D 11.0857 
18 *855:121 *855:152 41.4732 
19 *855:152 *3078:D 9.3 
20 *855:115 *2918:D 9.3 
*END

*D_NET *856 0.00982629
*CONN
*I *2966:D I *D sky130_fd_sc_hd__dlxtn_1
*I *3046:D I *D sky130_fd_sc_hd__dlxtn_1
*I *3094:D I *D sky130_fd_sc_hd__dlxtn_1
*I *2854:D I *D sky130_fd_sc_hd__dlxtn_1
*I *3062:D I *D sky130_fd_sc_hd__dlxtn_1
*I *2934:D I *D sky130_fd_sc_hd__dlxtn_1
*I *3165:X O *D sky130_fd_sc_hd__buf_1
*CAP
1 *2966:D 0.000219164
2 *3046:D 7.43776e-05
3 *3094:D 4.24347e-05
4 *2854:D 0
5 *3062:D 0
6 *2934:D 7.9676e-05
7 *3165:X 0
8 *856:55 0.000218286
9 *856:47 0.000739418
10 *856:38 0.0014403
11 *856:8 0.000201244
12 *856:4 0.00114309
13 *2934:D *2661:A0 0.000165278
14 *2966:D *892:82 1.32552e-05
15 *2966:D *990:12 0.000120982
16 *3046:D *891:34 0.000115206
17 *3046:D *892:82 3.95407e-06
18 *3094:D *2565:A2 1.98839e-05
19 *3094:D *909:73 2.79421e-05
20 *856:38 *2666:A0 5.33978e-05
21 *856:38 *2667:A0 0.00035013
22 *856:38 *2845:D 9.90367e-05
23 *856:38 *990:12 0.000361681
24 *856:47 *2467:A2 0
25 *856:47 *872:42 6.58767e-05
26 *856:47 *990:12 0.000781965
27 *856:55 *2565:A2 0.000246059
28 *856:55 *909:73 6.61212e-05
29 *2467:A1 *856:38 0
30 *2475:A1 *856:38 5.71472e-05
31 *2475:B1 *856:47 0
32 *2475:B2 *856:47 1.90936e-05
33 *2565:B2 *856:55 1.24368e-05
34 *3062:GATE_N *2934:D 0.000121416
35 *3164:A *856:8 0.000399835
36 *3164:A *856:38 3.48705e-05
37 *3165:A *856:8 5.04841e-06
38 *376:8 *856:38 0.000560844
39 *377:14 *2934:D 1.23973e-05
40 *391:8 *856:38 0.000426049
41 *610:16 *856:8 0.00014631
42 *610:16 *856:38 0.000723437
43 *806:60 *3046:D 7.38652e-05
44 *807:43 *2966:D 0.000113446
45 *807:43 *856:47 0.000131365
46 *807:59 *3046:D 3.17148e-05
47 *807:59 *3094:D 5.33005e-05
48 *822:44 *2966:D 8.66063e-05
49 *822:60 *2966:D 0.000137983
50 *822:60 *3046:D 3.03664e-05
*RES
1 *3165:X *856:4 9.3 
2 *856:4 *856:8 4.55357 
3 *856:8 *2934:D 20.55 
4 *856:8 *3062:D 9.3 
5 *856:4 *856:38 31.6607 
6 *856:38 *2854:D 13.8 
7 *856:38 *856:47 10.1429 
8 *856:47 *856:55 7.64286 
9 *856:55 *3094:D 10.2464 
10 *856:55 *3046:D 20.6839 
11 *856:47 *2966:D 18.4607 
*END

*D_NET *857 0.000806541
*CONN
*I *2667:A1 I *D sky130_fd_sc_hd__mux2_1
*I *3260:X O *D sky130_fd_sc_hd__clkbuf_1
*CAP
1 *2667:A1 0.000225424
2 *3260:X 0.000225424
3 *2667:A1 *875:10 0.000123295
4 *791:16 *2667:A1 0.000232399
*RES
1 *3260:X *2667:A1 31.4214 
*END

*D_NET *858 0.0124866
*CONN
*I *2933:D I *D sky130_fd_sc_hd__dlxtn_1
*I *3061:D I *D sky130_fd_sc_hd__dlxtn_1
*I *2853:D I *D sky130_fd_sc_hd__dlxtn_1
*I *2965:D I *D sky130_fd_sc_hd__dlxtn_1
*I *2949:D I *D sky130_fd_sc_hd__dlxtn_1
*I *2885:D I *D sky130_fd_sc_hd__dlxtn_1
*I *2917:D I *D sky130_fd_sc_hd__dlxtn_1
*I *2901:D I *D sky130_fd_sc_hd__dlxtn_1
*I *3093:D I *D sky130_fd_sc_hd__dlxtn_1
*I *3045:D I *D sky130_fd_sc_hd__dlxtn_1
*I *3166:X O *D sky130_fd_sc_hd__clkbuf_2
*CAP
1 *2933:D 0.000147538
2 *3061:D 0
3 *2853:D 6.03604e-05
4 *2965:D 2.23854e-05
5 *2949:D 4.22497e-05
6 *2885:D 0.000198955
7 *2917:D 0.000136563
8 *2901:D 0
9 *3093:D 0
10 *3045:D 0.000114987
11 *3166:X 0.000481268
12 *858:58 0.000301274
13 *858:54 0.000235145
14 *858:52 0.000416281
15 *858:46 0.000594519
16 *858:40 0.00189238
17 *858:22 0.00193969
18 *858:20 0.000359306
19 *858:16 9.7726e-05
20 *858:14 0.000659468
21 *2853:D *887:104 5.52238e-05
22 *2885:D *2556:B1 0
23 *2885:D *896:138 0.00010096
24 *2885:D *920:177 3.24102e-05
25 *2933:D *887:104 0.000147835
26 *858:16 *887:104 8.32171e-05
27 *858:20 *2562:B1 7.80714e-06
28 *858:20 *887:104 0.00012501
29 *858:40 *2554:B1 0.000616982
30 *858:40 *915:79 0
31 *858:40 *930:10 5.52238e-05
32 *2554:A1 *858:40 9.90431e-05
33 *2554:B2 *2885:D 0.000113358
34 *2555:A1 *2885:D 3.14783e-05
35 *2555:A1 *2949:D 2.47697e-05
36 *2555:A1 *858:46 2.47697e-05
37 *2555:B2 *858:46 9.25014e-06
38 *2555:B2 *858:52 7.16452e-05
39 *2555:C1 *2885:D 1.94054e-05
40 *2555:C1 *858:46 1.68315e-05
41 *2556:A1 *858:52 3.18676e-05
42 *2562:A1 *858:14 3.5298e-05
43 *2562:B2 *858:14 2.47753e-05
44 *2562:B2 *858:20 5.01117e-05
45 *2563:B2 *858:14 3.92854e-05
46 *2564:B *858:14 5.52302e-05
47 *2639:A *858:40 0.000395345
48 *2640:B2 *858:40 0.000123373
49 *2853:GATE_N *858:22 0.000350136
50 *2860:GATE_N *2933:D 0
51 *2860:GATE_N *858:16 0
52 *2860:GATE_N *858:20 0
53 *2937:GATE_N *858:40 2.05413e-05
54 *2956:D *858:40 0.000118373
55 *3061:GATE_N *858:14 9.41642e-05
56 *3093:GATE_N *3045:D 4.92407e-05
57 *3118:A *858:40 1.48924e-05
58 *3171:A *858:20 1.18064e-05
59 *3225:A *858:40 0.000154876
60 *447:22 *858:40 2.04825e-05
61 *598:26 *2933:D 0.000121322
62 *601:12 *858:14 7.83659e-05
63 *806:60 *858:40 3.67124e-06
64 *809:12 *858:14 0.000222244
65 *809:165 *2885:D 0
66 *809:165 *2949:D 5.31101e-05
67 *822:14 *2853:D 2.32517e-05
68 *822:14 *858:22 1.90002e-05
69 *822:14 *858:40 8.25843e-06
70 *825:12 *2917:D 0
71 *825:12 *858:58 0
72 *826:20 *858:40 2.89965e-05
73 *826:47 *858:40 0.000125547
74 *826:47 *858:46 0.000121025
75 *826:47 *858:52 0.000175894
76 *826:47 *858:54 3.67257e-05
77 *827:10 *2933:D 0.000269428
78 *827:52 *858:40 1.90936e-05
79 *829:12 *2917:D 2.83284e-06
80 *829:32 *2917:D 4.40135e-05
81 *829:32 *3045:D 0
82 *829:32 *858:58 0
83 *833:177 *3045:D 0.000123295
84 *833:177 *858:58 1.02504e-05
85 *843:27 *858:40 7.51141e-05
*RES
1 *3166:X *858:14 29.3 
2 *858:14 *858:16 1.03571 
3 *858:16 *858:20 6.44643 
4 *858:20 *858:22 4.23214 
5 *858:22 *858:40 31.9907 
6 *858:40 *858:46 7 
7 *858:46 *858:52 9.67857 
8 *858:52 *858:54 0.946429 
9 *858:54 *858:58 7.35714 
10 *858:58 *3045:D 16.05 
11 *858:58 *3093:D 13.8 
12 *858:54 *2901:D 9.3 
13 *858:52 *2917:D 20.55 
14 *858:46 *2885:D 17.6036 
15 *858:40 *2949:D 19.0321 
16 *858:22 *2965:D 9.72857 
17 *858:20 *2853:D 10.675 
18 *858:16 *3061:D 13.8 
19 *858:14 *2933:D 18.3357 
*END

*D_NET *859 0.0217599
*CONN
*I *3166:A I *D sky130_fd_sc_hd__clkbuf_2
*I *3077:D I *D sky130_fd_sc_hd__dlxtn_1
*I *2997:D I *D sky130_fd_sc_hd__dlxtn_1
*I *2869:D I *D sky130_fd_sc_hd__dlxtn_1
*I *2981:D I *D sky130_fd_sc_hd__dlxtn_1
*I *3029:D I *D sky130_fd_sc_hd__dlxtn_1
*I *3013:D I *D sky130_fd_sc_hd__dlxtn_1
*I *3167:X O *D sky130_fd_sc_hd__clkbuf_2
*CAP
1 *3166:A 0.000881406
2 *3077:D 0.000152831
3 *2997:D 4.61065e-05
4 *2869:D 4.11474e-05
5 *2981:D 0
6 *3029:D 0
7 *3013:D 0.000114341
8 *3167:X 0
9 *859:103 0.00136488
10 *859:56 0.000230377
11 *859:54 0.000234038
12 *859:48 0.000197998
13 *859:44 0.000637129
14 *859:30 0.00310779
15 *859:4 0.00288626
16 *2869:D *2558:A2 2.79421e-05
17 *3013:D *900:30 4.66189e-05
18 *3013:D *932:29 8.59056e-05
19 *3077:D *2561:B1 0.000228136
20 *3077:D *863:44 4.21632e-05
21 *3166:A *915:79 0.000570218
22 *859:30 *2632:A2 8.7636e-06
23 *859:30 *2632:B1 1.81774e-05
24 *859:30 *2643:A 0.000373965
25 *859:30 *2910:D 9.79127e-05
26 *859:30 *3369:A 0.000320888
27 *859:30 *912:72 0.00108732
28 *859:30 *934:20 4.38243e-05
29 *859:44 *2637:A2 0.000781298
30 *859:44 *3369:A 0.000415851
31 *859:44 *899:12 7.69776e-06
32 *859:44 *904:36 2.13481e-06
33 *859:54 *2558:A2 2.79421e-05
34 *859:56 *900:30 5.62901e-05
35 *859:56 *932:29 8.5579e-05
36 *859:103 *2561:B1 1.90936e-05
37 *859:103 *863:44 4.26042e-05
38 *2486:B1 *859:30 3.0591e-05
39 *2559:C1 *2869:D 4.13496e-05
40 *2559:C1 *859:54 4.87953e-05
41 *2561:A1 *3077:D 0.000150625
42 *2561:B2 *3077:D 7.80915e-05
43 *2632:B2 *859:30 2.85551e-05
44 *2634:A1 *859:30 0.000219711
45 *2635:B2 *859:44 3.69047e-06
46 *2640:B1 *859:30 1.71872e-05
47 *2640:B1 *859:103 4.45768e-06
48 *2807:D *859:30 1.15172e-05
49 *2892:GATE_N *859:30 4.58764e-05
50 *2924:D *859:30 1.51217e-05
51 *2926:GATE_N *859:30 0.00186668
52 *2940:GATE_N *3077:D 0.00022459
53 *2978:GATE_N *859:54 0.000154517
54 *2978:GATE_N *859:56 9.25014e-06
55 *2988:D *859:44 2.47753e-05
56 *2988:GATE_N *859:44 6.62868e-05
57 *3013:GATE_N *3013:D 5.52238e-05
58 *3020:GATE_N *3013:D 3.4879e-05
59 *3167:A *859:30 9.41642e-05
60 *440:37 *3166:A 9.59532e-06
61 *446:20 *2997:D 0.000127949
62 *446:20 *859:48 8.81911e-05
63 *446:20 *859:54 0.000163828
64 *446:20 *859:56 4.5539e-05
65 *448:45 *859:103 0.000304394
66 *496:24 *859:44 1.90936e-05
67 *580:22 *3166:A 0.000141675
68 *580:22 *859:30 0.00278634
69 *581:12 *3166:A 5.7836e-06
70 *816:14 *2997:D 0.000135374
71 *816:14 *3013:D 4.08637e-05
72 *816:14 *859:48 8.6281e-05
73 *816:31 *3013:D 3.17148e-05
74 *828:37 *859:103 3.64479e-05
75 *830:42 *859:30 0.000226215
*RES
1 *3167:X *859:4 9.3 
2 *859:4 *859:30 46.9416 
3 *859:30 *859:44 20.7796 
4 *859:44 *859:48 5.6875 
5 *859:48 *859:54 7.69643 
6 *859:54 *859:56 2.85714 
7 *859:56 *3013:D 16.9964 
8 *859:56 *3029:D 13.8 
9 *859:54 *2981:D 13.8 
10 *859:48 *2869:D 10.2464 
11 *859:44 *2997:D 15.5946 
12 *859:4 *859:103 9.40179 
13 *859:103 *3077:D 18.9875 
14 *859:103 *3166:A 22.8175 
*END

*D_NET *860 0.0122029
*CONN
*I *3044:D I *D sky130_fd_sc_hd__dlxtn_1
*I *2932:D I *D sky130_fd_sc_hd__dlxtn_1
*I *2980:D I *D sky130_fd_sc_hd__dlxtn_1
*I *2868:D I *D sky130_fd_sc_hd__dlxtn_1
*I *2996:D I *D sky130_fd_sc_hd__dlxtn_1
*I *2900:D I *D sky130_fd_sc_hd__dlxtn_1
*I *3028:D I *D sky130_fd_sc_hd__dlxtn_1
*I *2884:D I *D sky130_fd_sc_hd__dlxtn_1
*I *3012:D I *D sky130_fd_sc_hd__dlxtn_1
*I *3092:D I *D sky130_fd_sc_hd__dlxtn_1
*I *3168:X O *D sky130_fd_sc_hd__clkbuf_2
*CAP
1 *3044:D 0
2 *2932:D 2.36299e-05
3 *2980:D 4.27988e-05
4 *2868:D 0
5 *2996:D 0.000220854
6 *2900:D 2.37855e-05
7 *3028:D 2.22847e-05
8 *2884:D 0.000188658
9 *3012:D 1.82337e-05
10 *3092:D 0.000152544
11 *3168:X 0.000146049
12 *860:91 0.000573361
13 *860:89 0.000493016
14 *860:56 0.000582813
15 *860:54 0.000674523
16 *860:50 0.000446988
17 *860:39 0.00127728
18 *860:16 0.00146655
19 *860:14 0.000320026
20 *860:10 0.000317077
21 *2932:D *869:16 1.74352e-05
22 *3012:D *926:47 5.33005e-05
23 *860:10 *889:34 0
24 *860:14 *889:34 0
25 *860:16 *869:16 0.000133802
26 *860:39 *869:16 0.000555872
27 *860:39 *869:51 0.000526407
28 *860:39 *926:47 0.000139913
29 *860:50 *926:47 5.27703e-06
30 *860:89 *926:39 4.8476e-05
31 *860:89 *926:47 3.72846e-05
32 *2506:A1 *860:39 0.000144773
33 *2545:B2 *860:14 4.57538e-05
34 *2548:B2 *860:56 0.000180348
35 *2549:A1 *860:50 6.19181e-05
36 *2549:A1 *860:54 9.41642e-05
37 *2549:B2 *860:50 0.000145406
38 *2549:B2 *860:89 0.000185045
39 *2549:B2 *860:91 7.02611e-05
40 *2550:A1 *860:39 0.000133386
41 *2551:B *2980:D 6.26078e-05
42 *2551:B *860:91 5.38242e-05
43 *2888:GATE_N *860:39 0.000232702
44 *2976:GATE_N *860:54 5.33005e-05
45 *2980:GATE_N *2980:D 0.000183726
46 *2980:GATE_N *860:91 9.71197e-05
47 *3008:GATE_N *860:39 9.7765e-05
48 *3012:GATE_N *3012:D 1.92905e-05
49 *3012:GATE_N *860:39 9.50348e-05
50 *3028:GATE_N *2884:D 2.42122e-05
51 *3028:GATE_N *860:56 9.95456e-05
52 *3162:A *860:10 4.88546e-05
53 *3215:A *860:10 1.33343e-05
54 *805:36 *3092:D 0
55 *811:70 *860:14 0.00039202
56 *811:78 *860:10 0
57 *818:61 *2996:D 0.000459848
58 *818:61 *860:91 0.000403603
59 *820:29 *860:89 2.49484e-05
60 *827:94 *3092:D 0
61 *827:94 *860:10 0.000192275
62 *833:30 *2884:D 7.54473e-05
63 *833:32 *2884:D 4.13122e-06
*RES
1 *3168:X *860:10 17.1036 
2 *860:10 *860:14 9.48214 
3 *860:14 *860:16 2.58929 
4 *860:16 *3092:D 20.55 
5 *860:16 *860:39 25.375 
6 *860:39 *3012:D 9.83571 
7 *860:39 *860:50 6.44643 
8 *860:50 *860:54 8.73214 
9 *860:54 *860:56 6.28571 
10 *860:56 *2884:D 21.7286 
11 *860:56 *3028:D 9.72857 
12 *860:54 *2900:D 9.72857 
13 *860:50 *860:89 7.66071 
14 *860:89 *860:91 8.33929 
15 *860:91 *2996:D 14.3536 
16 *860:91 *2868:D 9.3 
17 *860:89 *2980:D 11.0679 
18 *860:14 *2932:D 9.83571 
19 *860:10 *3044:D 13.8 
*END

*D_NET *861 0.0115814
*CONN
*I *2964:D I *D sky130_fd_sc_hd__dlxtn_1
*I *2852:D I *D sky130_fd_sc_hd__dlxtn_1
*I *3060:D I *D sky130_fd_sc_hd__dlxtn_1
*I *2948:D I *D sky130_fd_sc_hd__dlxtn_1
*I *3076:D I *D sky130_fd_sc_hd__dlxtn_1
*I *3168:A I *D sky130_fd_sc_hd__clkbuf_2
*I *2916:D I *D sky130_fd_sc_hd__dlxtn_1
*I *3169:X O *D sky130_fd_sc_hd__dlymetal6s2s_1
*CAP
1 *2964:D 8.58334e-05
2 *2852:D 5.61513e-05
3 *3060:D 0
4 *2948:D 3.72884e-05
5 *3076:D 5.549e-05
6 *3168:A 0.000175515
7 *2916:D 0.000193112
8 *3169:X 2.37855e-05
9 *861:95 0.0003243
10 *861:88 0.000711865
11 *861:69 0.000566838
12 *861:58 0.00220953
13 *861:10 0.000480717
14 *861:6 0.00228991
15 *2852:D *909:90 0.000172913
16 *2852:D *930:54 0.000172913
17 *2916:D *896:20 0.000171886
18 *3076:D *891:34 0.000175519
19 *3168:A *896:20 0.000178991
20 *861:58 *2502:A2 1.98839e-05
21 *861:58 *2502:B1 0.00018077
22 *861:58 *2508:A2 0.00018077
23 *861:58 *2848:D 0.000207018
24 *861:58 *3088:D 1.92905e-05
25 *861:58 *891:34 0.000151333
26 *861:58 *894:130 3.71441e-05
27 *861:88 *2543:B1 0.000431574
28 *861:88 *892:118 5.33005e-05
29 *861:95 *892:118 1.5424e-05
30 *2502:B2 *861:58 6.26774e-06
31 *2507:A *861:10 8.90314e-05
32 *2507:A *861:58 0.000317783
33 *2508:A1 *861:58 6.12902e-05
34 *2543:A1 *861:88 2.65242e-05
35 *2544:B2 *861:95 1.92789e-05
36 *2544:C1 *861:88 0.000112798
37 *2544:C1 *861:95 8.18868e-05
38 *2916:GATE_N *2916:D 7.29433e-05
39 *3060:GATE_N *861:88 0.00010096
40 *3215:A *3168:A 0.000225609
41 *585:10 *2916:D 0
42 *806:60 *3076:D 9.47456e-05
43 *806:60 *861:58 7.57773e-05
44 *809:35 *2964:D 0.000215096
45 *809:35 *861:95 0.000476709
46 *827:94 *3168:A 0.000225609
47 *829:36 *2916:D 0
48 *829:36 *3168:A 0
*RES
1 *3169:X *861:6 9.72857 
2 *861:6 *861:10 6.67857 
3 *861:10 *2916:D 17.8179 
4 *861:10 *3168:A 18.5321 
5 *861:6 *861:58 38.0893 
6 *861:58 *3076:D 16.05 
7 *861:58 *861:69 4.5 
8 *861:69 *2948:D 9.83571 
9 *861:69 *861:88 10.7857 
10 *861:88 *3060:D 9.3 
11 *861:88 *861:95 5.05357 
12 *861:95 *2852:D 20.55 
13 *861:95 *2964:D 11.4786 
*END

*D_NET *862 0.0148492
*CONN
*I *2915:D I *D sky130_fd_sc_hd__dlxtn_1
*I *2963:D I *D sky130_fd_sc_hd__dlxtn_1
*I *2947:D I *D sky130_fd_sc_hd__dlxtn_1
*I *2995:D I *D sky130_fd_sc_hd__dlxtn_1
*I *2883:D I *D sky130_fd_sc_hd__dlxtn_1
*I *2867:D I *D sky130_fd_sc_hd__dlxtn_1
*I *3027:D I *D sky130_fd_sc_hd__dlxtn_1
*I *3011:D I *D sky130_fd_sc_hd__dlxtn_1
*I *2899:D I *D sky130_fd_sc_hd__dlxtn_1
*I *2979:D I *D sky130_fd_sc_hd__dlxtn_1
*I *3170:X O *D sky130_fd_sc_hd__clkbuf_2
*CAP
1 *2915:D 9.73088e-05
2 *2963:D 0.000159517
3 *2947:D 0
4 *2995:D 0.000273009
5 *2883:D 0.000112455
6 *2867:D 1.18928e-05
7 *3027:D 0.000233089
8 *3011:D 4.93055e-06
9 *2899:D 0
10 *2979:D 4.56099e-05
11 *3170:X 0.000128177
12 *862:138 0.000292328
13 *862:131 9.49676e-05
14 *862:105 0.000549626
15 *862:83 0.000583372
16 *862:72 0.000375271
17 *862:66 0.000448629
18 *862:55 0.00039462
19 *862:40 0.00112069
20 *862:30 0.00272148
21 *862:6 0.00197615
22 *2963:D *920:177 3.67142e-05
23 *862:6 *3043:D 0.000268403
24 *862:30 *2559:A2 0
25 *862:30 *2637:B1 0
26 *862:30 *3043:D 0.000136951
27 *862:30 *3209:A 0.000102197
28 *862:40 *2536:B1 0
29 *862:40 *2602:A2 0
30 *862:40 *904:44 0
31 *862:66 *2602:A2 0
32 *2536:A1 *862:66 0
33 *2536:A1 *862:72 1.77749e-05
34 *2536:A1 *862:83 2.44541e-05
35 *2536:B2 *2979:D 9.83388e-05
36 *2536:B2 *862:40 0.000137561
37 *2537:B2 *2995:D 0
38 *2639:B *862:30 0.000154366
39 *2883:GATE_N *2883:D 5.46828e-05
40 *2892:GATE_N *862:30 5.62995e-05
41 *2899:GATE_N *2995:D 0.000208506
42 *2899:GATE_N *862:55 5.49544e-05
43 *2899:GATE_N *862:66 0.000193654
44 *2899:GATE_N *862:105 0.000144015
45 *2901:GATE_N *2915:D 0.000440718
46 *2901:GATE_N *862:30 0.000293092
47 *2901:GATE_N *862:138 9.41642e-05
48 *2942:GATE_N *862:131 0.000145241
49 *2963:GATE_N *2963:D 0.000121671
50 *2963:GATE_N *862:131 0.000145241
51 *3020:D *862:30 0.000147851
52 *3029:GATE_N *862:40 6.86693e-05
53 *3036:GATE_N *862:30 9.90367e-05
54 *3043:GATE_N *862:30 2.89114e-05
55 *3132:A *862:40 6.87476e-05
56 *3142:A *862:40 0.000227729
57 *3142:A *862:55 7.76078e-05
58 *3215:A *862:30 0
59 *446:20 *862:40 5.52238e-05
60 *496:24 *862:30 0.000190666
61 *499:22 *2963:D 6.94152e-05
62 *575:20 *862:30 0.000300186
63 *575:20 *862:40 5.66392e-05
64 *814:10 *862:40 5.52238e-05
65 *817:49 *862:55 0
66 *817:49 *862:83 0.000226867
67 *819:54 *2995:D 8.67064e-05
68 *826:47 *2915:D 0.000161921
69 *826:47 *862:138 3.14048e-05
70 *831:12 *862:40 0.000270679
71 *842:58 *862:30 7.35691e-05
*RES
1 *3170:X *862:6 11.8893 
2 *862:6 *862:30 49.3036 
3 *862:30 *862:40 26.375 
4 *862:40 *2979:D 10.2464 
5 *862:40 *862:55 11.7857 
6 *862:55 *2899:D 9.3 
7 *862:55 *862:66 9.125 
8 *862:66 *862:72 5.1875 
9 *862:72 *3011:D 9.45179 
10 *862:72 *862:83 5.45536 
11 *862:83 *3027:D 12.7286 
12 *862:83 *2867:D 9.72857 
13 *862:66 *862:105 2.91071 
14 *862:105 *2883:D 15.5679 
15 *862:105 *2995:D 19.2464 
16 *862:6 *862:131 10.9464 
17 *862:131 *2947:D 9.3 
18 *862:131 *862:138 0.946429 
19 *862:138 *2963:D 22.1036 
20 *862:138 *2915:D 13.5321 
*END

*D_NET *863 0.0148569
*CONN
*I *2931:D I *D sky130_fd_sc_hd__dlxtn_1
*I *2851:D I *D sky130_fd_sc_hd__dlxtn_1
*I *3091:D I *D sky130_fd_sc_hd__dlxtn_1
*I *3043:D I *D sky130_fd_sc_hd__dlxtn_1
*I *3170:A I *D sky130_fd_sc_hd__clkbuf_2
*I *3059:D I *D sky130_fd_sc_hd__dlxtn_1
*I *3075:D I *D sky130_fd_sc_hd__dlxtn_1
*I *3171:X O *D sky130_fd_sc_hd__clkbuf_2
*CAP
1 *2931:D 0
2 *2851:D 0.000216998
3 *3091:D 0
4 *3043:D 0.00015685
5 *3170:A 0
6 *3059:D 0
7 *3075:D 2.36895e-05
8 *3171:X 0.000348485
9 *863:64 0.000280765
10 *863:48 0.00314375
11 *863:44 0.00321882
12 *863:31 0.000325516
13 *863:16 0.00021561
14 *863:14 0.000270017
15 *863:6 0.000456402
16 *863:44 *2561:B1 1.37292e-05
17 *863:48 *2535:A2 1.89596e-05
18 *863:48 *2535:B1 0.000393949
19 *863:48 *2555:A2 8.7636e-06
20 *863:48 *2633:A2 6.44345e-05
21 *863:48 *2633:B1 0.000317082
22 *2532:A1 *863:14 0.000171368
23 *2533:A1 *863:6 2.59355e-05
24 *2533:B2 *2851:D 8.85712e-05
25 *2535:B2 *3043:D 0.000142856
26 *2535:B2 *863:48 0.000105656
27 *2555:B2 *863:48 6.26774e-06
28 *2560:A *863:48 1.39726e-05
29 *2560:C *863:48 7.77523e-05
30 *2561:A1 *863:44 0.000150625
31 *2633:A1 *863:48 0.000229456
32 *2640:B1 *863:31 8.2018e-05
33 *2930:GATE_N *863:14 3.17148e-05
34 *2940:GATE_N *863:48 0.000895501
35 *3052:GATE_N *863:48 1.00073e-05
36 *3077:D *863:44 4.21632e-05
37 *3091:GATE_N *863:16 0.000139913
38 *3091:GATE_N *863:64 4.18895e-05
39 *3118:A *863:31 0.00022495
40 *3118:A *863:44 0.000421697
41 *448:45 *863:31 0.000108179
42 *448:45 *863:44 4.08637e-05
43 *531:37 *2851:D 0.000511239
44 *531:37 *3075:D 5.52238e-05
45 *531:37 *863:16 0.000307343
46 *531:37 *863:64 0.000181796
47 *575:20 *3043:D 0.00012173
48 *597:22 *863:48 0.000102316
49 *828:37 *863:14 0.000146474
50 *829:12 *863:48 1.55953e-05
51 *829:32 *863:48 0.000271345
52 *842:50 *863:48 4.86461e-05
53 *843:46 *863:48 0.000122091
54 *859:103 *863:44 4.26042e-05
55 *862:6 *3043:D 0.000268403
56 *862:30 *3043:D 0.000136951
*RES
1 *3171:X *863:6 14.3536 
2 *863:6 *863:14 11.7857 
3 *863:14 *863:16 3 
4 *863:16 *3075:D 9.83571 
5 *863:16 *863:31 12.3929 
6 *863:31 *3059:D 9.3 
7 *863:31 *863:44 15.125 
8 *863:44 *863:48 39.1607 
9 *863:48 *3170:A 9.3 
10 *863:48 *3043:D 14.3714 
11 *863:14 *863:64 1.76786 
12 *863:64 *3091:D 9.3 
13 *863:64 *2851:D 14.3536 
14 *863:6 *2931:D 9.3 
*END

*D_NET *864 0.0234597
*CONN
*I *3042:D I *D sky130_fd_sc_hd__dlxtn_1
*I *3074:D I *D sky130_fd_sc_hd__dlxtn_1
*I *3026:D I *D sky130_fd_sc_hd__dlxtn_1
*I *2978:D I *D sky130_fd_sc_hd__dlxtn_1
*I *2898:D I *D sky130_fd_sc_hd__dlxtn_1
*I *2994:D I *D sky130_fd_sc_hd__dlxtn_1
*I *2882:D I *D sky130_fd_sc_hd__dlxtn_1
*I *2866:D I *D sky130_fd_sc_hd__dlxtn_1
*I *3010:D I *D sky130_fd_sc_hd__dlxtn_1
*I *3058:D I *D sky130_fd_sc_hd__dlxtn_1
*I *3172:X O *D sky130_fd_sc_hd__buf_2
*CAP
1 *3042:D 0.000148899
2 *3074:D 9.92381e-05
3 *3026:D 0.000281445
4 *2978:D 0
5 *2898:D 0
6 *2994:D 0.000277622
7 *2882:D 7.46298e-05
8 *2866:D 3.6713e-05
9 *3010:D 0.000134841
10 *3058:D 6.48264e-05
11 *3172:X 0.000697381
12 *864:107 0.000459166
13 *864:96 0.00026768
14 *864:83 0.000258894
15 *864:81 0.000257612
16 *864:79 0.000257612
17 *864:77 0.00253614
18 *864:51 0.00498177
19 *864:27 0.00315121
20 *864:21 0.000482663
21 *864:8 0.000771083
22 *3010:D *2525:B1 2.59355e-05
23 *3026:D *2526:A2 0.000178847
24 *3026:D *2528:A2 0.000118179
25 *3042:D *3090:D 3.17148e-05
26 *3042:D *865:60 0.000206814
27 *3074:D *2521:A2 6.22185e-06
28 *864:8 *865:31 4.13496e-05
29 *864:8 *865:35 0.000195396
30 *864:27 *2521:A2 3.69047e-06
31 *864:27 *3090:D 0.000146474
32 *864:51 *3054:D 0.000137983
33 *864:51 *866:70 1.83053e-05
34 *864:51 *866:80 0.00080826
35 *864:51 *874:8 7.65689e-05
36 *864:51 *891:14 1.42028e-05
37 *864:51 *893:37 4.50153e-05
38 *864:51 *895:50 9.18242e-05
39 *864:77 *874:8 0.000123331
40 *864:77 *874:17 6.25963e-05
41 *864:77 *905:22 8.77613e-05
42 *864:77 *907:26 0.000179745
43 *864:77 *933:28 3.69697e-05
44 *2436:A *864:51 4.13595e-05
45 *2477:B2 *864:77 1.65169e-05
46 *2484:A1 *864:77 0.000118205
47 *2484:C1 *864:77 0
48 *2485:C *864:77 0.000307343
49 *2511:B2 *864:51 5.71472e-05
50 *2512:A1 *864:51 4.69532e-05
51 *2514:A1 *864:51 0.000142856
52 *2518:D *864:77 0.000471756
53 *2522:C1 *864:27 0
54 *2523:B2 *864:8 8.46507e-06
55 *2525:A1 *864:81 0.000399176
56 *2526:C1 *864:81 0.000107309
57 *2527:B2 *2994:D 0
58 *2528:B1 *3026:D 0.000121573
59 *2530:B2 *864:77 6.74424e-06
60 *2866:GATE_N *2994:D 0.000108089
61 *2866:GATE_N *864:107 7.68634e-05
62 *2897:GATE_N *864:51 0.00090204
63 *2899:GATE_N *3010:D 0.000168939
64 *2962:GATE_N *3058:D 4.80865e-05
65 *2962:GATE_N *864:8 2.13481e-06
66 *2962:GATE_N *864:21 4.12921e-06
67 *3026:GATE_N *3026:D 5.33005e-05
68 *3074:GATE_N *864:51 1.98839e-05
69 *3089:GATE_N *864:51 7.77751e-05
70 *3091:GATE_N *3074:D 0
71 *3098:GATE_N *864:77 9.41642e-05
72 *3121:A *3058:D 0
73 *3121:A *864:8 0
74 *3123:A *3042:D 0
75 *3123:A *3074:D 8.07951e-05
76 *3123:A *864:27 0
77 *3133:A *3026:D 9.25014e-06
78 *3133:A *864:77 6.8194e-05
79 *3143:A *864:96 3.90513e-05
80 *3147:A *3026:D 7.94723e-05
81 *3147:A *864:77 2.63433e-05
82 *438:14 *864:77 0
83 *448:45 *3074:D 6.05161e-06
84 *448:45 *864:27 2.87555e-06
85 *448:45 *864:51 4.46231e-06
86 *449:14 *864:51 0.000386121
87 *805:84 *864:77 5.52238e-05
88 *815:39 *864:77 6.70515e-05
89 *821:26 *3010:D 1.83136e-05
90 *821:61 *864:77 0
91 *823:38 *864:51 0.000136958
92 *832:6 *2866:D 3.69047e-06
93 *832:10 *3010:D 9.25014e-06
94 *832:10 *864:96 0.000139653
95 *832:60 *2866:D 1.58163e-05
96 *832:60 *864:81 0.000208866
97 *834:16 *2882:D 0.000183022
98 *840:24 *864:77 0.000641864
*RES
1 *3172:X *864:8 17.8625 
2 *864:8 *3058:D 10.8804 
3 *864:8 *864:21 4.83036 
4 *864:21 *864:27 9.625 
5 *864:27 *864:51 43.1607 
6 *864:51 *864:77 46.8989 
7 *864:77 *864:79 4.5 
8 *864:79 *864:81 7.10714 
9 *864:81 *864:83 4.5 
10 *864:83 *3010:D 16.5857 
11 *864:83 *864:96 2.85714 
12 *864:96 *2866:D 14.3357 
13 *864:96 *864:107 2.25 
14 *864:107 *2882:D 15.5679 
15 *864:107 *2994:D 18.8357 
16 *864:81 *2898:D 9.3 
17 *864:79 *2978:D 9.3 
18 *864:77 *3026:D 20.675 
19 *864:27 *3074:D 20.4071 
20 *864:21 *3042:D 16.9607 
*END

*D_NET *865 0.00781383
*CONN
*I *2850:D I *D sky130_fd_sc_hd__dlxtn_1
*I *2962:D I *D sky130_fd_sc_hd__dlxtn_1
*I *2914:D I *D sky130_fd_sc_hd__dlxtn_1
*I *2946:D I *D sky130_fd_sc_hd__dlxtn_1
*I *3090:D I *D sky130_fd_sc_hd__dlxtn_1
*I *2930:D I *D sky130_fd_sc_hd__dlxtn_1
*I *3173:X O *D sky130_fd_sc_hd__buf_1
*CAP
1 *2850:D 0
2 *2962:D 0
3 *2914:D 0
4 *2946:D 0.000174699
5 *3090:D 0.000129332
6 *2930:D 8.82006e-05
7 *3173:X 0.00045088
8 *865:60 0.00129209
9 *865:35 0.00135049
10 *865:31 0.000153925
11 *865:16 0.00025829
12 *865:10 0.000570812
13 *2930:D *2522:B1 0.000173083
14 *2946:D *912:35 0.00021876
15 *865:16 *2522:B1 0.000209243
16 *865:60 *2522:A2 0
17 *865:60 *2524:A2 4.34948e-06
18 *865:60 *2524:B1 2.88066e-05
19 *2519:B1 *2946:D 0
20 *2521:B2 *2930:D 2.27416e-05
21 *2522:B2 *865:60 0
22 *2522:C1 *3090:D 0
23 *2522:C1 *865:60 0
24 *2523:A1 *865:16 0
25 *2524:A1 *865:60 7.29526e-05
26 *2524:B2 *865:60 8.67774e-06
27 *2524:C1 *865:60 0.000576112
28 *2530:A1 *865:10 3.07012e-05
29 *2850:GATE_N *865:10 0
30 *2962:GATE_N *865:35 8.90314e-05
31 *3042:D *3090:D 3.17148e-05
32 *3042:D *865:60 0.000206814
33 *3091:GATE_N *3090:D 1.92905e-05
34 *3123:A *865:60 0
35 *3125:A *865:60 2.88018e-06
36 *3134:A *2930:D 2.89114e-05
37 *3134:A *3090:D 2.59355e-05
38 *3213:A *2946:D 9.60875e-05
39 *561:20 *865:10 0.000218932
40 *561:20 *865:16 5.52302e-05
41 *565:20 *2946:D 1.92905e-05
42 *565:20 *865:60 0.000147157
43 *571:8 *865:10 0.000193171
44 *651:14 *2946:D 3.14048e-05
45 *810:12 *865:60 0
46 *830:16 *2946:D 5.71472e-05
47 *830:16 *865:60 0.000252106
48 *839:60 *2930:D 5.72433e-05
49 *839:60 *865:10 1.39726e-05
50 *839:60 *865:16 7.01475e-05
51 *864:8 *865:31 4.13496e-05
52 *864:8 *865:35 0.000195396
53 *864:27 *3090:D 0.000146474
*RES
1 *3173:X *865:10 16.3357 
2 *865:10 *865:16 7.89286 
3 *865:16 *2930:D 16.5857 
4 *865:16 *865:31 5.44643 
5 *865:31 *865:35 7.91071 
6 *865:35 *3090:D 16.5857 
7 *865:35 *865:60 23.8393 
8 *865:60 *2946:D 22.6393 
9 *865:60 *2914:D 9.3 
10 *865:31 *2962:D 9.3 
11 *865:10 *2850:D 9.3 
*END

*D_NET *866 0.0103368
*CONN
*I *3041:D I *D sky130_fd_sc_hd__dlxtn_1
*I *2849:D I *D sky130_fd_sc_hd__dlxtn_1
*I *2913:D I *D sky130_fd_sc_hd__dlxtn_1
*I *3089:D I *D sky130_fd_sc_hd__dlxtn_1
*I *2897:D I *D sky130_fd_sc_hd__dlxtn_1
*I *2961:D I *D sky130_fd_sc_hd__dlxtn_1
*I *3057:D I *D sky130_fd_sc_hd__dlxtn_1
*I *2945:D I *D sky130_fd_sc_hd__dlxtn_1
*I *2929:D I *D sky130_fd_sc_hd__dlxtn_1
*I *3073:D I *D sky130_fd_sc_hd__dlxtn_1
*I *3174:X O *D sky130_fd_sc_hd__clkbuf_2
*CAP
1 *3041:D 4.1399e-05
2 *2849:D 0
3 *2913:D 0
4 *3089:D 0
5 *2897:D 0
6 *2961:D 0.000124832
7 *3057:D 1.49604e-05
8 *2945:D 7.2482e-05
9 *2929:D 9.35661e-05
10 *3073:D 0
11 *3174:X 0.000308629
12 *866:80 0.000523136
13 *866:70 0.00041382
14 *866:41 0.000166048
15 *866:39 9.86944e-05
16 *866:32 0.000202806
17 *866:26 0.00025272
18 *866:22 0.00033427
19 *866:16 0.00100453
20 *866:8 0.00113842
21 *2945:D *891:14 5.59013e-05
22 *2961:D *2514:A2 3.32631e-05
23 *2961:D *2643:A 0.000112412
24 *2961:D *910:52 9.71197e-05
25 *866:8 *2881:D 7.18374e-05
26 *866:8 *897:109 0
27 *866:8 *923:32 0.000165304
28 *866:8 *925:10 0.000166904
29 *866:16 *2610:A2 1.66856e-05
30 *866:16 *923:32 5.45756e-05
31 *866:70 *895:50 4.17433e-05
32 *866:80 *893:37 0.000440586
33 *866:80 *895:50 0.000303092
34 *2510:B2 *866:8 1.69115e-05
35 *2610:B2 *866:16 0.000350346
36 *2938:GATE_N *2961:D 0.000113383
37 *2938:GATE_N *866:80 0.000107667
38 *3057:GATE_N *3057:D 1.56e-05
39 *3057:GATE_N *866:39 3.32631e-05
40 *3139:A *3057:D 5.33005e-05
41 *3139:A *866:32 9.71197e-05
42 *3139:A *866:39 0.000266479
43 *3150:A *866:8 0
44 *3151:A *3041:D 5.76121e-05
45 *3151:A *866:8 0.000145868
46 *3196:A *866:22 6.53397e-05
47 *498:10 *3041:D 0.000186662
48 *806:39 *2929:D 0.000111527
49 *806:39 *2945:D 5.06883e-05
50 *808:66 *866:32 3.67142e-05
51 *808:66 *866:39 4.16984e-05
52 *810:20 *2929:D 4.38243e-05
53 *810:20 *2945:D 0.000168224
54 *810:22 *2929:D 1.20729e-05
55 *810:26 *2929:D 7.83174e-05
56 *812:47 *866:16 0
57 *826:12 *866:22 0.000366764
58 *826:12 *866:26 0.000113978
59 *826:12 *866:32 5.41797e-06
60 *826:16 *866:32 7.48955e-05
61 *828:29 *866:80 8.86413e-05
62 *830:26 *866:22 0.000114203
63 *830:26 *866:26 1.7845e-05
64 *830:30 *866:26 0.000102081
65 *830:30 *866:32 8.26195e-05
66 *839:31 *866:16 0.000118228
67 *839:43 *866:16 7.33786e-06
68 *839:43 *866:22 1.58163e-05
69 *864:51 *866:70 1.83053e-05
70 *864:51 *866:80 0.00080826
*RES
1 *3174:X *866:8 20.9071 
2 *866:8 *866:16 15.2143 
3 *866:16 *866:22 10.0179 
4 *866:22 *866:26 3.39286 
5 *866:26 *866:32 7.69643 
6 *866:32 *3073:D 9.3 
7 *866:32 *866:39 2.58929 
8 *866:39 *866:41 4.5 
9 *866:41 *2929:D 16.6571 
10 *866:41 *2945:D 16.05 
11 *866:39 *3057:D 9.83571 
12 *866:26 *866:70 5.03571 
13 *866:70 *866:80 13.5536 
14 *866:80 *2961:D 22.1036 
15 *866:80 *2897:D 9.3 
16 *866:70 *3089:D 9.3 
17 *866:22 *2913:D 13.8 
18 *866:16 *2849:D 9.3 
19 *866:8 *3041:D 15.5679 
*END

*D_NET *867 0.0156748
*CONN
*I *2993:D I *D sky130_fd_sc_hd__dlxtn_1
*I *3174:A I *D sky130_fd_sc_hd__clkbuf_2
*I *2881:D I *D sky130_fd_sc_hd__dlxtn_1
*I *2865:D I *D sky130_fd_sc_hd__dlxtn_1
*I *3025:D I *D sky130_fd_sc_hd__dlxtn_1
*I *2977:D I *D sky130_fd_sc_hd__dlxtn_1
*I *3009:D I *D sky130_fd_sc_hd__dlxtn_1
*I *3175:X O *D sky130_fd_sc_hd__clkbuf_2
*CAP
1 *2993:D 5.99684e-05
2 *3174:A 0
3 *2881:D 0.000189378
4 *2865:D 2.28813e-05
5 *3025:D 6.37215e-05
6 *2977:D 0
7 *3009:D 0.000109316
8 *3175:X 0.000119433
9 *867:90 0.00176974
10 *867:76 0.00359573
11 *867:47 0.00206995
12 *867:14 0.000371464
13 *867:12 0.000461919
14 *867:10 0.000231901
15 *867:8 0.000243547
16 *2865:D *922:22 0
17 *2881:D *2609:B1 4.98055e-06
18 *2881:D *925:10 0.00021427
19 *2993:D *922:14 5.41794e-05
20 *3009:D *2528:A2 0.000112195
21 *3009:D *907:56 3.32631e-05
22 *3009:D *927:79 0.000118963
23 *3025:D *2526:A2 9.71197e-05
24 *3025:D *927:60 0.000106517
25 *867:10 *922:14 9.91086e-05
26 *867:12 *922:14 3.17148e-05
27 *867:14 *2528:A2 0.000133253
28 *867:14 *927:79 8.23854e-05
29 *867:47 *922:14 5.33005e-05
30 *867:76 *2400:A 0.000189621
31 *867:76 *2413:C 2.84494e-05
32 *867:76 *2415:B_N 9.71197e-05
33 *867:76 *2415:D 5.52302e-05
34 *867:76 *2425:D_N 0.000221628
35 *867:76 *2433:B_N 5.52302e-05
36 *867:76 *3233:A 9.45399e-05
37 *867:76 *939:52 3.19202e-05
38 *867:76 *940:66 0.000129515
39 *867:76 *940:77 3.93986e-05
40 *867:76 *940:90 1.59689e-05
41 *867:76 *942:16 7.48091e-05
42 *867:76 *943:6 0.000227532
43 *867:76 *943:8 5.33005e-05
44 *867:76 *943:10 0.000155331
45 *867:76 *944:16 8.6229e-06
46 *867:90 *3218:A 0.000358977
47 *2414:A *867:47 9.60939e-05
48 *2414:A *867:76 0.00014285
49 *2426:A *3009:D 9.90431e-05
50 *2516:A1 *867:76 5.74499e-06
51 *2528:B1 *867:12 0
52 *2865:GATE_N *867:12 5.83304e-05
53 *2881:GATE_N *2881:D 5.7836e-06
54 *2993:GATE_N *2993:D 1.58163e-05
55 *3018:GATE_N *867:14 0.000331936
56 *3026:GATE_N *3025:D 5.52302e-05
57 *3034:D *867:76 5.52238e-05
58 *3136:A *2881:D 8.96561e-05
59 *3136:A *867:90 0.00024425
60 *3147:A *867:12 0
61 *3151:A *2881:D 1.02504e-05
62 *3157:A *867:90 2.32862e-05
63 *3175:A *2993:D 5.33005e-05
64 *3175:A *867:8 0.000186662
65 *3175:A *867:76 1.62539e-05
66 *3213:A *2881:D 0.000143446
67 *383:12 *867:76 4.22135e-06
68 *386:14 *867:76 0.000189181
69 *437:16 *867:12 6.27272e-06
70 *496:14 *867:76 7.32173e-05
71 *496:24 *867:76 2.89114e-05
72 *815:14 *867:76 9.71197e-05
73 *815:20 *867:12 7.48381e-05
74 *815:20 *867:76 0.000441737
75 *815:26 *867:12 9.69119e-06
76 *815:26 *867:14 6.8646e-06
77 *815:69 *3025:D 8.57023e-05
78 *821:18 *3009:D 9.25014e-06
79 *821:18 *867:14 0.000136375
80 *830:102 *867:90 0.000203967
81 *837:39 *3025:D 1.15281e-05
82 *837:39 *867:12 7.6644e-05
83 *848:23 *867:90 4.19624e-06
84 *848:71 *867:76 0.00022266
85 *866:8 *2881:D 7.18374e-05
*RES
1 *3175:X *867:8 15.5679 
2 *867:8 *867:10 1.33929 
3 *867:10 *867:12 3.46429 
4 *867:12 *867:14 6.80357 
5 *867:14 *3009:D 17.6036 
6 *867:14 *2977:D 13.8 
7 *867:12 *3025:D 15.9964 
8 *867:10 *867:47 5.44643 
9 *867:47 *2865:D 9.72857 
10 *867:47 *867:76 47.1161 
11 *867:76 *867:90 26.1699 
12 *867:90 *2881:D 23.2821 
13 *867:90 *3174:A 9.3 
14 *867:8 *2993:D 15.0679 
*END

*D_NET *868 0.0139645
*CONN
*I *2717:B2 I *D sky130_fd_sc_hd__o32a_1
*I *2709:A I *D sky130_fd_sc_hd__and3_1
*I *2404:A I *D sky130_fd_sc_hd__nand2_1
*I *2701:A1 I *D sky130_fd_sc_hd__a31o_1
*I *2716:A I *D sky130_fd_sc_hd__nor2_1
*I *2776:A1 I *D sky130_fd_sc_hd__a32o_1
*I *2396:A I *D sky130_fd_sc_hd__inv_2
*I *3261:X O *D sky130_fd_sc_hd__clkbuf_2
*CAP
1 *2717:B2 0
2 *2709:A 0.000109786
3 *2404:A 0.00010898
4 *2701:A1 0
5 *2716:A 0.000203592
6 *2776:A1 6.67088e-05
7 *2396:A 0.000122225
8 *3261:X 0.000725647
9 *868:73 0.000171438
10 *868:45 0.000460871
11 *868:39 0.000913378
12 *868:35 0.000987774
13 *868:33 0.000670239
14 *868:14 0.00130047
15 *2396:A *885:22 7.17136e-05
16 *2404:A *883:127 5.7661e-06
17 *2709:A *2464:B 0.000140933
18 *2709:A *947:27 9.69119e-06
19 *2709:A *947:38 3.4323e-06
20 *2716:A *2716:B 5.52238e-05
21 *2716:A *929:8 0.000142953
22 *2716:A *929:10 6.98302e-05
23 *868:14 *953:56 0
24 *868:14 *953:64 2.06413e-05
25 *868:14 *953:104 6.98762e-05
26 *868:33 *2717:A1 3.28941e-05
27 *868:33 *885:50 7.69776e-06
28 *868:35 *2441:B 9.91086e-05
29 *868:35 *2717:A3 1.94945e-05
30 *868:35 *947:38 0
31 *868:35 *947:51 0
32 *868:39 *950:70 0.000246263
33 *868:39 *1002:12 0.000251568
34 *868:39 *1002:27 7.69372e-05
35 *868:45 *929:10 8.48485e-05
36 *868:45 *1002:12 0.000215691
37 *2399:A *2716:A 7.69776e-06
38 *2691:B *868:39 0.000660547
39 *2695:C *2396:A 0.000266479
40 *2695:C *2709:A 2.30116e-06
41 *2695:C *868:33 1.68854e-05
42 *2695:C *868:35 8.63304e-05
43 *2699:B1 *868:39 0.000649127
44 *2699:C1 *2404:A 0.000266479
45 *2701:A3 *2404:A 5.33005e-05
46 *2707:C *2396:A 3.69697e-05
47 *2707:C *868:14 4.02462e-05
48 *2709:C *868:14 0
49 *2712:A *868:39 0.000760374
50 *2712:A *868:45 0.000388976
51 *2723:B *868:14 0
52 *2735:A1 *2396:A 1.37292e-05
53 *2735:A1 *868:14 5.34835e-05
54 *2776:A2 *2776:A1 2.80815e-05
55 *2776:A3 *2776:A1 9.41642e-05
56 *2778:A2 *868:39 5.23067e-05
57 *2779:A *2716:A 5.33005e-05
58 *2779:C *2716:A 3.71335e-05
59 *2779:D *2716:A 9.25014e-06
60 *2779:D *868:45 8.30045e-05
61 *2798:D *2404:A 1.32552e-05
62 *2803:D *868:14 9.59456e-05
63 *3242:A *868:73 0
64 *503:36 *2396:A 0.000137983
65 *672:26 *868:33 0.000532299
66 *672:65 *2404:A 1.40415e-05
67 *672:65 *868:73 2.86754e-05
68 *675:30 *2404:A 3.57181e-05
69 *675:30 *2709:A 0.000185643
70 *690:26 *868:39 7.13711e-05
71 *706:26 *868:14 0.000485373
72 *751:18 *2776:A1 0.000175892
73 *772:23 *2396:A 0.000121573
74 *772:23 *868:14 0.000276884
75 *772:56 *868:14 0.000468775
76 *772:67 *868:14 4.687e-05
77 *786:21 *868:14 7.37655e-05
78 *786:25 *868:14 3.0298e-05
79 *804:10 *2716:A 4.43157e-05
*RES
1 *3261:X *868:14 32.1214 
2 *868:14 *2396:A 18.0321 
3 *868:14 *868:33 16 
4 *868:33 *868:35 3.91964 
5 *868:35 *868:39 6.41173 
6 *868:39 *868:45 5.22103 
7 *868:45 *2776:A1 15.5679 
8 *868:45 *2716:A 18.4429 
9 *868:39 *868:73 8.79393 
10 *868:73 *2701:A1 9.3 
11 *868:73 *2404:A 12.7464 
12 *868:35 *2709:A 16.6839 
13 *868:33 *2717:B2 13.8 
*END

*D_NET *869 0.0138146
*CONN
*I *3088:D I *D sky130_fd_sc_hd__dlxtn_1
*I *3056:D I *D sky130_fd_sc_hd__dlxtn_1
*I *2944:D I *D sky130_fd_sc_hd__dlxtn_1
*I *3008:D I *D sky130_fd_sc_hd__dlxtn_1
*I *2880:D I *D sky130_fd_sc_hd__dlxtn_1
*I *2864:D I *D sky130_fd_sc_hd__dlxtn_1
*I *2976:D I *D sky130_fd_sc_hd__dlxtn_1
*I *3024:D I *D sky130_fd_sc_hd__dlxtn_1
*I *2992:D I *D sky130_fd_sc_hd__dlxtn_1
*I *2896:D I *D sky130_fd_sc_hd__dlxtn_1
*I *3176:X O *D sky130_fd_sc_hd__clkbuf_2
*CAP
1 *3088:D 0.00020599
2 *3056:D 0.000267951
3 *2944:D 0.000121223
4 *3008:D 0
5 *2880:D 0
6 *2864:D 0
7 *2976:D 0.000295111
8 *3024:D 0
9 *2992:D 8.94367e-05
10 *2896:D 0.000115165
11 *3176:X 0
12 *869:102 0.00110641
13 *869:59 0.000466519
14 *869:51 0.000280615
15 *869:37 0.000223113
16 *869:20 0.000336386
17 *869:16 0.00198178
18 *869:6 0.00210802
19 *869:4 0.000834246
20 *2896:D *2505:B1 2.89114e-05
21 *2944:D *2546:A2 1.24381e-05
22 *2944:D *3072:D 0.000118986
23 *2944:D *870:21 4.66511e-05
24 *2976:D *926:88 7.70534e-05
25 *2992:D *900:116 0.000534222
26 *2992:D *932:132 0.000241182
27 *3088:D *2848:D 4.12365e-05
28 *3088:D *2912:D 0.000162663
29 *869:6 *2546:A2 0.000129595
30 *869:6 *3072:D 1.92905e-05
31 *869:16 *3072:D 4.38942e-05
32 *869:16 *914:16 0.00021081
33 *869:16 *914:32 9.90431e-05
34 *869:20 *904:142 0
35 *869:20 *906:16 0.000149421
36 *869:37 *2505:B1 4.46618e-05
37 *869:37 *900:116 5.33005e-05
38 *869:37 *904:121 6.0299e-05
39 *869:37 *904:142 0
40 *869:37 *906:16 0.000231912
41 *869:37 *932:132 1.21258e-05
42 *869:59 *926:88 5.75147e-05
43 *869:59 *926:90 0
44 *869:102 *2546:A2 9.7659e-05
45 *869:102 *2912:D 1.02504e-05
46 *869:102 *909:27 0
47 *2499:A1 *3056:D 2.89114e-05
48 *2503:A1 *869:16 1.39726e-05
49 *2503:A1 *869:51 4.16984e-05
50 *2503:B2 *2976:D 0.000181796
51 *2503:B2 *869:59 0.000124425
52 *2506:B1 *2896:D 3.97657e-05
53 *2546:B2 *869:16 1.65169e-05
54 *2549:A1 *2976:D 1.24368e-05
55 *2896:GATE_N *869:37 2.06178e-05
56 *2923:GATE_N *3088:D 0.000129842
57 *2923:GATE_N *869:102 3.30352e-05
58 *2932:D *869:16 1.74352e-05
59 *3008:GATE_N *869:51 0.000296842
60 *3072:GATE_N *869:16 3.32631e-05
61 *3177:A *869:6 9.22103e-06
62 *3177:A *869:16 2.64832e-05
63 *377:14 *2944:D 0.000116911
64 *385:12 *2944:D 0
65 *809:58 *3056:D 5.41609e-05
66 *818:100 *869:59 8.4525e-05
67 *822:95 *3088:D 0.000127107
68 *822:95 *869:102 4.35131e-05
69 *829:129 *869:102 0.000118581
70 *836:68 *2976:D 9.3111e-05
71 *860:16 *869:16 0.000133802
72 *860:39 *869:16 0.000555872
73 *860:39 *869:51 0.000526407
74 *861:58 *3088:D 1.92905e-05
*RES
1 *3176:X *869:4 9.3 
2 *869:4 *869:6 3 
3 *869:6 *869:16 27.4107 
4 *869:16 *869:20 6.44643 
5 *869:20 *2896:D 15.9964 
6 *869:20 *869:37 8.19643 
7 *869:37 *2992:D 14.3536 
8 *869:37 *3024:D 9.3 
9 *869:16 *869:51 5.05357 
10 *869:51 *869:59 13.0179 
11 *869:59 *2976:D 15.2107 
12 *869:59 *2864:D 9.3 
13 *869:51 *2880:D 9.3 
14 *869:16 *3008:D 9.3 
15 *869:6 *2944:D 21.4607 
16 *869:4 *869:102 13.0536 
17 *869:102 *3056:D 18.4429 
18 *869:102 *3088:D 19.3179 
*END

*D_NET *870 0.00566939
*CONN
*I *2928:D I *D sky130_fd_sc_hd__dlxtn_1
*I *2960:D I *D sky130_fd_sc_hd__dlxtn_1
*I *2848:D I *D sky130_fd_sc_hd__dlxtn_1
*I *2912:D I *D sky130_fd_sc_hd__dlxtn_1
*I *3040:D I *D sky130_fd_sc_hd__dlxtn_1
*I *3072:D I *D sky130_fd_sc_hd__dlxtn_1
*I *3177:X O *D sky130_fd_sc_hd__buf_1
*CAP
1 *2928:D 0.000142602
2 *2960:D 0
3 *2848:D 0.000465471
4 *2912:D 6.55028e-05
5 *3040:D 0
6 *3072:D 0.000140439
7 *3177:X 0.000409248
8 *870:31 0.000749807
9 *870:25 0.000515927
10 *870:21 0.000472977
11 *870:8 0.00058297
12 *2848:D *894:130 6.05161e-06
13 *3072:D *2546:A2 5.15925e-05
14 *2501:B2 *870:8 0.000219289
15 *2501:B2 *870:25 0.000358977
16 *2502:A1 *870:25 2.27416e-05
17 *2502:B2 *2928:D 0
18 *2502:C1 *2928:D 0
19 *2502:C1 *870:25 7.15962e-05
20 *2923:GATE_N *2912:D 0.00017273
21 *2928:GATE_N *2928:D 4.1331e-06
22 *2944:D *3072:D 0.000118986
23 *2944:D *870:21 4.66511e-05
24 *2944:GATE_N *870:8 7.1271e-05
25 *2971:GATE_N *870:25 2.27416e-05
26 *2971:GATE_N *870:31 3.65069e-05
27 *3088:D *2848:D 4.12365e-05
28 *3088:D *2912:D 0.000162663
29 *3177:A *3072:D 0.000178425
30 *377:14 *2928:D 7.55185e-05
31 *809:119 *2848:D 0
32 *822:95 *2848:D 0.000125828
33 *822:95 *870:31 3.55279e-05
34 *829:53 *870:8 2.15245e-05
35 *861:58 *2848:D 0.000207018
36 *869:6 *3072:D 1.92905e-05
37 *869:16 *3072:D 4.38942e-05
38 *869:102 *2912:D 1.02504e-05
*RES
1 *3177:X *870:8 18.8536 
2 *870:8 *3072:D 17.2107 
3 *870:8 *870:21 0.732143 
4 *870:21 *870:25 11.1964 
5 *870:25 *870:31 3.85714 
6 *870:31 *3040:D 9.3 
7 *870:31 *2912:D 20.55 
8 *870:31 *2848:D 27.1571 
9 *870:25 *2960:D 9.3 
10 *870:21 *2928:D 16.6571 
*END

*D_NET *871 0.0231218
*CONN
*I *2879:D I *D sky130_fd_sc_hd__dlxtn_1
*I *2895:D I *D sky130_fd_sc_hd__dlxtn_1
*I *2991:D I *D sky130_fd_sc_hd__dlxtn_1
*I *2975:D I *D sky130_fd_sc_hd__dlxtn_1
*I *3039:D I *D sky130_fd_sc_hd__dlxtn_1
*I *3055:D I *D sky130_fd_sc_hd__dlxtn_1
*I *3071:D I *D sky130_fd_sc_hd__dlxtn_1
*I *3023:D I *D sky130_fd_sc_hd__dlxtn_1
*I *2863:D I *D sky130_fd_sc_hd__dlxtn_1
*I *3007:D I *D sky130_fd_sc_hd__dlxtn_1
*I *3178:X O *D sky130_fd_sc_hd__buf_2
*CAP
1 *2879:D 0.000200109
2 *2895:D 0
3 *2991:D 0.000372198
4 *2975:D 4.35831e-05
5 *3039:D 0.000307692
6 *3055:D 0
7 *3071:D 0
8 *3023:D 0
9 *2863:D 0
10 *3007:D 0.000220107
11 *3178:X 5.54804e-05
12 *871:133 0.000406004
13 *871:129 0.000362978
14 *871:118 0.000536707
15 *871:92 0.00205507
16 *871:61 0.00207063
17 *871:57 0.00226378
18 *871:38 0.00233546
19 *871:12 0.000278166
20 *871:10 0.000540151
21 *871:8 0.000506695
22 *2879:D *875:110 0.000185124
23 *3007:D *2494:B1 0
24 *3039:D *2501:B1 1.58163e-05
25 *3039:D *2911:D 0.00026695
26 *3039:D *892:31 5.33005e-05
27 *3039:D *911:99 0
28 *871:10 *2471:B1 0.00012401
29 *871:10 *875:62 1.59347e-05
30 *871:38 *2471:A2 4.79931e-05
31 *871:38 *2471:B1 2.89016e-05
32 *871:57 *2568:A2 0.000826537
33 *871:57 *911:99 0
34 *871:57 *999:18 0
35 *871:92 *2467:A2 8.37135e-05
36 *871:92 *2567:A2 7.57946e-05
37 *871:92 *2588:A2 3.28686e-05
38 *871:118 *2471:B1 0.000164407
39 *871:118 *2472:A2 6.81704e-05
40 *2470:A1 *3007:D 1.83053e-05
41 *2471:B2 *871:38 1.26529e-05
42 *2471:C1 *3007:D 0.000170301
43 *2471:C1 *871:10 4.73656e-05
44 *2471:C1 *871:12 0.00016648
45 *2472:A1 *2879:D 4.44964e-05
46 *2472:A1 *871:118 0.000230854
47 *2472:B2 *2975:D 0.000183298
48 *2472:B2 *871:118 0.000197186
49 *2474:B *871:38 0.000191063
50 *2475:B2 *871:57 0.000643524
51 *2494:B2 *3007:D 5.87803e-05
52 *2494:B2 *871:10 2.16719e-05
53 *2494:B2 *871:12 9.03735e-05
54 *2495:A1 *871:38 5.62995e-05
55 *2575:B *871:92 0.000130165
56 *2587:B2 *871:92 5.52238e-05
57 *2588:B2 *871:92 5.56148e-05
58 *2879:GATE_N *2879:D 8.7707e-05
59 *2895:GATE_N *2991:D 9.90367e-05
60 *2968:D *871:92 1.21258e-05
61 *2968:GATE_N *871:92 5.71472e-05
62 *2975:GATE_N *2975:D 6.72779e-05
63 *2975:GATE_N *871:118 6.61986e-05
64 *3000:GATE_N *871:57 3.14163e-05
65 *3014:GATE_N *871:57 0
66 *3055:GATE_N *871:92 9.90431e-05
67 *3183:A *871:92 0.000161211
68 *377:14 *3039:D 0.000531148
69 *377:14 *871:57 0.000317638
70 *385:12 *871:92 3.7671e-05
71 *535:14 *871:61 5.52302e-05
72 *535:14 *871:92 0.000443654
73 *540:18 *871:92 0.000101825
74 *630:20 *871:57 0.00253087
75 *807:71 *3039:D 0
76 *809:68 *871:92 7.53109e-06
77 *814:48 *871:10 7.6644e-05
78 *814:48 *871:118 0.000216771
79 *818:20 *2991:D 4.37999e-05
80 *827:160 *871:92 9.60875e-05
81 *831:40 *2879:D 0.000154216
82 *831:40 *871:129 4.46186e-06
83 *831:46 *871:129 8.68665e-05
84 *831:67 *871:38 9.83621e-05
85 *836:76 *871:57 7.02772e-05
86 *851:36 *871:57 5.89394e-05
87 *851:38 *871:57 9.25014e-06
88 *852:31 *871:61 1.92905e-05
89 *852:31 *871:92 0.000354523
90 *852:38 *871:92 7.88669e-05
91 *852:51 *871:92 0.000128696
*RES
1 *3178:X *871:8 14.3357 
2 *871:8 *871:10 2.25 
3 *871:10 *871:12 2.25 
4 *871:12 *3007:D 18.2286 
5 *871:12 *2863:D 13.8 
6 *871:10 *871:38 12.875 
7 *871:38 *3023:D 9.3 
8 *871:38 *871:57 25.6502 
9 *871:57 *871:61 5.03571 
10 *871:61 *3071:D 9.3 
11 *871:61 *871:92 45.8571 
12 *871:92 *3055:D 9.3 
13 *871:57 *3039:D 21.4429 
14 *871:8 *871:118 14.0893 
15 *871:118 *2975:D 11.0679 
16 *871:118 *871:129 6.75 
17 *871:129 *871:133 5.03571 
18 *871:133 *2991:D 15.6214 
19 *871:133 *2895:D 9.3 
20 *871:129 *2879:D 19.7464 
*END

*D_NET *872 0.00971742
*CONN
*I *2959:D I *D sky130_fd_sc_hd__dlxtn_1
*I *2927:D I *D sky130_fd_sc_hd__dlxtn_1
*I *2847:D I *D sky130_fd_sc_hd__dlxtn_1
*I *3087:D I *D sky130_fd_sc_hd__dlxtn_1
*I *2943:D I *D sky130_fd_sc_hd__dlxtn_1
*I *2911:D I *D sky130_fd_sc_hd__dlxtn_1
*I *3179:X O *D sky130_fd_sc_hd__buf_1
*CAP
1 *2959:D 6.48872e-05
2 *2927:D 1.55834e-05
3 *2847:D 0.000193879
4 *3087:D 0
5 *2943:D 0
6 *2911:D 0.000164433
7 *3179:X 4.18948e-05
8 *872:53 0.000301321
9 *872:49 0.000552052
10 *872:42 0.00290831
11 *872:21 0.00264686
12 *872:6 0.000340178
13 *2847:D *2497:A2 9.90431e-05
14 *2847:D *2670:A0 0.000200981
15 *2847:D *930:54 0
16 *2911:D *2589:A2 1.0562e-05
17 *872:6 *2589:A2 5.33005e-05
18 *872:21 *2589:A2 9.90431e-05
19 *872:42 *2491:B1 0.000205916
20 *872:42 *2957:D 1.49064e-05
21 *872:42 *911:95 0.000296608
22 *872:53 *2670:A0 0.000173804
23 *872:53 *930:54 0
24 *2467:C1 *872:42 0.000268396
25 *2488:A1 *872:49 2.27416e-05
26 *2488:B2 *872:49 2.27416e-05
27 *2489:B2 *2927:D 5.52238e-05
28 *2491:A1 *872:42 3.61629e-06
29 *2491:B2 *872:42 3.82227e-06
30 *2566:B2 *872:42 3.06476e-05
31 *2575:B *2927:D 1.92789e-05
32 *2644:B *2847:D 7.07445e-05
33 *3039:D *2911:D 0.00026695
34 *3087:GATE_N *872:42 1.92789e-05
35 *385:12 *2911:D 0
36 *807:43 *872:42 2.75549e-05
37 *807:71 *2911:D 0
38 *822:60 *872:42 5.33005e-05
39 *822:78 *872:42 0.000363241
40 *855:152 *872:42 4.0434e-05
41 *856:47 *872:42 6.58767e-05
*RES
1 *3179:X *872:6 9.83571 
2 *872:6 *2911:D 21.7643 
3 *872:6 *872:21 2.08929 
4 *872:21 *2943:D 9.3 
5 *872:21 *872:42 43.1786 
6 *872:42 *3087:D 9.3 
7 *872:42 *872:49 6.28571 
8 *872:49 *872:53 6.75 
9 *872:53 *2847:D 18.2643 
10 *872:53 *2927:D 14.3357 
11 *872:49 *2959:D 10.2464 
*END

*D_NET *873 0.00904134
*CONN
*I *3038:D I *D sky130_fd_sc_hd__dlxtn_1
*I *3070:D I *D sky130_fd_sc_hd__dlxtn_1
*I *2846:D I *D sky130_fd_sc_hd__dlxtn_1
*I *2910:D I *D sky130_fd_sc_hd__dlxtn_1
*I *2942:D I *D sky130_fd_sc_hd__dlxtn_1
*I *2862:D I *D sky130_fd_sc_hd__dlxtn_1
*I *2926:D I *D sky130_fd_sc_hd__dlxtn_1
*I *2894:D I *D sky130_fd_sc_hd__dlxtn_1
*I *2958:D I *D sky130_fd_sc_hd__dlxtn_1
*I *2878:D I *D sky130_fd_sc_hd__dlxtn_1
*I *3180:X O *D sky130_fd_sc_hd__clkbuf_2
*CAP
1 *3038:D 4.99065e-05
2 *3070:D 0
3 *2846:D 0.000100928
4 *2910:D 0.000132322
5 *2942:D 0
6 *2862:D 0.000177592
7 *2926:D 9.78391e-05
8 *2894:D 0.000148825
9 *2958:D 0
10 *2878:D 0.000154386
11 *3180:X 4.81444e-05
12 *873:86 0.000734861
13 *873:71 0.000671236
14 *873:55 0.000275431
15 *873:42 0.000252868
16 *873:33 0.000365708
17 *873:27 0.000172788
18 *873:23 0.000232293
19 *873:8 0.000304168
20 *2846:D *2643:A 0.000168777
21 *2846:D *915:39 3.67142e-05
22 *2878:D *921:41 0.000120509
23 *2878:D *923:72 7.84126e-05
24 *2878:D *933:28 0.000134748
25 *2894:D *2638:A2 9.10492e-05
26 *2910:D *2643:A 0.000219235
27 *2910:D *3369:A 1.01912e-05
28 *2910:D *912:95 1.33343e-05
29 *873:8 *933:28 4.66203e-05
30 *873:27 *921:26 0.000235092
31 *873:33 *2638:A2 0.000123288
32 *873:33 *921:26 5.59013e-05
33 *873:42 *2638:A2 8.98755e-05
34 *873:86 *3054:D 0.000479652
35 *2478:B2 *873:86 7.48091e-05
36 *2479:B2 *873:86 2.97829e-05
37 *2479:C1 *2910:D 9.3336e-05
38 *2479:C1 *873:86 1.58163e-05
39 *2480:B2 *2862:D 4.51726e-05
40 *2481:B2 *873:71 5.97496e-05
41 *2481:B2 *873:86 0.000314139
42 *2486:B1 *2846:D 5.21516e-05
43 *2486:B1 *2910:D 2.20906e-05
44 *2846:GATE_N *2846:D 9.90367e-05
45 *2862:GATE_N *2862:D 9.60875e-05
46 *2908:GATE_N *2894:D 5.52238e-05
47 *2942:GATE_N *873:71 0.000181796
48 *2958:GATE_N *873:33 5.33005e-05
49 *2958:GATE_N *873:71 0.000392019
50 *3038:GATE_N *873:23 9.46929e-05
51 *3043:GATE_N *2878:D 0.000106542
52 *3216:A *873:33 1.92789e-05
53 *3216:A *873:71 5.38242e-05
54 *597:22 *2894:D 4.8843e-05
55 *808:66 *3038:D 2.15245e-05
56 *808:66 *873:23 8.25843e-06
57 *812:69 *2878:D 2.58997e-05
58 *812:69 *873:8 5.01213e-05
59 *832:79 *2894:D 0.000173384
60 *832:79 *873:27 0.000131472
61 *832:79 *873:33 8.14438e-05
62 *832:79 *873:42 0.000210097
63 *834:68 *3038:D 9.71197e-05
64 *834:68 *873:23 0.000307343
65 *837:85 *2862:D 4.35452e-05
66 *837:85 *2926:D 6.28356e-05
67 *859:30 *2910:D 9.79127e-05
*RES
1 *3180:X *873:8 15.1393 
2 *873:8 *2878:D 19.1393 
3 *873:8 *873:23 7.5 
4 *873:23 *873:27 7.66071 
5 *873:27 *873:33 7.28571 
6 *873:33 *2958:D 9.3 
7 *873:33 *873:42 7.35714 
8 *873:42 *2894:D 17.8179 
9 *873:42 *873:55 4.5 
10 *873:55 *2926:D 11.0679 
11 *873:55 *2862:D 12.7107 
12 *873:33 *873:71 5.05357 
13 *873:71 *2942:D 9.3 
14 *873:71 *873:86 15.0536 
15 *873:86 *2910:D 17.6036 
16 *873:86 *2846:D 16.9964 
17 *873:27 *3070:D 13.8 
18 *873:23 *3038:D 10.675 
*END

*D_NET *874 0.00835083
*CONN
*I *3054:D I *D sky130_fd_sc_hd__dlxtn_1
*I *2974:D I *D sky130_fd_sc_hd__dlxtn_1
*I *2990:D I *D sky130_fd_sc_hd__dlxtn_1
*I *3022:D I *D sky130_fd_sc_hd__dlxtn_1
*I *3006:D I *D sky130_fd_sc_hd__dlxtn_1
*I *3086:D I *D sky130_fd_sc_hd__dlxtn_1
*I *3180:A I *D sky130_fd_sc_hd__clkbuf_2
*I *3181:X O *D sky130_fd_sc_hd__dlymetal6s2s_1
*CAP
1 *3054:D 0.000606814
2 *2974:D 0
3 *2990:D 0.000340277
4 *3022:D 5.91387e-05
5 *3006:D 6.74894e-05
6 *3086:D 3.02861e-05
7 *3180:A 0
8 *3181:X 0
9 *874:38 0.000388603
10 *874:25 0.000481209
11 *874:19 0.000673963
12 *874:17 0.000452942
13 *874:8 0.000652215
14 *874:4 0.000950824
15 *2990:D *2483:C1 1.33343e-05
16 *2990:D *903:14 0.000175526
17 *2990:D *934:20 0.000171375
18 *3022:D *905:22 0.000225307
19 *3054:D *2482:B1 0.000123288
20 *3054:D *2534:B1 0
21 *3054:D *893:16 2.05612e-05
22 *3054:D *893:37 2.59355e-05
23 *3054:D *910:18 0.000147398
24 *3054:D *923:53 2.06178e-05
25 *874:8 *893:16 0.000438649
26 *2477:A1 *874:25 0.000177815
27 *2477:A1 *874:38 0.000103977
28 *2479:B2 *3054:D 5.21937e-05
29 *2483:A1 *2990:D 1.24368e-05
30 *2897:GATE_N *3054:D 9.25014e-06
31 *2974:GATE_N *874:19 0.000137983
32 *2974:GATE_N *874:25 0.000139081
33 *3086:GATE_N *3086:D 7.57664e-06
34 *3086:GATE_N *874:38 2.14757e-05
35 *499:22 *3054:D 0.000224108
36 *805:84 *3086:D 2.64293e-05
37 *805:84 *874:17 0.000213424
38 *805:84 *874:19 3.98517e-05
39 *805:84 *874:25 1.57523e-05
40 *819:46 *3022:D 0.000223592
41 *864:51 *3054:D 0.000137983
42 *864:51 *874:8 7.65689e-05
43 *864:77 *874:8 0.000123331
44 *864:77 *874:17 6.25963e-05
45 *873:86 *3054:D 0.000479652
*RES
1 *3181:X *874:4 9.3 
2 *874:4 *874:8 7.83929 
3 *874:8 *3180:A 9.3 
4 *874:8 *874:17 6.30357 
5 *874:17 *874:19 2.58929 
6 *874:19 *874:25 4.27679 
7 *874:25 *3086:D 10.3804 
8 *874:25 *874:38 4.64286 
9 *874:38 *3006:D 10.2464 
10 *874:38 *3022:D 21.1571 
11 *874:19 *2990:D 23.9607 
12 *874:17 *2974:D 9.3 
13 *874:4 *3054:D 31.7107 
*END

*D_NET *875 0.0207557
*CONN
*I *2909:D I *D sky130_fd_sc_hd__dlxtn_1
*I *3053:D I *D sky130_fd_sc_hd__dlxtn_1
*I *2877:D I *D sky130_fd_sc_hd__dlxtn_1
*I *2989:D I *D sky130_fd_sc_hd__dlxtn_1
*I *2861:D I *D sky130_fd_sc_hd__dlxtn_1
*I *3005:D I *D sky130_fd_sc_hd__dlxtn_1
*I *3021:D I *D sky130_fd_sc_hd__dlxtn_1
*I *2893:D I *D sky130_fd_sc_hd__dlxtn_1
*I *2973:D I *D sky130_fd_sc_hd__dlxtn_1
*I *3085:D I *D sky130_fd_sc_hd__dlxtn_1
*I *3182:X O *D sky130_fd_sc_hd__clkbuf_2
*CAP
1 *2909:D 0.000121834
2 *3053:D 0
3 *2877:D 0
4 *2989:D 0.000457983
5 *2861:D 0
6 *3005:D 0.000216682
7 *3021:D 0.000209168
8 *2893:D 3.86937e-05
9 *2973:D 0
10 *3085:D 0
11 *3182:X 0.000178386
12 *875:110 0.000939455
13 *875:79 0.000441967
14 *875:77 0.000261595
15 *875:62 0.000669401
16 *875:47 0.000503739
17 *875:43 0.00239766
18 *875:30 0.00420382
19 *875:12 0.00251419
20 *875:10 0.00040828
21 *2909:D *882:36 0.000196575
22 *875:10 *2667:S 4.28249e-05
23 *875:10 *882:36 0.000104044
24 *875:30 *2469:A2 8.7636e-06
25 *875:30 *876:38 1.58163e-05
26 *875:30 *876:50 0.000110694
27 *875:30 *889:46 1.92789e-05
28 *875:30 *889:53 3.54445e-05
29 *875:30 *889:82 0.000272283
30 *875:30 *894:29 0
31 *875:43 *2493:A2 1.46576e-05
32 *875:43 *2571:A2 0.000249738
33 *875:43 *2593:B1 9.86374e-05
34 *875:43 *932:85 0.000438781
35 *875:62 *2472:B1 0
36 *2467:B2 *2909:D 4.00205e-05
37 *2469:B2 *875:30 5.1068e-05
38 *2470:B2 *3021:D 0.000173959
39 *2470:B2 *875:77 0.000112855
40 *2470:B2 *875:79 2.23592e-05
41 *2471:B2 *875:62 5.49544e-05
42 *2471:C1 *875:62 9.11048e-06
43 *2472:A1 *875:62 0
44 *2472:A1 *875:110 9.35114e-06
45 *2472:B2 *2989:D 1.24368e-05
46 *2492:B2 *2989:D 8.39e-05
47 *2493:A1 *875:43 7.32886e-05
48 *2493:B2 *875:43 1.28809e-05
49 *2496:B *875:43 0.000131915
50 *2572:A1 *875:43 3.80079e-05
51 *2587:A1 *875:30 0.000334753
52 *2593:B2 *875:43 5.71472e-05
53 *2667:A1 *875:10 0.000123295
54 *2856:GATE_N *875:30 0
55 *2861:GATE_N *3021:D 3.42426e-05
56 *2861:GATE_N *875:77 9.68667e-05
57 *2861:GATE_N *875:79 1.83136e-05
58 *2877:GATE_N *875:110 0.00032591
59 *2879:D *875:110 0.000185124
60 *2879:GATE_N *875:110 1.98839e-05
61 *2909:GATE_N *2909:D 9.46929e-05
62 *2909:GATE_N *875:12 0.000130071
63 *2909:GATE_N *875:30 1.92905e-05
64 *2920:GATE_N *875:30 0
65 *2968:GATE_N *875:30 0
66 *2975:GATE_N *875:62 0
67 *2982:D *875:43 5.33005e-05
68 *2982:GATE_N *875:43 0.000186173
69 *3005:GATE_N *3005:D 0.000185817
70 *3016:D *875:43 0.00018077
71 *3016:GATE_N *875:43 2.89114e-05
72 *3021:GATE_N *2893:D 6.77308e-05
73 *3021:GATE_N *3021:D 0.000214529
74 *3021:GATE_N *875:62 5.75847e-05
75 *3085:GATE_N *875:43 0.00036192
76 *3182:A *875:10 3.25247e-05
77 *3183:A *875:10 1.8041e-05
78 *3183:A *875:30 0
79 *807:59 *875:30 3.7746e-05
80 *807:71 *875:30 0.000339636
81 *809:68 *875:30 0.00026367
82 *814:48 *875:47 0.000103984
83 *814:48 *875:62 0.000551898
84 *814:56 *875:77 0
85 *818:20 *2989:D 5.5782e-05
86 *829:65 *875:30 7.3237e-05
87 *831:40 *2989:D 0
88 *831:46 *2989:D 0
89 *831:67 *2893:D 0.000185964
90 *831:67 *875:62 0.000224341
91 *852:57 *875:30 8.0087e-05
92 *871:10 *875:62 1.59347e-05
*RES
1 *3182:X *875:10 22.3714 
2 *875:10 *875:12 2.58929 
3 *875:12 *875:30 48.6071 
4 *875:30 *3085:D 9.3 
5 *875:30 *875:43 33.8571 
6 *875:43 *875:47 7.05357 
7 *875:47 *2973:D 13.8 
8 *875:47 *875:62 14.3214 
9 *875:62 *2893:D 11.0679 
10 *875:62 *875:77 14.0357 
11 *875:77 *875:79 0.535714 
12 *875:79 *3021:D 15.5857 
13 *875:79 *3005:D 22.3179 
14 *875:77 *2861:D 9.3 
15 *875:43 *875:110 9.08929 
16 *875:110 *2989:D 26.6929 
17 *875:110 *2877:D 9.3 
18 *875:12 *3053:D 9.3 
19 *875:10 *2909:D 13.2821 
*END

*D_NET *876 0.0115305
*CONN
*I *3069:D I *D sky130_fd_sc_hd__dlxtn_1
*I *3037:D I *D sky130_fd_sc_hd__dlxtn_1
*I *2941:D I *D sky130_fd_sc_hd__dlxtn_1
*I *2925:D I *D sky130_fd_sc_hd__dlxtn_1
*I *2957:D I *D sky130_fd_sc_hd__dlxtn_1
*I *2845:D I *D sky130_fd_sc_hd__dlxtn_1
*I *3183:X O *D sky130_fd_sc_hd__buf_1
*CAP
1 *3069:D 0
2 *3037:D 0
3 *2941:D 2.22238e-05
4 *2925:D 0.000183224
5 *2957:D 5.57586e-05
6 *2845:D 0.000445456
7 *3183:X 0
8 *876:52 0.000740633
9 *876:50 0.00271256
10 *876:38 0.00251306
11 *876:19 0.000472305
12 *876:6 0.000526322
13 *2845:D *2467:A2 0
14 *2845:D *2587:A2 0.000103267
15 *2845:D *2667:A0 2.8266e-06
16 *2925:D *882:69 9.90367e-05
17 *876:19 *2587:A2 0.000214977
18 *876:38 *2587:A2 0.000243627
19 *876:38 *909:52 5.06983e-05
20 *876:38 *909:73 8.02709e-05
21 *876:38 *916:57 8.2395e-05
22 *2466:B2 *876:38 6.09889e-05
23 *2467:B2 *2845:D 5.03694e-05
24 *2467:C1 *2845:D 0.00031248
25 *2467:C1 *876:19 0.000205741
26 *2467:C1 *876:38 6.81083e-05
27 *2469:C1 *876:50 0
28 *2475:A1 *2845:D 0
29 *2588:A1 *2845:D 2.6949e-05
30 *2596:A1 *2845:D 4.25974e-05
31 *2845:GATE_N *2845:D 0
32 *2925:GATE_N *2925:D 0
33 *2925:GATE_N *876:52 0
34 *2934:GATE_N *2941:D 3.67142e-05
35 *2941:GATE_N *2925:D 1.19191e-05
36 *2941:GATE_N *2941:D 9.90367e-05
37 *2941:GATE_N *876:52 0.000196687
38 *2952:GATE_N *876:52 8.39385e-05
39 *3037:GATE_N *876:50 9.15186e-06
40 *3080:GATE_N *876:50 0.000131198
41 *3160:A *876:50 0
42 *3160:A *876:52 0
43 *515:18 *876:50 0.000297339
44 *540:18 *876:50 0.000299611
45 *610:12 *2925:D 0
46 *610:16 *2845:D 4.01768e-05
47 *807:59 *876:38 0.000489906
48 *809:68 *876:50 3.90513e-05
49 *811:58 *876:50 0
50 *822:60 *2957:D 2.49858e-06
51 *822:78 *2957:D 9.60939e-05
52 *822:95 *876:50 0
53 *827:96 *876:50 0
54 *827:96 *876:52 0
55 *827:107 *876:52 0
56 *855:152 *2957:D 0.000140859
57 *856:38 *2845:D 9.90367e-05
58 *872:42 *2957:D 1.49064e-05
59 *875:30 *876:38 1.58163e-05
60 *875:30 *876:50 0.000110694
*RES
1 *3183:X *876:6 13.8 
2 *876:6 *2845:D 23.675 
3 *876:6 *876:19 2.85714 
4 *876:19 *2957:D 15.7286 
5 *876:19 *876:38 14.7679 
6 *876:38 *876:50 18.529 
7 *876:50 *876:52 9.83929 
8 *876:52 *2925:D 16.9964 
9 *876:52 *2941:D 14.7464 
10 *876:50 *3037:D 13.8 
11 *876:38 *3069:D 9.3 
*END

*D_NET *877 0.0111943
*CONN
*I *2809:GATE_N I *D sky130_fd_sc_hd__dlxtn_1
*I *2816:GATE_N I *D sky130_fd_sc_hd__dlxtn_1
*I *2813:GATE_N I *D sky130_fd_sc_hd__dlxtn_1
*I *2808:GATE_N I *D sky130_fd_sc_hd__dlxtn_1
*I *2806:GATE_N I *D sky130_fd_sc_hd__dlxtn_1
*I *2817:GATE_N I *D sky130_fd_sc_hd__dlxtn_1
*I *2812:GATE_N I *D sky130_fd_sc_hd__dlxtn_1
*I *2818:GATE_N I *D sky130_fd_sc_hd__dlxtn_1
*I *2821:GATE_N I *D sky130_fd_sc_hd__dlxtn_1
*I *2815:GATE_N I *D sky130_fd_sc_hd__dlxtn_1
*I *3184:X O *D sky130_fd_sc_hd__clkbuf_2
*CAP
1 *2809:GATE_N 0.000276235
2 *2816:GATE_N 3.98145e-05
3 *2813:GATE_N 0
4 *2808:GATE_N 0.000314633
5 *2806:GATE_N 1.96707e-05
6 *2817:GATE_N 0.000145457
7 *2812:GATE_N 1.67212e-05
8 *2818:GATE_N 0
9 *2821:GATE_N 0.000119803
10 *2815:GATE_N 0.000101355
11 *3184:X 0
12 *877:130 0.000648542
13 *877:96 0.000636318
14 *877:86 0.000811999
15 *877:64 0.000234207
16 *877:58 0.000380788
17 *877:43 0.000279837
18 *877:36 0.000743935
19 *877:19 0.00108267
20 *877:4 0.000429519
21 *2806:GATE_N *3367:A 8.66063e-05
22 *2808:GATE_N *2489:B1 0.000316931
23 *2808:GATE_N *886:70 7.91917e-05
24 *2809:GATE_N *2489:A2 6.18257e-05
25 *2809:GATE_N *2649:A 2.79421e-05
26 *2809:GATE_N *886:31 0.000150618
27 *2809:GATE_N *1024:18 0.000313458
28 *2815:GATE_N *3184:A 0.000121411
29 *2815:GATE_N *882:28 1.33343e-05
30 *2815:GATE_N *990:12 0
31 *877:43 *3367:A 1.92905e-05
32 *877:58 *3367:A 0.000182401
33 *877:64 *3367:A 0.00018372
34 *877:96 *884:59 1.40306e-05
35 *877:96 *886:70 6.68971e-06
36 *877:130 *2489:A2 0.000198494
37 *877:130 *2653:A 2.46999e-05
38 *877:130 *884:53 0.000245342
39 *877:130 *884:59 0.00014576
40 *877:130 *886:41 1.77672e-05
41 *877:130 *1024:18 0.000217636
42 PWDATA[5] *877:64 3.17067e-05
43 PWDATA[5] *877:86 9.77158e-05
44 PWDATA[5] *877:130 4.96531e-05
45 rdata[14] *2806:GATE_N 3.14193e-05
46 rdata[14] *877:58 0.000524959
47 rdata[14] *877:64 5.91452e-05
48 rdata[3] *2817:GATE_N 5.78451e-05
49 *2574:B2 *2821:GATE_N 0
50 *2586:B *2809:GATE_N 8.25843e-06
51 *2597:B *877:86 0.000167917
52 *2597:B *877:130 5.83304e-05
53 *2644:B *2808:GATE_N 4.59352e-05
54 *2654:B *2808:GATE_N 9.77414e-05
55 *2654:B *877:96 8.82434e-05
56 *2806:D *2806:GATE_N 1.33343e-05
57 *2808:D *2808:GATE_N 0.00010096
58 *2814:D *877:86 4.43299e-05
59 *2817:D *2817:GATE_N 0
60 *2818:D *2808:GATE_N 0.000210574
61 *3321:A *2808:GATE_N 1.21258e-05
62 *3326:A *2817:GATE_N 8.38281e-05
63 *3326:A *877:64 2.94103e-05
64 *3326:A *877:86 4.87252e-05
65 *3328:A *2821:GATE_N 7.6644e-05
66 *390:8 *2815:GATE_N 3.14078e-05
67 *521:26 *877:130 0.000245356
68 *610:16 *877:19 2.09869e-05
69 *631:38 *2821:GATE_N 1.92905e-05
70 *791:8 *2817:GATE_N 5.03772e-05
71 *838:51 *2808:GATE_N 2.51389e-05
72 *846:28 *2815:GATE_N 9.90367e-05
73 *846:28 *2821:GATE_N 5.52302e-05
*RES
1 *3184:X *877:4 9.3 
2 *877:4 *2815:GATE_N 20.8893 
3 *877:4 *877:19 3.82143 
4 *877:19 *2821:GATE_N 20.4786 
5 *877:19 *877:36 7.42857 
6 *877:36 *2818:GATE_N 9.3 
7 *877:36 *877:43 1.76786 
8 *877:43 *2812:GATE_N 9.72857 
9 *877:43 *877:58 10.5179 
10 *877:58 *877:64 7 
11 *877:64 *2817:GATE_N 21.4964 
12 *877:64 *2806:GATE_N 10.2464 
13 *877:58 *877:86 3.76786 
14 *877:86 *877:96 9.30357 
15 *877:96 *2808:GATE_N 27.0857 
16 *877:96 *2813:GATE_N 9.3 
17 *877:86 *877:130 11.2857 
18 *877:130 *2816:GATE_N 14.3357 
19 *877:130 *2809:GATE_N 19.9607 
*END

*D_NET *878 0.0334234
*CONN
*I *2811:GATE_N I *D sky130_fd_sc_hd__dlxtn_1
*I *2810:GATE_N I *D sky130_fd_sc_hd__dlxtn_1
*I *2820:GATE_N I *D sky130_fd_sc_hd__dlxtn_1
*I *2814:GATE_N I *D sky130_fd_sc_hd__dlxtn_1
*I *3184:A I *D sky130_fd_sc_hd__clkbuf_2
*I *2819:GATE_N I *D sky130_fd_sc_hd__dlxtn_1
*I *2807:GATE_N I *D sky130_fd_sc_hd__dlxtn_1
*I *2693:A I *D sky130_fd_sc_hd__or2_1
*I *3185:X O *D sky130_fd_sc_hd__buf_2
*CAP
1 *2811:GATE_N 9.6715e-05
2 *2810:GATE_N 0
3 *2820:GATE_N 0
4 *2814:GATE_N 7.97628e-05
5 *3184:A 0.00141418
6 *2819:GATE_N 0
7 *2807:GATE_N 0.000943669
8 *2693:A 0.000232763
9 *3185:X 0
10 *878:107 0.00366519
11 *878:93 0.00230395
12 *878:85 0.00194819
13 *878:73 0.00253949
14 *878:50 0.000887253
15 *878:44 0.00188487
16 *878:25 0.00341513
17 *878:4 0.00107932
18 *2693:A *945:12 0
19 *2807:GATE_N *2486:A2 0.000256176
20 *2807:GATE_N *2555:A2 0
21 *2807:GATE_N *2643:A 0
22 *2807:GATE_N *897:84 9.22222e-06
23 *2807:GATE_N *931:16 5.80474e-05
24 *2814:GATE_N *2653:A 4.71689e-05
25 *2814:GATE_N *3341:A 9.22103e-06
26 *3184:A *882:28 1.53632e-05
27 *3184:A *886:84 0.000271123
28 *3184:A *990:12 0
29 *3184:A *999:18 0.00102102
30 *878:25 *2457:A 5.66502e-05
31 *878:25 *2611:A2 0.000145598
32 *878:25 *3218:A 0
33 *878:25 *887:47 0
34 *878:25 *887:53 7.17836e-05
35 *878:25 *897:59 3.67452e-05
36 *878:25 *918:12 0
37 *878:44 *887:22 0.000321827
38 *878:50 *887:22 0
39 *878:50 *887:84 7.03393e-05
40 *878:73 *2677:A0 5.71472e-05
41 *878:73 *2677:A1 5.7661e-06
42 *878:73 *885:106 8.47203e-05
43 *878:73 *887:84 0.000396892
44 *878:73 *935:14 0.000119612
45 *878:73 *1039:8 0.000182694
46 *878:85 *2678:A1 0
47 *878:85 *3346:A 0
48 *878:85 *3347:A 0
49 *878:85 *3354:A 0
50 *878:85 *3355:A 0
51 *878:85 *935:14 0
52 *878:93 *2673:A1 9.41642e-05
53 *878:107 *999:18 1.20653e-05
54 *878:107 *1024:18 0.000125702
55 PWDATA[0] *2814:GATE_N 9.41642e-05
56 PWDATA[14] *878:85 0
57 PWDATA[1] *878:85 0
58 PWDATA[7] *878:85 0
59 PWDATA[8] *878:85 0
60 *2478:A1 *2807:GATE_N 0
61 *2486:A1 *2807:GATE_N 6.21521e-06
62 *2509:B *878:85 0.000606625
63 *2509:B *878:93 6.73939e-05
64 *2520:B *878:85 0.000177941
65 *2530:B2 *878:44 0
66 *2574:B2 *3184:A 6.83753e-05
67 *2609:A1 *2807:GATE_N 1.90936e-05
68 *2609:B2 *2807:GATE_N 0
69 *2617:A *878:25 6.71336e-05
70 *2643:B *2807:GATE_N 7.75022e-05
71 *2645:B *878:93 7.71596e-05
72 *2645:B *878:107 2.11419e-05
73 *2647:B *878:73 0.000198698
74 *2653:B *2814:GATE_N 1.92905e-05
75 *2664:A1 *878:85 7.79781e-06
76 *2681:A1 *878:25 0.000123847
77 *2712:A *2693:A 2.62984e-05
78 *2780:B *2693:A 9.41642e-05
79 *2806:D *878:107 0.000118351
80 *2810:D *878:85 7.6644e-05
81 *2814:D *3184:A 0.000225111
82 *2814:D *878:107 0
83 *2815:GATE_N *3184:A 0.000121411
84 *2819:D *878:73 9.60875e-05
85 *2825:D *878:85 0.000344203
86 *2826:D *878:85 8.15843e-05
87 *2837:D *878:85 0.00015304
88 *2840:D *878:73 1.39841e-05
89 *2841:D *878:73 0.000102545
90 *2842:GATE_N *878:73 1.33343e-05
91 *2881:GATE_N *878:25 0.000530292
92 *2881:GATE_N *878:44 0.000133734
93 *3141:A *878:44 0.0011156
94 *3150:A *2807:GATE_N 0.000137568
95 *3185:A *2693:A 7.42485e-05
96 *3185:A *878:25 3.34783e-05
97 *3193:A *2811:GATE_N 0
98 *3322:A *2814:GATE_N 4.11173e-05
99 *390:10 *3184:A 1.90936e-05
100 *431:10 *878:85 0.000135334
101 *431:12 *878:85 0.000120645
102 *431:14 *878:85 6.74911e-05
103 *431:16 *878:85 0.000437075
104 *431:29 *878:85 0.000419606
105 *431:31 *878:85 0.000199706
106 *431:33 *878:85 0.000202128
107 *431:35 *878:85 0.000196957
108 *431:43 *878:93 0.000136727
109 *431:43 *878:107 2.11419e-05
110 *477:18 *878:25 9.50068e-05
111 *477:18 *878:44 0.000187717
112 *485:10 *2807:GATE_N 0.000190789
113 *531:10 *2807:GATE_N 0.000307323
114 *540:18 *3184:A 0
115 *561:28 *878:73 0.000150611
116 *571:8 *878:73 5.52238e-05
117 *631:38 *2814:GATE_N 0
118 *651:14 *2807:GATE_N 4.80298e-05
119 *651:22 *878:50 0.000334517
120 *651:22 *878:73 3.07455e-05
121 *672:65 *2693:A 4.08637e-05
122 *751:18 *2693:A 2.40261e-05
123 *751:26 *2693:A 0
124 *771:10 *2693:A 0
125 *794:8 *878:73 4.35421e-05
126 *794:8 *878:85 1.30159e-05
127 *794:14 *878:73 5.62709e-05
128 *801:10 *2693:A 0.00010326
129 *812:47 *2807:GATE_N 0.000479416
130 *812:59 *2807:GATE_N 1.94945e-05
131 *825:10 *878:25 0
132 *841:24 *878:44 0.00016297
*RES
1 *3185:X *878:4 9.3 
2 *878:4 *2693:A 22.5143 
3 *878:4 *878:25 21.7765 
4 *878:25 *2807:GATE_N 38.4868 
5 *878:25 *878:44 7.9972 
6 *878:44 *878:50 8.79464 
7 *878:50 *2819:GATE_N 9.3 
8 *878:50 *878:73 27.1429 
9 *878:73 *878:85 49.0714 
10 *878:85 *878:93 11.8929 
11 *878:93 *878:107 14.4141 
12 *878:107 *3184:A 23.5089 
13 *878:107 *2814:GATE_N 19.1654 
14 *878:93 *2820:GATE_N 13.8 
15 *878:73 *2810:GATE_N 9.3 
16 *878:44 *2811:GATE_N 15.2911 
*END

*D_NET *879 0.00228355
*CONN
*I *2766:A1 I *D sky130_fd_sc_hd__a221o_1
*I *3262:X O *D sky130_fd_sc_hd__clkbuf_1
*CAP
1 *2766:A1 0.000804984
2 *3262:X 0.000804984
3 *2766:A1 *2766:A2 1.46576e-05
4 *2766:A1 *2774:A1 9.60337e-06
5 *2766:A1 *2774:B2 3.04785e-05
6 *2766:A1 *3105:RESET_B 0.000176027
7 *2766:A1 *3358:A 6.1718e-05
8 *2766:A1 *3361:A 5.71472e-05
9 *2766:A1 *1007:22 3.9883e-05
10 *2767:A1 *2766:A1 0.000159009
11 *2774:C1 *2766:A1 5.33005e-05
12 *3105:CLK *2766:A1 2.89114e-05
13 *3105:D *2766:A1 3.2971e-05
14 *505:44 *2766:A1 9.87983e-06
*RES
1 *3262:X *2766:A1 40.8143 
*END

*D_NET *880 0.0197266
*CONN
*I *2725:A2 I *D sky130_fd_sc_hd__a221o_1
*I *2733:A2 I *D sky130_fd_sc_hd__a221o_1
*I *2766:A2 I *D sky130_fd_sc_hd__a221o_1
*I *2674:S I *D sky130_fd_sc_hd__mux2_1
*I *2676:S I *D sky130_fd_sc_hd__mux2_1
*I *2689:B I *D sky130_fd_sc_hd__nand2_1
*I *2678:S I *D sky130_fd_sc_hd__mux2_1
*I *2677:S I *D sky130_fd_sc_hd__mux2_1
*I *2675:S I *D sky130_fd_sc_hd__mux2_1
*I *2446:A I *D sky130_fd_sc_hd__nor2_2
*I *3186:X O *D sky130_fd_sc_hd__clkbuf_4
*CAP
1 *2725:A2 7.36223e-05
2 *2733:A2 1.81244e-05
3 *2766:A2 0.000518619
4 *2674:S 0
5 *2676:S 0
6 *2689:B 0.000476547
7 *2678:S 2.23854e-05
8 *2677:S 0.000448005
9 *2675:S 0
10 *2446:A 2.03441e-05
11 *3186:X 4.16506e-05
12 *880:102 0.000660295
13 *880:82 0.000524495
14 *880:52 0.000658255
15 *880:43 0.000553737
16 *880:37 0.0008111
17 *880:31 0.000964389
18 *880:20 0.00132005
19 *880:10 0.00112526
20 *880:8 0.000348139
21 *2677:S *2678:A0 4.70048e-05
22 *2689:B *2676:A0 9.90367e-05
23 *2689:B *2689:A 0.00103051
24 *2689:B *3338:A 1.54142e-05
25 *2725:A2 *962:6 0.000208569
26 *2725:A2 *962:14 0
27 *2766:A2 *2674:A1 0.000484592
28 *2766:A2 *2766:B2 5.94869e-05
29 *2766:A2 *2774:A1 3.15196e-05
30 *2766:A2 *3358:A 7.13226e-06
31 *2766:A2 *1007:22 0
32 *880:8 *962:6 2.89114e-05
33 *880:10 *2733:A1 0.000604917
34 *880:20 *2694:A 0.0005338
35 *880:20 *2733:A1 9.25014e-06
36 *880:20 *888:122 0
37 *880:31 *2674:A0 0.000265441
38 *880:31 *3335:A 1.40306e-05
39 *880:37 *2676:A0 0.000618622
40 *880:37 *3333:A 3.34295e-05
41 *880:37 *3338:A 0.000111717
42 *880:37 *1009:22 0.000153364
43 *880:43 *2675:A1 4.06875e-05
44 *880:43 *2676:A0 9.69119e-06
45 *880:43 *2676:A1 0.000185779
46 *880:43 *2678:A0 3.18676e-05
47 *880:43 *3340:A 6.5185e-05
48 *880:43 *3357:A 6.42242e-05
49 *880:52 *2678:A0 0.000146313
50 *880:82 *2676:A0 8.03061e-05
51 *880:82 *3338:A 9.71197e-05
52 *880:102 *2676:A0 0.000168939
53 *880:102 *3333:A 9.15804e-05
54 *880:102 *1009:22 1.91414e-05
55 PADDR[2] *880:37 8.74324e-05
56 PSEL2 *880:43 0
57 *2449:A1 *880:37 8.8777e-05
58 *2450:B *2689:B 0.000353079
59 *2452:B *880:43 6.2833e-05
60 *2452:C *880:43 0.000184626
61 *2459:B *880:102 8.50152e-05
62 *2461:B *2766:A2 0.00029513
63 *2487:A *2677:S 6.97972e-05
64 *2619:B *2677:S 0.000186662
65 *2647:B *2677:S 7.86964e-05
66 *2684:A *880:20 1.76821e-05
67 *2725:B1 *2725:A2 0.000208569
68 *2726:A1 *880:10 0
69 *2732:A1 *880:20 5.47391e-05
70 *2733:B2 *2733:A2 3.33238e-05
71 *2734:S *880:10 0.000568337
72 *2734:S *880:20 9.25014e-06
73 *2764:A1 *880:20 0.000128154
74 *2764:B1 *880:20 0.00013737
75 *2766:A1 *2766:A2 1.46576e-05
76 *2766:B1 *2766:A2 4.46186e-06
77 *2767:A1 *2766:A2 0
78 *2771:B *2766:A2 0
79 *2773:A_N *2766:A2 0.000215583
80 *2773:B *880:31 0.000354105
81 *2774:C1 *2766:A2 0.000158012
82 *2842:D *2677:S 0.000138881
83 *2842:D *880:52 0.00010096
84 *3272:A *2725:A2 4.02462e-05
85 *3272:A *880:10 4.66203e-05
86 *3274:A *880:37 0.000116921
87 *3324:A *880:10 0.000145196
88 *115:10 *2766:A2 6.29573e-05
89 *115:12 *2766:A2 7.91281e-05
90 *115:18 *2766:A2 4.00025e-05
91 *117:19 *2766:A2 0.000245349
92 *374:25 *2766:A2 5.04589e-05
93 *374:25 *880:102 4.13595e-05
94 *503:36 *2446:A 5.7661e-06
95 *503:36 *880:20 0.000131385
96 *503:36 *880:31 3.9846e-05
97 *504:12 *880:20 5.57914e-05
98 *505:8 *880:31 0.000227532
99 *505:18 *880:31 7.45591e-05
100 *507:12 *880:37 0.000208772
101 *507:12 *880:43 9.87983e-06
102 *507:29 *880:43 0.000108684
103 *511:16 *2689:B 0.000227526
104 *675:14 *880:20 4.038e-06
105 *676:12 *880:20 0.000155397
106 *701:59 *880:20 0
107 *704:55 *2725:A2 0
108 *787:8 *880:20 0
109 *787:12 *880:20 0
110 *787:24 *880:20 9.87983e-06
111 *788:49 *880:20 2.05938e-05
112 *794:14 *2677:S 0
*RES
1 *3186:X *880:8 14.3357 
2 *880:8 *880:10 8.92857 
3 *880:10 *880:20 22.2143 
4 *880:20 *2446:A 9.72857 
5 *880:20 *880:31 14.0714 
6 *880:31 *880:37 13.3393 
7 *880:37 *880:43 15.1786 
8 *880:43 *2675:S 9.3 
9 *880:43 *880:52 4.25 
10 *880:52 *2677:S 25.9607 
11 *880:52 *2678:S 9.72857 
12 *880:37 *880:82 5.875 
13 *880:82 *2689:B 22.175 
14 *880:82 *2676:S 9.3 
15 *880:31 *880:102 8.10714 
16 *880:102 *2674:S 9.3 
17 *880:102 *2766:A2 34.3223 
18 *880:10 *2733:A2 14.1304 
19 *880:8 *2725:A2 16.8089 
*END

*D_NET *881 0.0144862
*CONN
*I *3186:A I *D sky130_fd_sc_hd__clkbuf_4
*I *3358:A I *D sky130_fd_sc_hd__buf_2
*I *2774:A2 I *D sky130_fd_sc_hd__a221o_1
*I *2719:A2_N I *D sky130_fd_sc_hd__o2bb2a_1
*I *2737:B2 I *D sky130_fd_sc_hd__a2bb2o_1
*I *2717:A1 I *D sky130_fd_sc_hd__o32a_1
*I *2749:B1 I *D sky130_fd_sc_hd__o21ai_1
*I *2760:B1 I *D sky130_fd_sc_hd__o21a_1
*I *3187:X O *D sky130_fd_sc_hd__clkbuf_2
*CAP
1 *3186:A 6.87884e-05
2 *3358:A 0.000225037
3 *2774:A2 3.70866e-05
4 *2719:A2_N 0
5 *2737:B2 0.00011015
6 *2717:A1 0.000741281
7 *2749:B1 0.000457452
8 *2760:B1 0.000106646
9 *3187:X 0
10 *881:105 0.000817087
11 *881:97 0.00138874
12 *881:48 0.000889294
13 *881:46 0.000240256
14 *881:42 0.0010127
15 *881:14 0.000778036
16 *881:4 0.000259257
17 *2717:A1 *2690:B 0.000100823
18 *2717:A1 *2719:A1_N 0.00012401
19 *2717:A1 *888:16 7.90803e-05
20 *2717:A1 *888:24 0.000139059
21 *2717:A1 *888:59 7.38245e-05
22 *2717:A1 *947:61 5.71472e-05
23 *2717:A1 *965:33 0.000137689
24 *2717:A1 *965:41 7.43578e-06
25 *2717:A1 *995:12 9.47299e-05
26 *2737:B2 *2447:B 0.000399835
27 *2737:B2 *2719:A1_N 1.31839e-05
28 *2737:B2 *2759:A 1.04232e-05
29 *2737:B2 *964:20 5.62995e-05
30 *2749:B1 *2720:A1 0
31 *2749:B1 *2753:A 0.000605491
32 *2749:B1 *974:10 4.46689e-05
33 *2749:B1 *976:12 4.28365e-05
34 *2760:B1 *2736:A 5.52238e-05
35 *2760:B1 *2753:A 4.00349e-05
36 *2760:B1 *964:10 9.90115e-06
37 *2774:A2 *2774:B2 1.46576e-05
38 *3358:A *2766:B2 1.38323e-05
39 *3358:A *2774:B2 9.66793e-05
40 *881:14 *2754:B1 6.27268e-06
41 *881:14 *3187:A 5.33005e-05
42 *881:14 *3245:A 9.00354e-05
43 *881:14 *963:22 8.41875e-06
44 *881:14 *964:10 2.06178e-05
45 *881:42 *3245:A 5.33334e-05
46 *881:46 *3187:A 7.12919e-05
47 *881:46 *995:12 0.000170961
48 *881:48 *2719:A1_N 4.73656e-05
49 *881:48 *3187:A 1.27784e-05
50 *881:48 *995:12 3.88892e-05
51 *881:97 *2734:A0 0.000266473
52 *881:97 *3245:A 0.000239722
53 *881:97 *3360:A 0
54 *881:97 *953:10 0.000271352
55 *881:97 *963:6 1.51571e-05
56 *881:97 *963:22 0.000243969
57 *881:105 *2774:B2 0.000431747
58 *881:105 *963:6 0.000230482
59 rdata[4] *3358:A 0.000611103
60 rdata[4] *881:105 0.000227532
61 *2695:C *2717:A1 3.10885e-05
62 *2711:C *2717:A1 1.7606e-05
63 *2720:A2 *2737:B2 3.18676e-05
64 *2720:B1 *881:46 7.48356e-05
65 *2720:B1 *881:48 5.80706e-06
66 *2725:B1 *3186:A 8.08022e-05
67 *2733:B1 *3186:A 6.60268e-05
68 *2733:B1 *881:97 7.71617e-05
69 *2734:S *881:97 5.52238e-05
70 *2738:B1 *2737:B2 3.73489e-05
71 *2766:A1 *3358:A 6.1718e-05
72 *2766:A2 *3358:A 7.13226e-06
73 *2774:B1 *2774:A2 2.61337e-05
74 *2774:C1 *3358:A 2.59355e-05
75 *2802:D *881:46 0.000127439
76 *2804:D *881:97 2.89114e-05
77 *2805:CLK *2717:A1 1.76039e-05
78 *3251:A *881:97 2.8266e-06
79 *3272:A *881:97 9.58126e-05
80 *3272:A *881:105 4.58976e-05
81 *3278:A *881:105 3.14193e-05
82 *3324:A *3186:A 6.67824e-05
83 *505:44 *2774:A2 2.84398e-05
84 *506:8 *2737:B2 2.95641e-05
85 *701:12 *2717:A1 0.000123288
86 *701:18 *2717:A1 8.1654e-05
87 *704:55 *2760:B1 1.26686e-05
88 *704:55 *881:97 0.000511682
89 *710:10 *2760:B1 0
90 *730:12 *2760:B1 0.000121573
91 *730:12 *881:14 1.24368e-05
92 *730:24 *2760:B1 5.71472e-05
93 *868:33 *2717:A1 3.28941e-05
*RES
1 *3187:X *881:4 9.3 
2 *881:4 *881:14 7.91964 
3 *881:14 *2760:B1 16.4339 
4 *881:14 *2749:B1 22.2563 
5 *881:4 *881:42 0.946429 
6 *881:42 *881:46 10.6964 
7 *881:46 *881:48 1.33929 
8 *881:48 *2717:A1 37.05 
9 *881:48 *2737:B2 18.05 
10 *881:46 *2719:A2_N 13.8 
11 *881:42 *881:97 23.4643 
12 *881:97 *881:105 14.2143 
13 *881:105 *2774:A2 19.1795 
14 *881:105 *3358:A 15.9071 
15 *881:97 *3186:A 15.7464 
*END

*D_NET *882 0.0201638
*CONN
*I *2664:S I *D sky130_fd_sc_hd__mux2_1
*I *2666:S I *D sky130_fd_sc_hd__mux2_1
*I *2665:S I *D sky130_fd_sc_hd__mux2_1
*I *2661:S I *D sky130_fd_sc_hd__mux2_1
*I *2658:S I *D sky130_fd_sc_hd__mux2_1
*I *2669:S I *D sky130_fd_sc_hd__mux2_1
*I *2668:S I *D sky130_fd_sc_hd__mux2_1
*I *2672:S I *D sky130_fd_sc_hd__mux2_1
*I *2660:S I *D sky130_fd_sc_hd__mux2_1
*I *2667:S I *D sky130_fd_sc_hd__mux2_1
*I *3188:X O *D sky130_fd_sc_hd__clkbuf_4
*CAP
1 *2664:S 0.000344113
2 *2666:S 0
3 *2665:S 5.63575e-05
4 *2661:S 0
5 *2658:S 2.55552e-05
6 *2669:S 0.000119809
7 *2668:S 4.7289e-05
8 *2672:S 0.000216789
9 *2660:S 4.45087e-05
10 *2667:S 2.22693e-05
11 *3188:X 0
12 *882:124 0.000245395
13 *882:109 0.000214593
14 *882:69 0.000723111
15 *882:65 0.000739352
16 *882:53 0.00100713
17 *882:49 0.00146826
18 *882:36 0.00152044
19 *882:28 0.00164014
20 *882:20 0.00246685
21 *882:4 0.0018578
22 *2658:S *2658:A0 7.80851e-06
23 *2660:S *2660:A0 0
24 *2660:S *2660:A1 1.02504e-05
25 *2660:S *2672:A0 0
26 *2664:S *3188:A 5.52302e-05
27 *2664:S *887:104 9.02232e-05
28 *2664:S *887:123 9.21046e-05
29 *2664:S *996:26 1.99099e-05
30 *2669:S *2669:A1 6.09572e-05
31 *2672:S *1044:DIODE 0.000140933
32 *2672:S *2672:A0 2.44318e-05
33 *2672:S *999:18 6.91215e-06
34 *882:20 *2598:B1 3.52966e-05
35 *882:20 *891:34 0
36 *882:20 *911:22 0.000720513
37 *882:20 *990:12 0.000296547
38 *882:28 *2565:A2 5.55405e-05
39 *882:28 *990:12 0.000668214
40 *882:49 *999:18 0.000413375
41 *882:53 *999:18 0.000347667
42 *882:65 *2668:A1 4.87854e-05
43 *882:69 *2660:A0 9.90431e-05
44 *882:124 *2665:A0 0
45 *2467:B2 *882:36 2.38671e-05
46 *2468:A1 *882:65 0.00010096
47 *2468:A1 *882:69 5.52302e-05
48 *2543:B2 *882:28 0.000127439
49 *2565:A1 *882:28 0.000105726
50 *2574:A1 *882:28 0.000125724
51 *2575:B *882:28 2.28428e-05
52 *2598:B2 *882:20 5.33005e-05
53 *2599:C1 *882:20 5.52302e-05
54 *2629:A1 *882:20 0.000220086
55 *2629:B2 *882:20 0
56 *2640:A1 *882:20 0.000134095
57 *2648:B *2664:S 3.51442e-05
58 *2651:B *882:28 7.80714e-06
59 *2661:A1 *2665:S 0.000117621
60 *2815:GATE_N *882:28 1.33343e-05
61 *2860:GATE_N *882:20 0.000119081
62 *2909:D *882:36 0.000196575
63 *2925:D *882:69 9.90367e-05
64 *3053:GATE_N *2665:S 0.000142856
65 *3053:GATE_N *882:124 0
66 *3062:GATE_N *2669:S 0
67 *3164:A *2669:S 0
68 *3164:A *882:65 0.00018372
69 *3183:A *2667:S 2.01359e-05
70 *3183:A *882:36 5.36212e-05
71 *3184:A *882:28 1.53632e-05
72 *377:14 *2669:S 7.29922e-05
73 *377:14 *882:65 0.000161769
74 *382:14 *882:20 0.000144127
75 *384:12 *2672:S 0
76 *384:12 *882:69 5.52238e-05
77 *390:8 *882:28 3.18676e-05
78 *390:10 *882:28 0
79 *610:16 *2668:S 3.18676e-05
80 *610:16 *882:65 0.000183431
81 *610:16 *882:69 1.00073e-05
82 *631:28 *882:28 4.98872e-05
83 *790:12 *2658:S 5.80706e-06
84 *809:35 *2664:S 4.16021e-05
85 *809:72 *882:124 7.75093e-05
86 *822:36 *882:20 0
87 *822:36 *882:28 1.94218e-05
88 *822:44 *882:28 0.000132129
89 *827:160 *882:20 0
90 *829:81 *2665:S 0.00036192
91 *846:28 *882:28 0.000137505
92 *850:57 *882:20 0.000517573
93 *854:40 *882:20 0
94 *854:44 *882:20 0
95 *875:10 *2667:S 4.28249e-05
96 *875:10 *882:36 0.000104044
*RES
1 *3188:X *882:4 9.3 
2 *882:4 *882:20 36.5625 
3 *882:20 *882:28 27.3304 
4 *882:28 *882:36 14.1339 
5 *882:36 *2667:S 14.3804 
6 *882:36 *882:49 5.1866 
7 *882:49 *882:53 4.89833 
8 *882:53 *882:65 11.75 
9 *882:65 *882:69 12.4286 
10 *882:69 *2660:S 14.5321 
11 *882:69 *2672:S 17.8179 
12 *882:65 *2668:S 10.5679 
13 *882:53 *2669:S 16.3536 
14 *882:49 *882:109 3.41 
15 *882:109 *2658:S 14.3804 
16 *882:109 *882:124 7.4375 
17 *882:124 *2661:S 9.3 
18 *882:124 *2665:S 12.7107 
19 *882:28 *2666:S 9.3 
20 *882:4 *2664:S 24.0857 
*END

*D_NET *883 0.0342122
*CONN
*I *2404:B I *D sky130_fd_sc_hd__nand2_1
*I *2662:S I *D sky130_fd_sc_hd__mux2_1
*I *2659:S I *D sky130_fd_sc_hd__mux2_1
*I *2671:S I *D sky130_fd_sc_hd__mux2_1
*I *2663:S I *D sky130_fd_sc_hd__mux2_1
*I *3188:A I *D sky130_fd_sc_hd__clkbuf_4
*I *2670:S I *D sky130_fd_sc_hd__mux2_1
*I *2673:S I *D sky130_fd_sc_hd__mux2_1
*I *2454:A I *D sky130_fd_sc_hd__or2_1
*I *3189:X O *D sky130_fd_sc_hd__clkbuf_4
*CAP
1 *2404:B 0
2 *2662:S 0.000168056
3 *2659:S 0
4 *2671:S 0.000170061
5 *2663:S 0
6 *3188:A 2.05512e-05
7 *2670:S 0.000571676
8 *2673:S 0.000950895
9 *2454:A 0
10 *3189:X 0.000161888
11 *883:133 0.000262241
12 *883:127 0.00173535
13 *883:119 0.00410739
14 *883:57 0.00208674
15 *883:53 0.00262471
16 *883:31 0.00274431
17 *883:14 0.000790185
18 *883:10 0.00288002
19 *2662:S *2659:A0 0
20 *2662:S *2659:A1 0
21 *2670:S *2670:A0 3.67252e-05
22 *2673:S *2673:A1 2.24763e-05
23 *2673:S *892:118 1.94879e-05
24 *2673:S *911:41 0.000279781
25 *3188:A *887:104 1.33343e-05
26 *883:10 *2463:B 3.14163e-05
27 *883:31 *2646:A 2.77289e-05
28 *883:31 *885:106 0.000611385
29 *883:53 *2523:A2 0.000177341
30 *883:53 *2646:A 4.43157e-05
31 *883:53 *2663:A0 0.000270777
32 *883:53 *931:87 0.000220686
33 *883:53 *996:26 0
34 *883:57 *2577:A2 0
35 *883:57 *2599:B1 0
36 *883:57 *909:116 0
37 *883:119 *2464:C 0.000289601
38 *883:119 *929:10 0.000128848
39 *883:127 *2457:A 0.000137983
40 *883:127 *2782:B 9.41642e-05
41 *883:127 *937:17 4.58194e-05
42 *883:127 *942:10 0.000271198
43 *883:133 *2659:A0 7.32955e-05
44 *2404:A *883:127 5.7661e-06
45 *2409:B1 *883:119 5.66004e-05
46 *2520:B *883:31 4.72917e-05
47 *2552:B2 *2670:S 8.33041e-06
48 *2552:B2 *2673:S 0.000102992
49 *2553:B *2670:S 0.000218734
50 *2577:A1 *2673:S 5.52238e-05
51 *2577:A1 *883:57 0
52 *2599:A1 *883:57 0
53 *2599:B2 *883:57 0.000312137
54 *2599:C1 *883:57 0
55 *2607:B1 *883:57 0.000149543
56 *2619:B *883:53 6.87834e-06
57 *2649:B *2670:S 0.000153047
58 *2654:B *2670:S 0
59 *2662:A1 *2662:S 5.80706e-06
60 *2663:A1 *883:53 5.52302e-05
61 *2664:S *3188:A 5.52302e-05
62 *2691:B *883:119 4.26315e-05
63 *2778:A1 *883:127 5.81579e-05
64 *2778:A2 *883:119 0
65 *2778:A2 *883:127 9.60875e-05
66 *2779:D *883:127 1.21258e-05
67 *2780:B *883:127 0.00061595
68 *2810:D *883:31 9.71197e-05
69 *2842:D *883:31 0.000150618
70 *2855:D *2673:S 0.0001004
71 *2855:GATE_N *2673:S 5.33433e-05
72 *3101:CLK *883:127 0
73 *3101:CLK *883:133 0.000232399
74 *3110:D *883:127 9.54798e-06
75 *3134:A *883:53 0.000102847
76 *3159:A *2670:S 1.76266e-05
77 *3171:A *883:53 1.24469e-05
78 *3171:A *883:57 0.000102545
79 *3173:A *883:53 6.05161e-06
80 *3189:A *883:10 0.000253429
81 *3189:A *883:14 0.000142871
82 *3232:A *883:127 0.000530873
83 *3243:A *883:119 0.000374198
84 *383:12 *883:127 0
85 *431:10 *883:31 0.00130561
86 *433:10 *883:31 2.89016e-05
87 *440:37 *883:53 0.000110514
88 *474:16 *883:119 0.000312927
89 *478:35 *883:31 0.000222666
90 *510:14 *883:119 0.00175852
91 *510:16 *883:119 0.000352538
92 *561:28 *883:31 0.000137983
93 *620:18 *2673:S 0.000118634
94 *620:18 *883:57 0
95 *641:8 *2670:S 0
96 *672:65 *883:127 0.000300691
97 *675:30 *883:127 0
98 *738:14 *883:119 0
99 *751:18 *883:127 0.000291532
100 *752:6 *883:127 0.000231662
101 *767:23 *883:14 5.74562e-05
102 *771:59 *883:127 0
103 *771:74 *883:127 0
104 *771:83 *883:127 0
105 *779:8 *883:127 0.000332901
106 *794:14 *883:10 0.000246133
107 *794:14 *883:14 0.000254487
108 *801:10 *883:127 1.21289e-05
109 *801:76 *2662:S 0
110 *801:76 *2671:S 0.00044852
111 *801:76 *883:133 0.000144773
112 *809:35 *883:53 8.23597e-06
113 *809:35 *883:57 0.000410722
114 *813:30 *883:53 0.000699607
115 *822:36 *2673:S 8.55871e-05
116 *838:35 *2673:S 9.15186e-06
117 *854:59 *2673:S 1.58163e-05
*RES
1 *3189:X *883:10 18.0589 
2 *883:10 *883:14 7.8125 
3 *883:14 *2454:A 9.3 
4 *883:14 *883:31 31.4286 
5 *883:31 *883:53 25.3332 
6 *883:53 *883:57 17.3475 
7 *883:57 *2673:S 29.3087 
8 *883:57 *2670:S 24.6633 
9 *883:53 *3188:A 14.3357 
10 *883:31 *2663:S 9.3 
11 *883:10 *883:119 20.08 
12 *883:119 *883:127 42.2679 
13 *883:127 *883:133 7.625 
14 *883:133 *2671:S 13.5321 
15 *883:133 *2659:S 9.3 
16 *883:127 *2662:S 16.6571 
17 *883:119 *2404:B 9.3 
*END

*D_NET *884 0.0109342
*CONN
*I *2542:A I *D sky130_fd_sc_hd__nor2_1
*I *2509:A I *D sky130_fd_sc_hd__nor2_1
*I *2630:A I *D sky130_fd_sc_hd__nor2_1
*I *2553:A I *D sky130_fd_sc_hd__nor2_1
*I *2586:A I *D sky130_fd_sc_hd__nor2_1
*I *2575:A I *D sky130_fd_sc_hd__nor2_1
*I *2498:A I *D sky130_fd_sc_hd__nor2_1
*I *2476:A I *D sky130_fd_sc_hd__nor2_1
*I *2597:A I *D sky130_fd_sc_hd__nor2_1
*I *2608:A I *D sky130_fd_sc_hd__nor2_1
*I *3190:X O *D sky130_fd_sc_hd__buf_2
*CAP
1 *2542:A 8.27869e-05
2 *2509:A 0.000132309
3 *2630:A 0
4 *2553:A 2.25053e-05
5 *2586:A 0
6 *2575:A 1.85698e-05
7 *2498:A 0
8 *2476:A 0.000646189
9 *2597:A 1.9615e-05
10 *2608:A 3.54878e-05
11 *3190:X 0
12 *884:109 0.000170878
13 *884:59 0.000832809
14 *884:53 0.000330409
15 *884:47 0.000811965
16 *884:39 0.000981941
17 *884:20 0.000465039
18 *884:16 0.000350217
19 *884:10 0.000396671
20 *884:6 0.000190777
21 *2542:A *2641:A 4.56437e-05
22 *2542:A *3190:A 5.33005e-05
23 *2553:A *2673:A1 5.33005e-05
24 *884:10 *2641:A 0.000324167
25 *884:16 *2641:A 0.000197009
26 *884:16 *1024:18 4.66234e-05
27 *884:20 *1024:18 0.000168939
28 *884:39 *2670:A1 3.14078e-05
29 *884:47 *3342:A 0
30 *884:47 *3356:A 0
31 *884:47 *3362:A 0
32 *884:47 *3363:A 0
33 *884:47 *1040:18 0
34 *884:53 *2489:A2 3.34366e-05
35 *884:59 *886:70 0.000181796
36 PWDATA[10] *884:47 4.29654e-05
37 PWDATA[5] *884:53 4.80729e-05
38 PWDATA[5] *884:59 0.000147474
39 PWDATA[9] *884:47 9.15186e-06
40 *2476:B *2476:A 0.000119135
41 *2476:B *884:47 0.000128419
42 *2489:A1 *2575:A 0
43 *2509:B *2509:A 1.46128e-05
44 *2575:B *2575:A 5.7661e-06
45 *2575:B *884:53 1.58163e-05
46 *2586:B *884:39 5.91094e-05
47 *2597:B *2597:A 7.82542e-06
48 *2597:B *884:59 0.000104695
49 *2607:A1 *2509:A 0
50 *2630:B *2509:A 4.1896e-06
51 *2642:B *2575:A 3.99614e-06
52 *2645:B *884:39 0.000248486
53 *2654:B *884:53 7.6588e-05
54 *2664:A1 *2542:A 4.27338e-05
55 *2820:D *2608:A 9.41642e-05
56 *2820:D *884:39 0.000219711
57 *2824:D *2476:A 9.60875e-05
58 *2824:D *2597:A 0
59 *2824:GATE_N *2476:A 9.95173e-06
60 *2828:D *2542:A 0.000136951
61 *2829:D *2553:A 1.58163e-05
62 *2829:D *884:16 0.000148903
63 *2831:D *884:47 0.000354166
64 *2831:D *884:53 5.52238e-05
65 *2832:D *884:47 8.16036e-05
66 *2834:D *2608:A 3.14163e-05
67 *2834:D *884:39 0.000224652
68 *2836:D *2542:A 5.58941e-05
69 *2836:D *884:10 0.00027438
70 *3308:A *884:47 5.52238e-05
71 *3322:A *884:39 3.18676e-05
72 *431:35 *884:10 2.23987e-05
73 *431:35 *884:16 0.000404504
74 *431:39 *884:16 0.000184085
75 *431:43 *884:16 4.46186e-06
76 *431:43 *884:20 8.359e-05
77 *431:49 *884:39 0.000151843
78 *431:49 *884:47 0
79 *431:51 *884:47 0
80 *521:30 *884:47 6.34436e-05
81 *521:30 *884:53 2.59355e-05
82 *877:96 *884:59 1.40306e-05
83 *877:130 *884:53 0.000245342
84 *877:130 *884:59 0.00014576
*RES
1 *3190:X *884:6 13.8 
2 *884:6 *884:10 4.60714 
3 *884:10 *884:16 8.78571 
4 *884:16 *884:20 6.75 
5 *884:20 *2608:A 10.2464 
6 *884:20 *884:39 18.6607 
7 *884:39 *884:47 22.7679 
8 *884:47 *884:53 9.01786 
9 *884:53 *884:59 9.03571 
10 *884:59 *2597:A 9.72857 
11 *884:59 *2476:A 17.1571 
12 *884:53 *2498:A 13.8 
13 *884:47 *2575:A 9.72857 
14 *884:39 *2586:A 9.3 
15 *884:16 *2553:A 14.3357 
16 *884:10 *884:109 5.03571 
17 *884:109 *2630:A 9.3 
18 *884:109 *2509:A 11.5143 
19 *884:6 *2542:A 16.3179 
*END

*D_NET *885 0.0237239
*CONN
*I *2520:A I *D sky130_fd_sc_hd__nor2_1
*I *2531:A I *D sky130_fd_sc_hd__nor2_1
*I *2619:A I *D sky130_fd_sc_hd__nor2_1
*I *3190:A I *D sky130_fd_sc_hd__buf_2
*I *2641:A I *D sky130_fd_sc_hd__nor2_1
*I *2564:A I *D sky130_fd_sc_hd__nor2_1
*I *2686:A2 I *D sky130_fd_sc_hd__o31a_4
*I *2717:B1 I *D sky130_fd_sc_hd__o32a_1
*I *2716:B I *D sky130_fd_sc_hd__nor2_1
*I *2782:B I *D sky130_fd_sc_hd__nand2_1
*I *3191:X O *D sky130_fd_sc_hd__clkbuf_4
*CAP
1 *2520:A 1.68269e-05
2 *2531:A 0
3 *2619:A 8.4412e-05
4 *3190:A 1.69531e-05
5 *2641:A 0.000221111
6 *2564:A 0
7 *2686:A2 0
8 *2717:B1 0
9 *2716:B 2.39279e-05
10 *2782:B 0.000578372
11 *3191:X 0
12 *885:162 5.50925e-05
13 *885:149 0.000122678
14 *885:129 0.000442445
15 *885:118 0.00103658
16 *885:106 0.00185436
17 *885:50 0.00213243
18 *885:22 0.00205108
19 *885:8 0.000891371
20 *885:4 0.00139258
21 *2641:A *1024:18 0.000773601
22 *2716:B *929:8 2.04825e-05
23 *2782:B *2409:A2 0.000108981
24 *2782:B *2782:A 3.57366e-05
25 *2782:B *887:47 1.24368e-05
26 *2782:B *929:8 0
27 *2782:B *929:10 0.000120403
28 *885:22 *2694:B 2.49484e-05
29 *885:22 *947:51 5.52238e-05
30 *885:22 *947:61 5.71472e-05
31 *885:50 *2711:A 5.33005e-05
32 *885:50 *2717:A3 0.00034488
33 *885:50 *2777:A1 0.000141759
34 *885:50 *929:8 4.29471e-05
35 *885:50 *947:61 8.17274e-05
36 *885:50 *950:23 1.98839e-05
37 *885:50 *953:18 6.28248e-05
38 *885:118 *3348:A 2.49484e-05
39 *885:118 *1024:12 0.000483704
40 *885:118 *1024:18 0.00020455
41 *885:129 *1024:18 0.000550724
42 *2396:A *885:22 7.17136e-05
43 *2409:A1 *2782:B 0.000334463
44 *2458:A *885:50 9.25014e-06
45 *2531:B *885:106 0.000306644
46 *2531:B *885:118 3.34295e-05
47 *2541:A1 *885:118 0
48 *2542:A *2641:A 4.56437e-05
49 *2542:A *3190:A 5.33005e-05
50 *2563:B2 *885:118 4.57445e-05
51 *2564:B *885:118 3.57366e-05
52 *2647:B *885:106 0.000221163
53 *2664:A1 *3190:A 5.33005e-05
54 *2686:A1 *885:22 0.000177815
55 *2686:A3 *885:8 5.20751e-05
56 *2686:A3 *885:22 9.46929e-05
57 *2686:B1 *885:8 1.34548e-05
58 *2695:C *885:22 0.000414103
59 *2711:C *885:50 1.90936e-05
60 *2716:A *2716:B 5.52238e-05
61 *2717:A2 *885:22 5.04705e-05
62 *2764:A1 *885:22 0.000350501
63 *2776:A2 *2782:B 4.00349e-05
64 *2777:A2 *885:50 7.06093e-05
65 *2777:B1 *885:50 7.22199e-05
66 *2778:A2 *885:50 2.43626e-05
67 *2779:A *885:50 3.65069e-05
68 *2779:C *885:50 9.66073e-06
69 *2827:D *2520:A 5.71472e-05
70 *2827:D *2619:A 6.05161e-06
71 *2827:D *885:162 1.5424e-05
72 *2829:D *2641:A 1.02504e-05
73 *2830:D *885:118 5.52238e-05
74 *2830:D *885:129 4.08637e-05
75 *2835:D *885:118 0
76 *2836:D *2641:A 1.08359e-05
77 *2836:D *885:129 7.83366e-05
78 *2838:D *885:106 1.92905e-05
79 *2838:GATE_N *885:106 3.32631e-05
80 *2841:D *885:106 2.28159e-05
81 *2842:D *885:106 0.000152333
82 *2842:GATE_N *885:106 0.000125724
83 *3189:A *885:106 3.34687e-05
84 *3191:A *885:8 0.000178847
85 *3191:A *885:106 1.21258e-05
86 *431:10 *885:8 1.98839e-05
87 *431:10 *885:106 0.000199824
88 *431:10 *885:118 7.85979e-05
89 *431:12 *885:118 8.08376e-05
90 *431:14 *885:118 4.38511e-05
91 *431:16 *885:118 3.01126e-05
92 *431:29 *885:129 0.000142515
93 *431:31 *885:129 1.00375e-05
94 *433:10 *885:106 2.82057e-05
95 *433:16 *885:106 0.000231585
96 *440:37 *885:118 5.42958e-05
97 *475:31 *2782:B 0.000340235
98 *503:12 *885:22 0.000247342
99 *503:36 *885:22 0.000345257
100 *581:12 *885:118 0
101 *672:34 *885:50 0.000688215
102 *672:65 *2782:B 9.60875e-05
103 *675:14 *885:22 0.000303135
104 *696:8 *885:50 0.000561385
105 *767:10 *885:106 0.00017309
106 *767:23 *885:106 0.00041474
107 *771:10 *2782:B 0.000438679
108 *771:10 *885:50 0
109 *804:10 *2716:B 5.33005e-05
110 *804:10 *885:50 0.000139907
111 *813:30 *885:118 0
112 *868:33 *885:50 7.69776e-06
113 *878:73 *885:106 8.47203e-05
114 *883:31 *885:106 0.000611385
115 *883:127 *2782:B 9.41642e-05
116 *884:10 *2641:A 0.000324167
117 *884:16 *2641:A 0.000197009
*RES
1 *3191:X *885:4 9.3 
2 *885:4 *885:8 6.60714 
3 *885:8 *885:22 25.0536 
4 *885:22 *885:50 43.6132 
5 *885:50 *2782:B 37.7732 
6 *885:50 *2716:B 14.6125 
7 *885:22 *2717:B1 9.3 
8 *885:8 *2686:A2 9.3 
9 *885:4 *885:106 31.6429 
10 *885:106 *885:118 23.5536 
11 *885:118 *2564:A 9.3 
12 *885:118 *885:129 12.1429 
13 *885:129 *2641:A 23.6393 
14 *885:129 *3190:A 14.3357 
15 *885:106 *885:149 4.5 
16 *885:149 *2619:A 10.675 
17 *885:149 *885:162 0.964286 
18 *885:162 *2531:A 9.3 
19 *885:162 *2520:A 9.83571 
*END

*D_NET *886 0.0112955
*CONN
*I *2645:A I *D sky130_fd_sc_hd__nor2_1
*I *2649:A I *D sky130_fd_sc_hd__nor2_1
*I *2652:A I *D sky130_fd_sc_hd__nor2_1
*I *2642:A I *D sky130_fd_sc_hd__nor2_1
*I *2654:A I *D sky130_fd_sc_hd__nor2_1
*I *2644:A I *D sky130_fd_sc_hd__nor2_1
*I *2657:A I *D sky130_fd_sc_hd__nor2_1
*I *2651:A I *D sky130_fd_sc_hd__nor2_1
*I *2653:A I *D sky130_fd_sc_hd__nor2_1
*I *2656:A I *D sky130_fd_sc_hd__nor2_1
*I *3192:X O *D sky130_fd_sc_hd__buf_2
*CAP
1 *2645:A 2.65735e-05
2 *2649:A 0.000107817
3 *2652:A 0
4 *2642:A 0
5 *2654:A 0
6 *2644:A 0
7 *2657:A 0
8 *2651:A 1.22537e-05
9 *2653:A 0.000210116
10 *2656:A 0.00015954
11 *3192:X 0.000223945
12 *886:90 7.03067e-05
13 *886:84 0.000582218
14 *886:70 0.0010319
15 *886:41 0.000841682
16 *886:39 0.000388935
17 *886:31 0.000335966
18 *886:27 0.00028349
19 *886:23 0.000375772
20 *886:6 0.000627866
21 *2649:A *2670:A1 4.27338e-05
22 *2651:A *2489:B1 5.52238e-05
23 *2656:A *2489:A2 0.000125724
24 *2656:A *3192:A 6.57032e-05
25 *886:6 *3192:A 9.0145e-05
26 *886:23 *2489:A2 0.000158675
27 *886:23 *1024:18 0.000714811
28 *886:27 *2489:A2 0.000163833
29 *886:27 *1024:18 1.91414e-05
30 *886:31 *2489:A2 0.000222878
31 *886:31 *1024:18 3.45894e-05
32 *886:39 *1024:18 0.000521679
33 *886:41 *1024:18 0.000222892
34 *886:70 *2489:B1 3.481e-05
35 *886:84 *2670:A0 8.23597e-06
36 *886:90 *2489:B1 8.40572e-05
37 PWDATA[0] *2653:A 1.21258e-05
38 *2586:B *2649:A 9.41642e-05
39 *2597:B *2653:A 2.82057e-05
40 *2644:B *886:90 1.34907e-05
41 *2645:B *2645:A 5.52238e-05
42 *2652:B *886:39 5.45515e-05
43 *2653:B *2653:A 9.35228e-06
44 *2654:B *886:70 0.000280308
45 *2656:B *886:23 0.000125724
46 *2657:B *886:84 2.04825e-05
47 *2657:B *886:90 0.000144773
48 *2808:D *886:90 1.00733e-05
49 *2808:GATE_N *886:70 7.91917e-05
50 *2809:D *886:27 0.000123295
51 *2809:D *886:31 9.25014e-06
52 *2809:GATE_N *2649:A 2.79421e-05
53 *2809:GATE_N *886:31 0.000150618
54 *2814:GATE_N *2653:A 4.71689e-05
55 *2816:D *886:39 0.000161646
56 *2817:D *2653:A 5.52238e-05
57 *2820:D *886:23 0.000287849
58 *2832:GATE_N *886:39 0
59 *2833:D *2653:A 9.25014e-06
60 *2833:D *886:41 0.000195562
61 *3184:A *886:84 0.000271123
62 *3322:A *2653:A 0.00011904
63 *3322:A *886:39 0.000148446
64 *3322:A *886:41 6.8812e-05
65 *3326:A *2653:A 0.000145677
66 *426:10 *886:84 4.65158e-06
67 *521:26 *886:41 2.26424e-05
68 *540:18 *886:84 0
69 *641:8 *2656:A 0.000127446
70 *838:51 *2651:A 2.28499e-05
71 *838:51 *886:84 2.06112e-05
72 *838:51 *886:90 0.000274294
73 *877:96 *886:70 6.68971e-06
74 *877:130 *2653:A 2.46999e-05
75 *877:130 *886:41 1.77672e-05
76 *884:59 *886:70 0.000181796
*RES
1 *3192:X *886:6 11.8893 
2 *886:6 *2656:A 21.3 
3 *886:6 *886:23 13.7321 
4 *886:23 *886:27 2.78571 
5 *886:27 *886:31 7.35714 
6 *886:31 *886:39 13.0893 
7 *886:39 *886:41 4.375 
8 *886:41 *2653:A 18.8893 
9 *886:41 *886:70 12.3036 
10 *886:70 *886:84 17.5016 
11 *886:84 *886:90 3.44643 
12 *886:90 *2651:A 9.83571 
13 *886:90 *2657:A 9.3 
14 *886:84 *2644:A 9.3 
15 *886:70 *2654:A 9.3 
16 *886:39 *2642:A 13.8 
17 *886:31 *2652:A 9.3 
18 *886:27 *2649:A 15.9786 
19 *886:23 *2645:A 14.3357 
*END

*D_NET *887 0.0264359
*CONN
*I *2655:A I *D sky130_fd_sc_hd__nor2_1
*I *2647:A I *D sky130_fd_sc_hd__nor2_1
*I *2646:A I *D sky130_fd_sc_hd__nor2_1
*I *3192:A I *D sky130_fd_sc_hd__buf_2
*I *2648:A I *D sky130_fd_sc_hd__nor2_1
*I *2650:A I *D sky130_fd_sc_hd__nor2_1
*I *2782:A I *D sky130_fd_sc_hd__nand2_1
*I *2457:A I *D sky130_fd_sc_hd__inv_2
*I *2681:S I *D sky130_fd_sc_hd__mux2_1
*I *2643:A I *D sky130_fd_sc_hd__nor2_1
*I *3193:X O *D sky130_fd_sc_hd__clkbuf_4
*CAP
1 *2655:A 0.000153631
2 *2647:A 8.13334e-05
3 *2646:A 0.000385437
4 *3192:A 0.000224098
5 *2648:A 0
6 *2650:A 0
7 *2782:A 3.76853e-05
8 *2457:A 0.000146255
9 *2681:S 0
10 *2643:A 0.00143056
11 *3193:X 0
12 *887:123 0.00062593
13 *887:104 0.00126568
14 *887:88 0.00140316
15 *887:86 0.000460659
16 *887:84 0.000743624
17 *887:53 0.000275375
18 *887:47 0.000865689
19 *887:22 0.00431509
20 *887:4 0.00255019
21 *2643:A *2486:A2 0
22 *2643:A *912:95 2.83284e-06
23 *2643:A *917:70 1.76649e-05
24 *2646:A *2663:A0 9.71197e-05
25 *2646:A *931:85 0
26 *2647:A *2523:A2 0
27 *2647:A *2523:B1 3.99614e-06
28 *3192:A *2489:A2 0.000170239
29 *3192:A *914:128 5.65955e-05
30 *887:22 *2522:A2 0
31 *887:22 *911:10 9.41642e-05
32 *887:22 *931:81 0.000763225
33 *887:47 *2409:A2 0
34 *887:47 *2611:A2 4.55863e-05
35 *887:47 *897:84 0
36 *887:86 *931:81 2.46999e-05
37 *887:88 *2523:A2 0.000345453
38 *887:88 *931:87 0
39 *887:104 *2523:A2 0.0011241
40 *887:104 *915:79 0.000108353
41 *887:104 *931:87 0
42 *887:123 *2562:A2 0.000239828
43 *887:123 *914:128 5.49544e-05
44 *2409:A1 *887:47 2.84398e-05
45 *2478:B2 *2643:A 0
46 *2486:A1 *2643:A 0
47 *2486:B1 *2643:A 0
48 *2523:A1 *887:88 1.31516e-05
49 *2523:B2 *887:86 3.34366e-05
50 *2523:B2 *887:88 0.00028515
51 *2524:B2 *887:22 2.06178e-05
52 *2530:B2 *887:22 0
53 *2609:B2 *2643:A 1.99644e-05
54 *2609:B2 *887:47 4.2991e-05
55 *2611:B2 *887:47 0.000125567
56 *2619:B *2647:A 3.14163e-05
57 *2643:B *2643:A 9.54798e-06
58 *2648:B *887:123 0.000598732
59 *2650:B *887:123 9.25014e-06
60 *2655:B *2655:A 0
61 *2655:B *887:86 0
62 *2656:A *3192:A 6.57032e-05
63 *2663:A1 *2646:A 5.52302e-05
64 *2664:S *887:104 9.02232e-05
65 *2664:S *887:123 9.21046e-05
66 *2681:A1 *2457:A 4.60232e-06
67 *2778:A1 *2457:A 0.000137983
68 *2782:B *2782:A 3.57366e-05
69 *2782:B *887:47 1.24368e-05
70 *2807:D *2643:A 6.03908e-05
71 *2807:GATE_N *2643:A 0
72 *2811:D *2655:A 0.00014285
73 *2811:D *887:86 0
74 *2814:D *887:123 2.65341e-05
75 *2819:D *2655:A 0
76 *2846:D *2643:A 0.000168777
77 *2853:D *887:104 5.52238e-05
78 *2881:GATE_N *887:22 0.000250479
79 *2890:D *887:47 4.16756e-05
80 *2910:D *2643:A 0.000219235
81 *2933:D *887:104 0.000147835
82 *2938:GATE_N *2643:A 0
83 *2961:D *2643:A 0.000112412
84 *3066:GATE_N *2643:A 0.000283391
85 *3134:A *887:104 0.000340587
86 *3141:A *887:22 0.000578435
87 *3150:A *887:22 2.08409e-05
88 *3171:A *887:104 0.000910198
89 *3172:A *2646:A 0.000139202
90 *3173:A *2646:A 2.90184e-05
91 *3185:A *2457:A 0
92 *3188:A *887:104 1.33343e-05
93 *3193:A *887:22 3.34295e-05
94 *3225:A *887:22 1.36662e-05
95 *426:10 *887:123 7.20217e-06
96 *485:10 *887:47 0
97 *531:10 *2643:A 0
98 *561:20 *2647:A 1.24368e-05
99 *561:28 *2646:A 3.76337e-05
100 *565:20 *887:22 0.000101515
101 *581:12 *887:123 0.000105545
102 *651:14 *2643:A 0
103 *651:22 *887:22 1.5424e-05
104 *753:6 *2782:A 5.71472e-05
105 *771:10 *2457:A 9.31197e-05
106 *771:10 *887:53 1.76135e-05
107 *809:35 *887:104 0.000252623
108 *809:35 *887:123 0
109 *812:59 *887:22 0.000168536
110 *822:14 *887:104 0.000134366
111 *830:42 *2643:A 5.52302e-05
112 *847:29 *2643:A 4.44663e-05
113 *847:29 *887:47 5.01876e-06
114 *847:33 *2643:A 0.000115164
115 *858:16 *887:104 8.32171e-05
116 *858:20 *887:104 0.00012501
117 *859:30 *2643:A 0.000373965
118 *878:25 *2457:A 5.66502e-05
119 *878:25 *887:47 0
120 *878:25 *887:53 7.17836e-05
121 *878:44 *887:22 0.000321827
122 *878:50 *887:22 0
123 *878:50 *887:84 7.03393e-05
124 *878:73 *887:84 0.000396892
125 *883:31 *2646:A 2.77289e-05
126 *883:53 *2646:A 4.43157e-05
127 *883:127 *2457:A 0.000137983
128 *886:6 *3192:A 9.0145e-05
*RES
1 *3193:X *887:4 9.3 
2 *887:4 *887:22 34.2509 
3 *887:22 *2643:A 48.8982 
4 *887:22 *887:47 16.5446 
5 *887:47 *887:53 6.98214 
6 *887:53 *2681:S 13.8 
7 *887:53 *2457:A 17.7107 
8 *887:47 *2782:A 10.5679 
9 *887:4 *887:84 9.55357 
10 *887:84 *887:86 3.76786 
11 *887:86 *887:88 4.98214 
12 *887:88 *887:104 40.9821 
13 *887:104 *2650:A 9.3 
14 *887:104 *887:123 20.5714 
15 *887:123 *2648:A 9.3 
16 *887:123 *3192:A 13.9429 
17 *887:88 *2646:A 21.05 
18 *887:86 *2647:A 15.175 
19 *887:84 *2655:A 16.8 
*END

*D_NET *888 0.0166405
*CONN
*I *2765:B I *D sky130_fd_sc_hd__nor2_1
*I *2732:B1 I *D sky130_fd_sc_hd__a21oi_1
*I *2768:B1 I *D sky130_fd_sc_hd__a21o_1
*I *2764:A2 I *D sky130_fd_sc_hd__o41a_2
*I *2724:B1 I *D sky130_fd_sc_hd__a21oi_1
*I *2719:B1 I *D sky130_fd_sc_hd__o2bb2a_1
*I *2447:B I *D sky130_fd_sc_hd__nand2_1
*I *2718:A1 I *D sky130_fd_sc_hd__o211a_2
*I *2777:A1 I *D sky130_fd_sc_hd__a31o_1
*I *2711:B I *D sky130_fd_sc_hd__nor3_1
*I *3194:X O *D sky130_fd_sc_hd__buf_2
*CAP
1 *2765:B 0.000314862
2 *2732:B1 0
3 *2768:B1 0.000944098
4 *2764:A2 0
5 *2724:B1 0.000236663
6 *2719:B1 0
7 *2447:B 0.000618429
8 *2718:A1 4.09699e-06
9 *2777:A1 0.00100634
10 *2711:B 4.5988e-05
11 *3194:X 0
12 *888:122 0.00047338
13 *888:105 0.00131591
14 *888:63 0.00064861
15 *888:59 0.000518158
16 *888:24 0.00117998
17 *888:16 0.000164197
18 *888:14 0.00101846
19 *888:10 0.000982079
20 *888:4 0.000460675
21 *2447:B *2759:A 2.28598e-05
22 *2447:B *964:20 1.21289e-05
23 *2447:B *1001:8 8.00806e-05
24 *2711:B *2711:A 5.33005e-05
25 *2711:B *947:61 5.33005e-05
26 *2724:B1 *953:12 0.000165072
27 *2765:B *2775:A1 8.25843e-06
28 *2768:B1 *3107:RESET_B 0.00017411
29 *2777:A1 *950:6 5.33334e-05
30 *2777:A1 *950:23 0.000187892
31 *888:16 *953:18 2.6949e-05
32 *888:24 *947:61 3.08283e-05
33 *888:59 *953:12 0.000246064
34 *888:59 *953:18 0.000225191
35 *888:105 *980:10 6.8646e-06
36 *888:122 *980:10 2.59795e-05
37 *2447:A *2447:B 2.39876e-05
38 *2711:C *888:24 0.000179032
39 *2717:A1 *888:16 7.90803e-05
40 *2717:A1 *888:24 0.000139059
41 *2717:A1 *888:59 7.38245e-05
42 *2718:C1 *888:24 0.000136951
43 *2721:S *2724:B1 0.000165235
44 *2730:A *2724:B1 1.21258e-05
45 *2733:B2 *2724:B1 0.000232399
46 *2733:C1 *2765:B 3.69047e-06
47 *2737:B2 *2447:B 0.000399835
48 *2738:B1 *2447:B 5.37908e-05
49 *2738:B1 *888:63 2.59355e-05
50 *2764:A3 *888:10 5.52238e-05
51 *2769:A *888:105 0.000262806
52 *2769:A *888:122 5.83304e-05
53 *2769:B *2768:B1 1.59464e-05
54 *2771:A *888:10 5.25774e-05
55 *2771:A *888:105 9.77274e-05
56 *2775:A2 *2765:B 0.000221641
57 *2775:A2 *888:122 0.000153163
58 *2775:B1 *2765:B 7.42572e-05
59 *2777:A2 *2777:A1 2.51343e-06
60 *2777:B1 *2777:A1 6.07526e-05
61 *3107:D *2765:B 9.41642e-05
62 *3107:D *2768:B1 5.52238e-05
63 *3242:A *2777:A1 0.000102207
64 *116:23 *2768:B1 0.00022266
65 *117:8 *2768:B1 2.89016e-05
66 *501:36 *2447:B 1.52978e-05
67 *501:40 *2447:B 9.71197e-05
68 *672:26 *2718:A1 1.28809e-05
69 *672:34 *2777:A1 1.00073e-05
70 *676:12 *888:10 0.000172274
71 *676:12 *888:14 0.000141975
72 *676:12 *888:105 0
73 *676:16 *2718:A1 1.28809e-05
74 *676:16 *888:14 0.000395785
75 *701:12 *888:14 5.52302e-05
76 *701:18 *2724:B1 3.34366e-05
77 *701:18 *888:59 0.000414748
78 *739:6 *888:10 0.000184798
79 *739:6 *888:105 0.000186662
80 *742:6 *2768:B1 3.59583e-05
81 *788:14 *888:122 0.000342495
82 *880:20 *888:122 0
83 *885:50 *2777:A1 0.000141759
*RES
1 *3194:X *888:4 9.3 
2 *888:4 *888:10 4.78571 
3 *888:10 *888:14 14.4821 
4 *888:14 *888:16 1.03571 
5 *888:16 *888:24 8.75 
6 *888:24 *2711:B 10.675 
7 *888:24 *2777:A1 22.9071 
8 *888:16 *2718:A1 13.9295 
9 *888:14 *888:59 7.57143 
10 *888:59 *888:63 5.03571 
11 *888:63 *2447:B 27.5857 
12 *888:63 *2719:B1 9.3 
13 *888:59 *2724:B1 19.4607 
14 *888:10 *2764:A2 9.3 
15 *888:4 *888:105 10.0357 
16 *888:105 *2768:B1 25.8714 
17 *888:105 *888:122 9.78571 
18 *888:122 *2732:B1 9.3 
19 *888:122 *2765:B 14.7821 
*END

*D_NET *889 0.0297568
*CONN
*I *2613:B1 I *D sky130_fd_sc_hd__a221o_1
*I *2483:B1 I *D sky130_fd_sc_hd__a221o_1
*I *2579:B1 I *D sky130_fd_sc_hd__a221o_1
*I *2545:B1 I *D sky130_fd_sc_hd__a22o_1
*I *2500:B1 I *D sky130_fd_sc_hd__a221o_1
*I *2621:B1 I *D sky130_fd_sc_hd__a221o_1
*I *2554:B1 I *D sky130_fd_sc_hd__a22o_1
*I *2599:B1 I *D sky130_fd_sc_hd__a221o_1
*I *2590:B1 I *D sky130_fd_sc_hd__a221o_1
*I *2469:B1 I *D sky130_fd_sc_hd__a221o_1
*I *3195:X O *D sky130_fd_sc_hd__clkbuf_4
*CAP
1 *2613:B1 0
2 *2483:B1 1.4812e-05
3 *2579:B1 0.000139981
4 *2545:B1 0
5 *2500:B1 0
6 *2621:B1 1.00305e-05
7 *2554:B1 0.000851414
8 *2599:B1 0.00108837
9 *2590:B1 0.000538056
10 *2469:B1 0
11 *3195:X 0.000148257
12 *889:98 0.0020021
13 *889:94 0.000549936
14 *889:82 0.00171919
15 *889:53 0.00186592
16 *889:46 0.000323385
17 *889:34 0.000835804
18 *889:28 0.00256744
19 *889:16 0.0021249
20 *889:10 0.00042957
21 *2483:B1 *2483:C1 9.7049e-06
22 *2554:B1 *2620:B1 0
23 *2579:B1 *896:16 4.19624e-06
24 *2579:B1 *896:20 1.89507e-06
25 *2590:B1 *2469:A2 3.17148e-05
26 *2590:B1 *2589:B1 0
27 *2590:B1 *914:32 0.000167288
28 *2590:B1 *914:34 9.02862e-06
29 *2599:B1 *909:116 4.28365e-05
30 *889:10 *903:14 0
31 *889:10 *907:14 3.61769e-05
32 *889:10 *907:26 4.60232e-06
33 *889:10 *908:12 5.52238e-05
34 *889:16 *2483:A2 3.34366e-05
35 *889:16 *907:14 2.37388e-05
36 *889:16 *907:26 9.64345e-05
37 *889:28 *2483:C1 2.44266e-05
38 *889:28 *2625:A2 0.00012401
39 *889:28 *2627:C1 0.000162454
40 *889:28 *2637:A2 0
41 *889:28 *904:14 0
42 *889:28 *904:113 0.000894542
43 *889:28 *904:121 0
44 *889:28 *934:20 0.000674279
45 *889:34 *896:20 0
46 *889:46 *2545:A2 0.00010096
47 *889:46 *896:31 4.18895e-05
48 *889:46 *914:32 0.000126446
49 *889:53 *2469:A2 1.46576e-05
50 *889:94 *894:23 4.43113e-05
51 *889:94 *894:25 0.000124714
52 *889:94 *894:29 1.38247e-05
53 *889:94 *914:97 0.000142856
54 *2468:A1 *2590:B1 0.00018442
55 *2468:B2 *2590:B1 5.405e-05
56 *2469:A1 *2590:B1 7.25296e-05
57 *2483:A1 *889:16 2.89016e-05
58 *2483:A1 *889:28 4.406e-05
59 *2483:B2 *889:28 1.38106e-05
60 *2484:B1 *889:16 4.99064e-05
61 *2484:B1 *889:28 0.00010326
62 *2484:C1 *889:16 0.000311021
63 *2490:A1 *889:82 9.90431e-05
64 *2499:A1 *889:82 0.000142856
65 *2499:B2 *889:82 6.26376e-05
66 *2500:B2 *889:82 1.38106e-05
67 *2500:B2 *889:94 7.1278e-05
68 *2545:A1 *889:34 0.00055977
69 *2545:B2 *889:34 0.000181359
70 *2573:A *2590:B1 9.90367e-05
71 *2579:B2 *2579:B1 9.54798e-06
72 *2590:A1 *2590:B1 0.000115446
73 *2590:B2 *2590:B1 0.000141943
74 *2607:B2 *2599:B1 0
75 *2607:B2 *889:28 0
76 *2613:B2 *889:10 3.27359e-05
77 *2613:B2 *889:16 9.96264e-05
78 *2614:C1 *889:10 0
79 *2621:B2 *2554:B1 1.12323e-05
80 *2621:B2 *889:94 1.28809e-05
81 *2621:B2 *889:98 8.78763e-05
82 *2621:C1 *889:94 9.41642e-05
83 *2624:A1 *889:28 0
84 *2625:C1 *889:28 0.000149911
85 *2626:A1 *889:28 0.000120171
86 *2629:B2 *2579:B1 0.000126126
87 *2629:B2 *2599:B1 0.000558575
88 *2629:B2 *889:28 0.00017975
89 *2635:B2 *889:28 0.000184476
90 *2848:GATE_N *889:94 0.000333159
91 *2873:GATE_N *889:28 0
92 *2892:GATE_N *889:28 2.15363e-05
93 *2939:D *2554:B1 0
94 *2956:GATE_N *2554:B1 7.77751e-05
95 *2972:GATE_N *2554:B1 0
96 *3037:GATE_N *889:46 0
97 *3161:A *2590:B1 2.40379e-05
98 *3196:A *889:10 6.33204e-05
99 *3207:A *889:16 0.000106921
100 *3215:A *889:34 9.66225e-05
101 *447:22 *2554:B1 0
102 *515:18 *2590:B1 0.000206283
103 *620:18 *2579:B1 0.000324226
104 *620:18 *2599:B1 0.000727176
105 *620:18 *889:28 0.00143796
106 *806:60 *2554:B1 0.000114326
107 *807:59 *889:82 5.71472e-05
108 *807:71 *889:82 0.0013964
109 *809:68 *889:82 0
110 *809:111 *889:82 0
111 *809:119 *889:82 6.10591e-05
112 *809:119 *889:94 0
113 *811:18 *889:94 0
114 *811:62 *889:46 4.88637e-05
115 *811:78 *889:34 0
116 *822:95 *889:82 0.000261718
117 *825:45 *2621:B1 5.52302e-05
118 *825:45 *889:94 0.000235675
119 *825:45 *889:98 0
120 *826:20 *2554:B1 0.000216862
121 *829:65 *889:82 0.000137983
122 *833:101 *889:28 3.32442e-05
123 *837:85 *889:28 9.97552e-05
124 *838:10 *2554:B1 7.83174e-05
125 *838:14 *2554:B1 0.000206888
126 *853:133 *2621:B1 1.74352e-05
127 *853:133 *889:94 0.000141875
128 *858:40 *2554:B1 0.000616982
129 *860:10 *889:34 0
130 *860:14 *889:34 0
131 *875:30 *889:46 1.92789e-05
132 *875:30 *889:53 3.54445e-05
133 *875:30 *889:82 0.000272283
134 *883:57 *2599:B1 0
*RES
1 *3195:X *889:10 16.5857 
2 *889:10 *889:16 12.1429 
3 *889:16 *889:28 40.075 
4 *889:28 *889:34 20.6332 
5 *889:34 *889:46 13.7857 
6 *889:46 *2469:B1 9.3 
7 *889:46 *889:53 1.35714 
8 *889:53 *2590:B1 31.3893 
9 *889:53 *889:82 37.1071 
10 *889:82 *889:94 21.3929 
11 *889:94 *889:98 5.6875 
12 *889:98 *2599:B1 24.4183 
13 *889:98 *2554:B1 33.3089 
14 *889:94 *2621:B1 9.83571 
15 *889:82 *2500:B1 9.3 
16 *889:34 *2545:B1 9.3 
17 *889:28 *2579:B1 18.0383 
18 *889:16 *2483:B1 9.72857 
19 *889:10 *2613:B1 13.8 
*END

*D_NET *890 0.00165556
*CONN
*I *2674:A1 I *D sky130_fd_sc_hd__mux2_1
*I *3263:X O *D sky130_fd_sc_hd__clkbuf_1
*CAP
1 *2674:A1 0.000378659
2 *3263:X 0.000378659
3 *2674:A1 *1009:22 7.16858e-05
4 PADDR[0] *2674:A1 5.94884e-05
5 *2461:B *2674:A1 1.41029e-05
6 *2766:A2 *2674:A1 0.000484592
7 *2770:B1 *2674:A1 1.58163e-05
8 *3289:A *2674:A1 5.45771e-05
9 *115:18 *2674:A1 0.000197977
*RES
1 *3263:X *2674:A1 36.6893 
*END

*D_NET *891 0.0183793
*CONN
*I *2511:B1 I *D sky130_fd_sc_hd__a22o_1
*I *2521:B1 I *D sky130_fd_sc_hd__a22o_1
*I *2533:B1 I *D sky130_fd_sc_hd__a221o_1
*I *2440:B I *D sky130_fd_sc_hd__nand2_1
*I *2634:B1 I *D sky130_fd_sc_hd__a221o_1
*I *2488:B1 I *D sky130_fd_sc_hd__a22o_1
*I *2565:B1 I *D sky130_fd_sc_hd__a22o_1
*I *3196:X O *D sky130_fd_sc_hd__buf_2
*CAP
1 *2511:B1 0.000190491
2 *2521:B1 0.000144155
3 *2533:B1 0.000182949
4 *2440:B 0
5 *2634:B1 2.23213e-05
6 *2488:B1 0.000478237
7 *2565:B1 8.78232e-05
8 *3196:X 7.87212e-05
9 *891:90 0.000678845
10 *891:77 0.000515077
11 *891:34 0.00226833
12 *891:18 0.00220485
13 *891:14 0.00118157
14 *891:8 0.000807187
15 *2488:B1 *2488:A2 5.7661e-06
16 *2488:B1 *2565:A2 1.33343e-05
17 *2488:B1 *909:73 0.000141721
18 *2488:B1 *909:84 0.000349158
19 *2511:B1 *893:52 0.000523042
20 *2521:B1 *2523:A2 9.34004e-05
21 *2533:B1 *2523:A2 0.000125674
22 *2565:B1 *2565:A2 4.59075e-05
23 *2634:B1 *2631:B1 5.52302e-05
24 *891:14 *895:50 0.000262504
25 *891:18 *2512:A2 0.000123288
26 *891:18 *2632:B1 0
27 *891:18 *2634:A2 0
28 *891:34 *911:22 0
29 *891:34 *990:12 0
30 *891:77 *2512:B1 5.33005e-05
31 *891:77 *2632:B1 1.76135e-05
32 *891:77 *893:63 7.33494e-06
33 *891:77 *915:62 5.71472e-05
34 *891:90 *2532:B1 0.000215943
35 *891:90 *893:80 0.000475683
36 *891:90 *895:62 2.95726e-05
37 *891:90 *915:62 0.000249164
38 *2420:A *891:18 0.000123288
39 *2436:A *891:77 7.90814e-06
40 *2440:A *891:77 0.000125717
41 *2511:B2 *2511:B1 9.71197e-05
42 *2512:A1 *891:14 0.000135028
43 *2512:A1 *891:77 5.50772e-05
44 *2512:B2 *891:77 0.000105555
45 *2512:B2 *891:90 7.43578e-06
46 *2521:B2 *2521:B1 5.52238e-05
47 *2533:A1 *2533:B1 0.000338153
48 *2565:A1 *891:34 0.000134233
49 *2566:B2 *2488:B1 1.28809e-05
50 *2566:C1 *2488:B1 0.000142856
51 *2629:A1 *891:34 0
52 *2629:B2 *891:34 0.000235681
53 *2632:B2 *891:34 3.15809e-05
54 *2632:C1 *2634:B1 7.43578e-06
55 *2632:C1 *891:18 0.000119174
56 *2634:A1 *891:18 2.59093e-05
57 *2634:A1 *891:34 4.46186e-06
58 *2860:GATE_N *2533:B1 8.2018e-05
59 *2945:D *891:14 5.59013e-05
60 *2972:D *891:34 0.000183712
61 *3046:D *891:34 0.000115206
62 *3052:GATE_N *891:18 0.000246874
63 *3052:GATE_N *891:34 7.34438e-05
64 *3076:D *891:34 0.000175519
65 *3087:GATE_N *891:34 8.84294e-05
66 *390:10 *891:34 7.69776e-06
67 *440:37 *891:90 0.000811942
68 *806:10 *2511:B1 1.07719e-05
69 *806:10 *891:14 0.00011327
70 *806:39 *891:14 9.49567e-05
71 *806:60 *891:34 0.000158109
72 *807:43 *891:34 0
73 *810:20 *891:8 4.39656e-05
74 *810:20 *891:14 0.000121017
75 *812:18 *891:18 0.000136529
76 *822:60 *891:34 0.000115096
77 *826:12 *891:8 0
78 *826:12 *891:14 0
79 *827:52 *891:34 0.000459888
80 *827:67 *891:34 0.000354223
81 *827:71 *891:34 0.000147715
82 *827:160 *891:34 0.000197984
83 *839:60 *2521:B1 0.000166983
84 *839:60 *2533:B1 0.000502906
85 *842:10 *891:34 0.000154561
86 *842:50 *891:34 7.29667e-05
87 *854:44 *891:34 7.20159e-05
88 *861:58 *891:34 0.000151333
89 *864:51 *891:14 1.42028e-05
90 *882:20 *891:34 0
*RES
1 *3196:X *891:8 15.1393 
2 *891:8 *891:14 13.3214 
3 *891:14 *891:18 15.8571 
4 *891:18 *891:34 46.3912 
5 *891:34 *2565:B1 10.675 
6 *891:34 *2488:B1 19.3536 
7 *891:18 *2634:B1 14.3357 
8 *891:14 *891:77 12.5357 
9 *891:77 *2440:B 9.3 
10 *891:77 *891:90 16.6786 
11 *891:90 *2533:B1 21.2107 
12 *891:90 *2521:B1 17.4071 
13 *891:8 *2511:B1 18.8536 
*END

*D_NET *892 0.0272397
*CONN
*I *2601:B1 I *D sky130_fd_sc_hd__a221o_1
*I *2623:B1 I *D sky130_fd_sc_hd__a221o_1
*I *2561:B1 I *D sky130_fd_sc_hd__a22o_1
*I *2577:B1 I *D sky130_fd_sc_hd__a221o_1
*I *2543:B1 I *D sky130_fd_sc_hd__a22o_1
*I *2566:B1 I *D sky130_fd_sc_hd__a221o_1
*I *2466:B1 I *D sky130_fd_sc_hd__a22o_1
*I *2491:B1 I *D sky130_fd_sc_hd__a221o_1
*I *2502:B1 I *D sky130_fd_sc_hd__a221o_1
*I *2589:B1 I *D sky130_fd_sc_hd__a22o_1
*I *3197:X O *D sky130_fd_sc_hd__clkbuf_4
*CAP
1 *2601:B1 8.89767e-05
2 *2623:B1 0.000916437
3 *2561:B1 0.000921898
4 *2577:B1 0.00014036
5 *2543:B1 0.000248039
6 *2566:B1 5.99347e-05
7 *2466:B1 0
8 *2491:B1 0.000519894
9 *2502:B1 0.000259763
10 *2589:B1 0.00021053
11 *3197:X 3.92359e-05
12 *892:150 0.00109261
13 *892:118 0.00169071
14 *892:95 0.00101169
15 *892:82 0.0011983
16 *892:54 0.000731215
17 *892:48 0.00142994
18 *892:31 0.000760944
19 *892:10 0.00116694
20 *892:8 0.000797123
21 *2491:B1 *2491:A2 1.46576e-05
22 *2502:B1 *2502:A2 7.41811e-05
23 *2502:B1 *911:87 0.000544094
24 *2502:B1 *916:27 0.00038457
25 *2502:B1 *916:29 0.000145411
26 *2502:B1 *916:31 2.95642e-05
27 *2543:B1 *2543:A2 9.41642e-05
28 *2561:B1 *2561:A2 0.000379973
29 *2561:B1 *894:143 0.000987213
30 *2589:B1 *2469:A2 0
31 *2589:B1 *914:32 0
32 *2623:B1 *2623:A2 1.46576e-05
33 *892:10 *914:32 0
34 *892:31 *2501:B1 0.000280131
35 *892:31 *896:50 0.000725129
36 *892:31 *896:60 5.13194e-05
37 *892:31 *916:55 5.33005e-05
38 *892:48 *896:60 0.000580592
39 *892:48 *916:55 0.00108715
40 *892:54 *894:29 0.000405038
41 *892:82 *896:60 0.000108603
42 *892:82 *916:55 0.000397918
43 *892:118 *894:143 0.000254435
44 *892:118 *909:90 3.61696e-05
45 *892:118 *909:103 1.50087e-05
46 *2466:A1 *2491:B1 0
47 *2466:B2 *892:54 7.50601e-05
48 *2491:A1 *2491:B1 2.67377e-05
49 *2507:A *2502:B1 5.65415e-05
50 *2543:A1 *2543:B1 2.27416e-05
51 *2544:A1 *892:118 0.000145154
52 *2544:B2 *892:118 0.000143439
53 *2561:A1 *2561:B1 5.19842e-06
54 *2561:B2 *2561:B1 1.15281e-05
55 *2566:A1 *2566:B1 0.000104974
56 *2577:B2 *2577:B1 2.47277e-05
57 *2577:C1 *2561:B1 0.000123133
58 *2589:B2 *2589:B1 5.80706e-06
59 *2590:B1 *2589:B1 0
60 *2590:B2 *2589:B1 1.30604e-05
61 *2598:B2 *2561:B1 0.000317602
62 *2601:A1 *2601:B1 2.89114e-05
63 *2601:B2 *2601:B1 9.40095e-05
64 *2601:B2 *892:150 9.25014e-06
65 *2622:A1 *2623:B1 9.80173e-05
66 *2623:B2 *2623:B1 0.000130304
67 *2641:B *2577:B1 1.12374e-05
68 *2673:S *892:118 1.94879e-05
69 *2853:GATE_N *2561:B1 0.000236778
70 *2937:GATE_N *2561:B1 7.01532e-05
71 *2940:GATE_N *2561:B1 5.33005e-05
72 *2966:D *892:82 1.32552e-05
73 *2971:GATE_N *2623:B1 5.03772e-05
74 *3039:D *892:31 5.33005e-05
75 *3046:D *892:82 3.95407e-06
76 *3046:GATE_N *892:82 0.00044366
77 *3055:GATE_N *2566:B1 0.000226021
78 *3055:GATE_N *892:95 6.73939e-05
79 *3077:D *2561:B1 0.000228136
80 *3081:GATE_N *892:8 5.52238e-05
81 *3081:GATE_N *892:10 0
82 *3155:A *2623:B1 0.000446603
83 *3169:A *892:10 2.06112e-05
84 *3177:A *892:10 0.000148903
85 *390:10 *892:95 0
86 *515:18 *2589:B1 0
87 *535:14 *2491:B1 4.04042e-05
88 *585:10 *892:10 0.000152143
89 *598:26 *2561:B1 2.42516e-05
90 *807:20 *892:95 0
91 *809:35 *892:118 0.000309273
92 *809:54 *892:95 0.00020112
93 *809:68 *892:54 0
94 *811:62 *892:31 0.000146533
95 *822:44 *892:82 3.67257e-05
96 *822:60 *892:82 0.000109843
97 *822:78 *2491:B1 0.000218236
98 *825:12 *2601:B1 0
99 *825:12 *892:150 0
100 *825:94 *892:10 0.000371765
101 *825:96 *2589:B1 0.00015734
102 *825:96 *892:10 0.000224731
103 *825:100 *2589:B1 2.90224e-05
104 *827:160 *2566:B1 4.79479e-05
105 *827:160 *892:95 2.05938e-05
106 *828:37 *2561:B1 0.00025425
107 *829:36 *892:10 0.000199293
108 *829:36 *892:150 3.33605e-05
109 *838:35 *892:118 0
110 *838:37 *892:118 0.000119123
111 *838:123 *2561:B1 8.53785e-05
112 *845:8 *2623:B1 6.13757e-06
113 *859:103 *2561:B1 1.90936e-05
114 *861:58 *2502:B1 0.00018077
115 *861:88 *2543:B1 0.000431574
116 *861:88 *892:118 5.33005e-05
117 *861:95 *892:118 1.5424e-05
118 *863:44 *2561:B1 1.37292e-05
119 *872:42 *2491:B1 0.000205916
*RES
1 *3197:X *892:8 14.3357 
2 *892:8 *892:10 16.8214 
3 *892:10 *2589:B1 18.4786 
4 *892:10 *892:31 15.1786 
5 *892:31 *2502:B1 27.6036 
6 *892:31 *892:48 10.3929 
7 *892:48 *892:54 14.2857 
8 *892:54 *2491:B1 20.175 
9 *892:54 *2466:B1 9.3 
10 *892:48 *892:82 20.6786 
11 *892:82 *2566:B1 16.6571 
12 *892:82 *892:95 7.96429 
13 *892:95 *2543:B1 14.7107 
14 *892:95 *892:118 16.3929 
15 *892:118 *2577:B1 15.7821 
16 *892:118 *2561:B1 46.8179 
17 *892:8 *892:150 1.64286 
18 *892:150 *2623:B1 26.8 
19 *892:150 *2601:B1 15.675 
*END

*D_NET *893 0.01637
*CONN
*I *2615:B1 I *D sky130_fd_sc_hd__a22o_1
*I *2532:B1 I *D sky130_fd_sc_hd__a22o_1
*I *2521:A2 I *D sky130_fd_sc_hd__a22o_1
*I *2632:B1 I *D sky130_fd_sc_hd__a221o_1
*I *2438:B I *D sky130_fd_sc_hd__nand2_1
*I *2511:A2 I *D sky130_fd_sc_hd__a22o_1
*I *2482:B1 I *D sky130_fd_sc_hd__a22o_1
*I *3198:X O *D sky130_fd_sc_hd__clkbuf_2
*CAP
1 *2615:B1 0.000338445
2 *2532:B1 8.10514e-05
3 *2521:A2 0.000370202
4 *2632:B1 0.00033476
5 *2438:B 0
6 *2511:A2 0
7 *2482:B1 6.22748e-05
8 *3198:X 7.29917e-05
9 *893:80 0.000600848
10 *893:63 0.000681828
11 *893:52 0.00117063
12 *893:37 0.00214447
13 *893:16 0.00193765
14 *893:8 0.0011155
15 *2532:B1 *895:62 0.000399848
16 *2615:B1 *927:22 2.06178e-05
17 *2632:B1 *2632:A2 0.000597623
18 *2632:B1 *2634:A2 0.00015134
19 *893:37 *923:32 0.000127495
20 *893:52 *2424:B 0.000106077
21 *893:52 *2513:B1 5.33005e-05
22 *893:63 *2424:B 5.52238e-05
23 *893:63 *2632:A2 0.000327099
24 *893:63 *910:72 2.13965e-05
25 *893:80 *895:62 0.00035013
26 *2440:A *893:63 2.32979e-05
27 *2511:B1 *893:52 0.000523042
28 *2511:B2 *893:52 1.0252e-05
29 *2512:B2 *893:63 0.000122935
30 *2513:A1 *893:52 0.000180777
31 *2513:B2 *893:52 6.26774e-06
32 *2514:A1 *893:37 7.30047e-05
33 *2521:A1 *2521:A2 0.000137983
34 *2897:GATE_N *893:37 0.000475094
35 *2938:GATE_N *893:37 0.000484524
36 *3054:D *2482:B1 0.000123288
37 *3054:D *893:16 2.05612e-05
38 *3054:D *893:37 2.59355e-05
39 *3074:D *2521:A2 6.22185e-06
40 *3082:D *893:16 0.000111527
41 *3082:GATE_N *893:16 0
42 *3091:GATE_N *2521:A2 0
43 *3123:A *2521:A2 1.50181e-05
44 *3150:A *2615:B1 4.66545e-05
45 *3150:A *893:16 2.8196e-05
46 *3198:A *893:8 5.71472e-05
47 *3220:A *2615:B1 0.000177204
48 *435:32 *893:37 9.46929e-05
49 *442:6 *893:52 0.000139907
50 *442:6 *893:63 2.14658e-05
51 *448:45 *2521:A2 9.91086e-05
52 *449:14 *893:63 5.92845e-05
53 *490:8 *893:16 0
54 *499:8 *2615:B1 3.07006e-05
55 *499:8 *893:16 6.20091e-06
56 *499:22 *2482:B1 0.00012501
57 *499:22 *893:16 3.91789e-05
58 *647:20 *2615:B1 1.05524e-05
59 *806:10 *893:52 1.82638e-05
60 *812:47 *893:37 0
61 *832:64 *893:16 0
62 *832:79 *893:16 0.000286516
63 *840:130 *893:8 3.81416e-06
64 *840:130 *893:63 2.83284e-06
65 *859:30 *2632:B1 1.81774e-05
66 *864:27 *2521:A2 3.69047e-06
67 *864:51 *893:37 4.50153e-05
68 *866:80 *893:37 0.000440586
69 *874:8 *893:16 0.000438649
70 *891:18 *2632:B1 0
71 *891:77 *2632:B1 1.76135e-05
72 *891:77 *893:63 7.33494e-06
73 *891:90 *2532:B1 0.000215943
74 *891:90 *893:80 0.000475683
*RES
1 *3198:X *893:8 14.7464 
2 *893:8 *893:16 16.4821 
3 *893:16 *2482:B1 19.9429 
4 *893:16 *893:37 32.9464 
5 *893:37 *2511:A2 9.3 
6 *893:37 *893:52 14.1607 
7 *893:52 *2438:B 9.3 
8 *893:52 *893:63 9.71429 
9 *893:63 *2632:B1 22.4786 
10 *893:63 *893:80 9.14286 
11 *893:80 *2521:A2 25.1571 
12 *893:80 *2532:B1 13.1214 
13 *893:8 *2615:B1 19.4607 
*END

*D_NET *894 0.0256523
*CONN
*I *2622:B1 I *D sky130_fd_sc_hd__a22o_1
*I *2561:A2 I *D sky130_fd_sc_hd__a22o_1
*I *2598:B1 I *D sky130_fd_sc_hd__a22o_1
*I *2544:B1 I *D sky130_fd_sc_hd__a221o_1
*I *2500:A2 I *D sky130_fd_sc_hd__a221o_1
*I *2489:B1 I *D sky130_fd_sc_hd__a221o_1
*I *2467:B1 I *D sky130_fd_sc_hd__a221o_1
*I *2587:B1 I *D sky130_fd_sc_hd__a22o_1
*I *2568:B1 I *D sky130_fd_sc_hd__a221o_1
*I *2578:B1 I *D sky130_fd_sc_hd__a22o_1
*I *3199:X O *D sky130_fd_sc_hd__clkbuf_4
*CAP
1 *2622:B1 0.000436254
2 *2561:A2 0.000408237
3 *2598:B1 1.71754e-05
4 *2544:B1 2.45063e-05
5 *2500:A2 5.6217e-06
6 *2489:B1 0.00140081
7 *2467:B1 2.23854e-05
8 *2587:B1 0
9 *2568:B1 0.000503388
10 *2578:B1 0.000300971
11 *3199:X 0
12 *894:143 0.00103655
13 *894:130 0.00204278
14 *894:73 0.00177005
15 *894:31 0.000666633
16 *894:29 0.00127173
17 *894:25 0.000938699
18 *894:23 0.00191775
19 *894:10 0.000893907
20 *894:4 0.000690021
21 *2489:B1 *2467:A2 1.46576e-05
22 *2489:B1 *2670:A0 9.84661e-05
23 *2561:A2 *2562:B1 2.41224e-05
24 *2561:A2 *909:116 2.8266e-06
25 *2578:B1 *2600:A2 6.05161e-06
26 *2578:B1 *911:58 0.000294904
27 *2622:B1 *2556:B1 1.19402e-05
28 *2622:B1 *2623:A2 1.65758e-05
29 *2622:B1 *916:23 4.21604e-05
30 *894:23 *911:58 0.000281071
31 *894:29 *2466:A2 7.50601e-05
32 *894:29 *909:37 9.65075e-05
33 *894:29 *916:57 0
34 *894:31 *2587:A2 0.000272371
35 *894:73 *2587:A2 0.000196871
36 *894:143 *909:103 0.00037646
37 *894:143 *909:116 0.00012392
38 *2467:B2 *894:73 1.28809e-05
39 *2467:C1 *894:73 0.000139907
40 *2489:A1 *2489:B1 2.66171e-05
41 *2489:B2 *2489:B1 0.000130197
42 *2499:B2 *2500:A2 7.13226e-06
43 *2499:B2 *894:25 1.33434e-05
44 *2499:B2 *894:29 1.89507e-06
45 *2500:A1 *2500:A2 1.46576e-05
46 *2508:A1 *894:130 0.000398815
47 *2544:B2 *894:130 1.38323e-05
48 *2561:B1 *2561:A2 0.000379973
49 *2561:B1 *894:143 0.000987213
50 *2562:C1 *2561:A2 1.98839e-05
51 *2568:B2 *2568:B1 2.85616e-05
52 *2574:A1 *2489:B1 2.44318e-05
53 *2575:B *2489:B1 0.000308152
54 *2588:A1 *894:73 8.24601e-05
55 *2588:C1 *894:29 7.57518e-05
56 *2596:A1 *894:73 0.00010096
57 *2598:A1 *894:143 0.000257146
58 *2622:A1 *2622:B1 0.00010326
59 *2623:B2 *2622:B1 0.000311392
60 *2623:C1 *2622:B1 0
61 *2651:A *2489:B1 5.52238e-05
62 *2651:B *2489:B1 0.0001827
63 *2657:B *2489:B1 0.00014285
64 *2808:D *2489:B1 0.000122617
65 *2808:GATE_N *2489:B1 0.000316931
66 *2848:D *894:130 6.05161e-06
67 *2860:GATE_N *2561:A2 0.000277138
68 *2860:GATE_N *2598:B1 1.92905e-05
69 *2923:GATE_N *894:10 0.000393689
70 *2933:GATE_N *2561:A2 1.0334e-05
71 *3046:GATE_N *894:29 0
72 *3183:A *894:29 0
73 *3183:A *894:73 0.000107797
74 *426:10 *2489:B1 0.000154343
75 *498:18 *2622:B1 5.30637e-06
76 *551:12 *2544:B1 0
77 *551:12 *894:130 9.39067e-05
78 *551:12 *894:143 2.77258e-05
79 *598:26 *2561:A2 0.000110546
80 *630:20 *2568:B1 0.000400709
81 *630:20 *894:73 9.60939e-05
82 *631:28 *2489:B1 0.000147262
83 *805:22 *894:10 7.39742e-05
84 *805:28 *894:10 0.000185405
85 *809:68 *894:29 0
86 *809:111 *894:29 0
87 *809:119 *894:29 0
88 *809:165 *894:10 7.39742e-05
89 *811:18 *894:23 0
90 *811:18 *894:25 0
91 *827:10 *2561:A2 9.90431e-05
92 *827:160 *894:130 0.000865126
93 *828:37 *2561:A2 0
94 *838:51 *2489:B1 0.000360458
95 *838:61 *2467:B1 0
96 *838:61 *2489:B1 0.000107276
97 *838:61 *894:73 0.000174537
98 *852:57 *2568:B1 0.000147835
99 *855:152 *2568:B1 2.59355e-05
100 *855:152 *894:29 7.03773e-05
101 *855:152 *894:31 4.43256e-05
102 *861:58 *894:130 3.71441e-05
103 *875:30 *894:29 0
104 *882:20 *2598:B1 3.52966e-05
105 *886:70 *2489:B1 3.481e-05
106 *886:90 *2489:B1 8.40572e-05
107 *889:94 *894:23 4.43113e-05
108 *889:94 *894:25 0.000124714
109 *889:94 *894:29 1.38247e-05
110 *892:54 *894:29 0.000405038
111 *892:118 *894:143 0.000254435
*RES
1 *3199:X *894:4 9.3 
2 *894:4 *894:10 16.1071 
3 *894:10 *2578:B1 14.7643 
4 *894:10 *894:23 10.8929 
5 *894:23 *894:25 3.46429 
6 *894:25 *894:29 19.5 
7 *894:29 *894:31 3.41071 
8 *894:31 *2568:B1 29.8179 
9 *894:31 *2587:B1 9.3 
10 *894:29 *894:73 17.3036 
11 *894:73 *2467:B1 9.72857 
12 *894:73 *2489:B1 46.9607 
13 *894:25 *2500:A2 13.9473 
14 *894:23 *894:130 23.1071 
15 *894:130 *2544:B1 9.72857 
16 *894:130 *894:143 21.6607 
17 *894:143 *2598:B1 14.3357 
18 *894:143 *2561:A2 24.2286 
19 *894:4 *2622:B1 26.3357 
*END

*D_NET *895 0.0140192
*CONN
*I *2610:B1 I *D sky130_fd_sc_hd__a221o_1
*I *2436:B I *D sky130_fd_sc_hd__nand2_1
*I *2512:B1 I *D sky130_fd_sc_hd__a22o_1
*I *2522:B1 I *D sky130_fd_sc_hd__a221o_1
*I *2532:A2 I *D sky130_fd_sc_hd__a22o_1
*I *2478:B1 I *D sky130_fd_sc_hd__a22o_1
*I *2633:B1 I *D sky130_fd_sc_hd__a22o_1
*I *3200:X O *D sky130_fd_sc_hd__clkbuf_2
*CAP
1 *2610:B1 0
2 *2436:B 0
3 *2512:B1 0.00013435
4 *2522:B1 0.000500878
5 *2532:A2 3.46058e-05
6 *2478:B1 0.000119771
7 *2633:B1 0.000394594
8 *3200:X 0.000114529
9 *895:88 0.000156479
10 *895:62 0.00116804
11 *895:50 0.00139744
12 *895:14 0.000796301
13 *895:12 0.00139219
14 *895:10 0.000482038
15 *2478:B1 *917:52 0.000506006
16 *2522:B1 *2522:A2 6.05161e-06
17 *2522:B1 *2523:A2 0
18 *2522:B1 *2523:B1 2.77143e-05
19 *2633:B1 *2633:A2 0.000175151
20 *895:10 *931:16 5.52302e-05
21 *895:12 *2610:A2 6.40746e-05
22 *895:50 *917:48 2.09897e-05
23 *895:62 *911:22 0.000120697
24 *2436:A *2512:B1 7.53095e-05
25 *2511:A1 *895:12 2.32591e-05
26 *2511:B2 *895:12 3.69697e-05
27 *2518:A *895:12 0.000119767
28 *2521:B2 *2522:B1 5.35423e-05
29 *2522:A1 *2522:B1 7.6644e-05
30 *2522:C1 *2522:B1 0.000149444
31 *2523:A1 *2522:B1 0
32 *2530:B1 *2522:B1 3.92757e-05
33 *2532:A1 *2532:A2 1.02504e-05
34 *2532:B1 *895:62 0.000399848
35 *2560:B *2633:B1 2.56601e-05
36 *2610:A1 *895:12 0.000142316
37 *2930:D *2522:B1 0.000173083
38 *2930:GATE_N *2522:B1 0.000304546
39 *2930:GATE_N *2532:A2 1.46624e-05
40 *2945:GATE_N *895:50 0.00010096
41 *3089:GATE_N *895:50 2.14757e-05
42 *3139:A *895:14 4.25809e-05
43 *3149:A *895:10 4.33438e-05
44 *3149:A *895:12 7.65793e-05
45 *435:32 *2633:B1 0.00058888
46 *435:32 *895:12 0.000222224
47 *435:32 *895:14 0.000546857
48 *439:30 *895:10 0
49 *439:30 *895:12 0
50 *447:22 *895:50 1.94945e-05
51 *448:6 *2512:B1 5.33005e-05
52 *448:6 *895:88 1.98839e-05
53 *449:14 *2512:B1 2.05612e-05
54 *449:14 *895:88 2.59355e-05
55 *498:18 *2633:B1 0
56 *498:18 *895:12 0
57 *498:18 *895:14 0
58 *531:37 *2478:B1 0.000183035
59 *808:14 *895:62 0.00012116
60 *812:18 *895:50 0.000465939
61 *823:14 *895:50 2.63641e-05
62 *828:29 *895:50 0.000470382
63 *839:60 *2522:B1 0
64 *839:60 *2532:A2 0
65 *863:48 *2633:B1 0.000317082
66 *864:51 *895:50 9.18242e-05
67 *865:16 *2522:B1 0.000209243
68 *866:70 *895:50 4.17433e-05
69 *866:80 *895:50 0.000303092
70 *891:14 *895:50 0.000262504
71 *891:77 *2512:B1 5.33005e-05
72 *891:90 *895:62 2.95726e-05
73 *893:80 *895:62 0.00035013
*RES
1 *3200:X *895:10 15.675 
2 *895:10 *895:12 8.32143 
3 *895:12 *895:14 7.10714 
4 *895:14 *2633:B1 24.5143 
5 *895:14 *2478:B1 18.8714 
6 *895:12 *895:50 25.9027 
7 *895:50 *895:62 18.5714 
8 *895:62 *2532:A2 14.5321 
9 *895:62 *2522:B1 25.925 
10 *895:50 *895:88 5.03571 
11 *895:88 *2512:B1 11.9071 
12 *895:88 *2436:B 9.3 
13 *895:10 *2610:B1 13.8 
*END

*D_NET *896 0.0224741
*CONN
*I *2620:B1 I *D sky130_fd_sc_hd__a22o_1
*I *2554:A2 I *D sky130_fd_sc_hd__a22o_1
*I *2600:B1 I *D sky130_fd_sc_hd__a22o_1
*I *2579:A2 I *D sky130_fd_sc_hd__a221o_1
*I *2490:B1 I *D sky130_fd_sc_hd__a22o_1
*I *2499:B1 I *D sky130_fd_sc_hd__a22o_1
*I *2565:A2 I *D sky130_fd_sc_hd__a22o_1
*I *2587:A2 I *D sky130_fd_sc_hd__a22o_1
*I *2469:A2 I *D sky130_fd_sc_hd__a221o_1
*I *2545:A2 I *D sky130_fd_sc_hd__a22o_1
*I *3201:X O *D sky130_fd_sc_hd__clkbuf_4
*CAP
1 *2620:B1 0.000377495
2 *2554:A2 0.000181893
3 *2600:B1 0
4 *2579:A2 1.09446e-05
5 *2490:B1 0
6 *2499:B1 0.000293183
7 *2565:A2 0.000512527
8 *2587:A2 0.00071152
9 *2469:A2 8.06314e-05
10 *2545:A2 1.37855e-05
11 *3201:X 2.49314e-05
12 *896:138 0.00122224
13 *896:62 0.00129195
14 *896:60 0.00101524
15 *896:50 0.00136843
16 *896:31 0.000898198
17 *896:20 0.000752633
18 *896:16 0.001117
19 *896:10 0.000534567
20 *896:6 0.000751852
21 *2469:A2 *914:32 6.07328e-05
22 *2499:B1 *2499:A2 0.000104258
23 *2499:B1 *916:57 2.05938e-05
24 *2565:A2 *909:73 5.51944e-05
25 *2565:A2 *990:12 5.55405e-05
26 *2587:A2 *2467:A2 0
27 *2587:A2 *916:57 1.59782e-05
28 *2620:B1 *2620:A2 5.80706e-06
29 *896:6 *2600:A2 4.43256e-05
30 *896:10 *2600:A2 3.76337e-05
31 *896:20 *914:32 3.57844e-05
32 *896:60 *909:37 0.000827218
33 *896:62 *916:57 3.15739e-05
34 *896:138 *2534:B1 6.31056e-05
35 *896:138 *920:177 0.00053071
36 *2469:A1 *2469:A2 1.02504e-05
37 *2488:B1 *2565:A2 1.33343e-05
38 *2490:B2 *896:50 5.52238e-05
39 *2491:C1 *896:60 5.33005e-05
40 *2499:A1 *2499:B1 1.3701e-05
41 *2499:B2 *2499:B1 5.62995e-05
42 *2534:A1 *896:138 5.33334e-05
43 *2534:B2 *896:138 0.000183726
44 *2545:A1 *896:20 0.000199477
45 *2546:A1 *896:20 0
46 *2546:C1 *896:20 0.000150618
47 *2554:A1 *2554:A2 2.28834e-05
48 *2554:B1 *2620:B1 0
49 *2554:B2 *2554:A2 6.8646e-06
50 *2554:B2 *896:138 4.89867e-05
51 *2555:A1 *896:138 5.20692e-05
52 *2565:B1 *2565:A2 4.59075e-05
53 *2565:B2 *2565:A2 1.98839e-05
54 *2579:A1 *2579:A2 3.33238e-05
55 *2579:B1 *896:16 4.19624e-06
56 *2579:B1 *896:20 1.89507e-06
57 *2579:B2 *896:20 0
58 *2589:B1 *2469:A2 0
59 *2590:B1 *2469:A2 3.17148e-05
60 *2600:A1 *896:16 7.39752e-05
61 *2600:B2 *896:16 0.000340066
62 *2620:B2 *2620:B1 5.80706e-06
63 *2845:D *2587:A2 0.000103267
64 *2885:D *896:138 0.00010096
65 *2916:D *896:20 0.000171886
66 *2953:D *896:16 0
67 *3045:GATE_N *2620:B1 0
68 *3046:GATE_N *896:60 0.000315158
69 *3087:GATE_N *2587:A2 0
70 *3093:GATE_N *2620:B1 0
71 *3094:D *2565:A2 1.98839e-05
72 *3168:A *896:20 0.000178991
73 *3201:A *896:138 0
74 *3215:A *896:16 0
75 *435:32 *2554:A2 0.000249981
76 *435:32 *2620:B1 0
77 *499:22 *896:16 0.000384641
78 *499:22 *896:138 6.04176e-05
79 *585:10 *896:20 0
80 *631:28 *2587:A2 5.52302e-05
81 *806:60 *2499:B1 0
82 *806:60 *2587:A2 0
83 *806:60 *896:62 0
84 *807:59 *2565:A2 0.000225609
85 *807:59 *2587:A2 0
86 *811:62 *2545:A2 9.90367e-05
87 *811:62 *896:31 0.000183726
88 *811:62 *896:50 9.5623e-05
89 *829:36 *896:16 0
90 *829:36 *896:20 0
91 *833:177 *896:6 9.60939e-05
92 *833:177 *896:10 0.000140933
93 *833:177 *896:16 1.98839e-05
94 *833:177 *896:138 0.000356028
95 *838:10 *2620:B1 0
96 *850:57 *2620:B1 0.000304767
97 *850:57 *896:138 0.00150424
98 *853:133 *2579:A2 1.93192e-05
99 *855:152 *2587:A2 0.00040279
100 *856:55 *2565:A2 0.000246059
101 *875:30 *2469:A2 8.7636e-06
102 *876:19 *2587:A2 0.000214977
103 *876:38 *2587:A2 0.000243627
104 *882:28 *2565:A2 5.55405e-05
105 *889:34 *896:20 0
106 *889:46 *2545:A2 0.00010096
107 *889:46 *896:31 4.18895e-05
108 *889:53 *2469:A2 1.46576e-05
109 *892:31 *896:50 0.000725129
110 *892:31 *896:60 5.13194e-05
111 *892:48 *896:60 0.000580592
112 *892:82 *896:60 0.000108603
113 *894:31 *2587:A2 0.000272371
114 *894:73 *2587:A2 0.000196871
*RES
1 *3201:X *896:6 10.2464 
2 *896:6 *896:10 1.78571 
3 *896:10 *896:16 14.875 
4 *896:16 *896:20 17.0714 
5 *896:20 *2545:A2 10.2464 
6 *896:20 *896:31 2.5 
7 *896:31 *2469:A2 20.0902 
8 *896:31 *896:50 11.3571 
9 *896:50 *896:60 22.0357 
10 *896:60 *896:62 1.33929 
11 *896:62 *2587:A2 29.4786 
12 *896:62 *2565:A2 30.7643 
13 *896:60 *2499:B1 19.8536 
14 *896:50 *2490:B1 9.3 
15 *896:16 *2579:A2 14.1304 
16 *896:10 *2600:B1 9.3 
17 *896:6 *896:138 31.5357 
18 *896:138 *2554:A2 21.9964 
19 *896:138 *2620:B1 25.9786 
*END

*D_NET *897 0.0194208
*CONN
*I *2434:B I *D sky130_fd_sc_hd__nand2_1
*I *2522:A2 I *D sky130_fd_sc_hd__a221o_1
*I *2510:B1 I *D sky130_fd_sc_hd__a22o_1
*I *2611:B1 I *D sky130_fd_sc_hd__a22o_1
*I *2482:A2 I *D sky130_fd_sc_hd__a22o_1
*I *2633:A2 I *D sky130_fd_sc_hd__a22o_1
*I *2535:B1 I *D sky130_fd_sc_hd__a221o_1
*I *3202:X O *D sky130_fd_sc_hd__buf_2
*CAP
1 *2434:B 0
2 *2522:A2 0.0011723
3 *2510:B1 0
4 *2611:B1 2.23854e-05
5 *2482:A2 0.000443204
6 *2633:A2 0.00080177
7 *2535:B1 0.000194235
8 *3202:X 0
9 *897:109 0.00202636
10 *897:84 0.00156137
11 *897:59 0.00091441
12 *897:12 0.00150672
13 *897:10 0.00154635
14 *897:6 0.000777153
15 *2522:A2 *2523:B1 1.46576e-05
16 *2522:A2 *931:81 3.34672e-05
17 *2633:A2 *912:95 0
18 *897:12 *912:95 5.41797e-06
19 *897:84 *2609:B1 3.69047e-06
20 *897:109 *2422:B 2.54782e-05
21 *897:109 *917:25 0.000882808
22 *897:109 *995:12 0
23 *2482:A1 *2482:A2 1.04232e-05
24 *2486:B1 *897:12 0.000630205
25 *2486:B2 *2482:A2 0.00022767
26 *2510:A1 *897:84 0.000100673
27 *2510:A1 *897:109 1.02504e-05
28 *2510:B2 *897:84 4.70162e-05
29 *2510:B2 *897:109 1.31516e-05
30 *2522:B1 *2522:A2 6.05161e-06
31 *2522:B2 *2522:A2 0
32 *2535:B2 *2535:B1 7.22462e-05
33 *2609:A1 *897:84 0.000154985
34 *2609:B2 *897:84 7.65002e-05
35 *2610:C1 *897:109 3.34687e-05
36 *2611:A1 *897:59 9.76689e-05
37 *2617:A *897:10 0.000310041
38 *2617:A *897:59 0.000197269
39 *2619:B *2522:A2 1.99881e-05
40 *2633:A1 *2633:A2 3.18676e-05
41 *2633:B1 *2633:A2 0.000175151
42 *2639:A *2633:A2 2.33863e-05
43 *2655:B *2522:A2 6.44449e-05
44 *2807:GATE_N *897:84 9.22222e-06
45 *2811:D *2522:A2 0.000271345
46 *2910:GATE_N *897:12 6.74886e-05
47 *2915:GATE_N *897:12 3.69697e-05
48 *3066:GATE_N *897:10 0
49 *3066:GATE_N *897:12 7.79781e-06
50 *3140:A *2535:B1 1.31525e-05
51 *3140:A *897:12 4.60314e-05
52 *3193:A *2522:A2 3.25247e-05
53 *3213:A *897:84 0.000350136
54 *477:18 *897:109 0.000110018
55 *485:10 *897:84 1.78353e-05
56 *491:10 *897:59 0.000117553
57 *491:10 *897:84 0.000146523
58 *498:18 *2633:A2 1.90936e-05
59 *580:22 *2633:A2 0
60 *651:14 *897:84 7.71991e-05
61 *808:66 *2482:A2 9.74243e-05
62 *823:22 *897:10 8.49861e-06
63 *825:10 *897:10 7.57614e-05
64 *825:10 *897:59 0.000135549
65 *825:12 *2535:B1 2.22283e-05
66 *825:12 *897:10 0.00044044
67 *825:12 *897:12 0.000249623
68 *830:102 *897:109 0.000535248
69 *841:35 *2522:A2 1.97695e-05
70 *841:48 *897:109 1.33343e-05
71 *842:50 *2633:A2 0.00169628
72 *847:33 *897:10 7.43763e-05
73 *863:48 *2535:B1 0.000393949
74 *863:48 *2633:A2 6.44345e-05
75 *865:60 *2522:A2 0
76 *866:8 *897:109 0
77 *878:25 *897:59 3.67452e-05
78 *887:22 *2522:A2 0
79 *887:47 *897:84 0
*RES
1 *3202:X *897:6 13.8 
2 *897:6 *897:10 14.0179 
3 *897:10 *897:12 12.4196 
4 *897:12 *2535:B1 18.5054 
5 *897:12 *2633:A2 28.3717 
6 *897:10 *2482:A2 21.3357 
7 *897:6 *897:59 10.1429 
8 *897:59 *2611:B1 9.72857 
9 *897:59 *897:84 26.5179 
10 *897:84 *2510:B1 13.8 
11 *897:84 *897:109 32.3571 
12 *897:109 *2522:A2 34.358 
13 *897:109 *2434:B 9.3 
*END

*D_NET *898 0.0226114
*CONN
*I *2559:A2 I *D sky130_fd_sc_hd__a211o_1
*I *2627:A2 I *D sky130_fd_sc_hd__a211o_1
*I *2504:B1 I *D sky130_fd_sc_hd__a221o_1
*I *2605:A2 I *D sky130_fd_sc_hd__a211o_1
*I *2580:B1 I *D sky130_fd_sc_hd__a22o_1
*I *2548:B1 I *D sky130_fd_sc_hd__a221o_1
*I *2569:B1 I *D sky130_fd_sc_hd__a22o_1
*I *2591:B1 I *D sky130_fd_sc_hd__a22o_1
*I *2470:B1 I *D sky130_fd_sc_hd__a22o_1
*I *2495:A2 I *D sky130_fd_sc_hd__a211o_1
*I *3203:X O *D sky130_fd_sc_hd__clkbuf_4
*CAP
1 *2559:A2 0.000329723
2 *2627:A2 0
3 *2504:B1 0.000505086
4 *2605:A2 0
5 *2580:B1 0.000328978
6 *2548:B1 0.000146532
7 *2569:B1 0.000414188
8 *2591:B1 0
9 *2470:B1 0.000515158
10 *2495:A2 3.21587e-05
11 *3203:X 0
12 *898:127 0.00182764
13 *898:66 0.00101302
14 *898:47 0.00160323
15 *898:34 0.0012187
16 *898:24 0.00141992
17 *898:22 0.00140874
18 *898:16 0.000646017
19 *898:10 0.00157777
20 *898:4 0.000442601
21 *2470:B1 *2470:A2 0.000319326
22 *2470:B1 *2494:B1 0
23 *2470:B1 *900:51 0
24 *2470:B1 *900:53 0.000436205
25 *2504:B1 *2625:B1 0.000266681
26 *2504:B1 *920:29 1.19402e-05
27 *2548:B1 *2548:A2 3.33174e-05
28 *2548:B1 *926:47 4.83217e-05
29 *2559:A2 *906:12 9.24491e-05
30 *2559:A2 *906:112 6.30292e-05
31 *2569:B1 *2569:A2 0.000195855
32 *2569:B1 *2591:A2 0.000230482
33 *2580:B1 *2580:A2 5.33005e-05
34 *2580:B1 *2603:A2 4.80729e-05
35 *898:10 *906:12 0.000108529
36 *898:16 *906:12 0.000175795
37 *898:22 *2605:C1 9.71197e-05
38 *898:24 *2603:A2 0.000175519
39 *898:24 *920:107 0.000541119
40 *898:24 *922:32 0.000166464
41 *898:24 *922:36 0.000106542
42 *898:24 *922:51 0
43 *898:24 *926:58 1.08359e-05
44 *898:34 *2471:A2 2.79148e-05
45 *898:34 *2473:A2 0.000191243
46 *898:34 *2495:C1 4.70078e-05
47 *898:34 *920:107 9.34004e-05
48 *898:34 *926:58 0.000438149
49 *898:47 *2494:B1 0
50 *898:47 *2495:C1 1.92789e-05
51 *898:47 *900:51 0
52 *898:66 *2569:A2 2.32625e-05
53 *898:127 *2625:B1 0.000130932
54 *898:127 *2637:A2 3.14078e-05
55 *898:127 *2637:B1 0.000617873
56 *1043:DIODE *2495:A2 0
57 *2473:B1 *898:34 0.000123295
58 *2474:B *898:34 0
59 *2474:B *898:47 7.04538e-05
60 *2495:A1 *898:34 1.37861e-05
61 *2495:A1 *898:47 3.69697e-05
62 *2495:B1 *2495:A2 1.3701e-05
63 *2495:B1 *898:34 5.52302e-05
64 *2496:C *898:34 0
65 *2504:A1 *2504:B1 5.71472e-05
66 *2504:B2 *2504:B1 0.000151333
67 *2504:C1 *2504:B1 1.41029e-05
68 *2506:A1 *2504:B1 0
69 *2548:A1 *2548:B1 2.59355e-05
70 *2551:B *898:24 0.000266943
71 *2559:A1 *2559:A2 0.000311406
72 *2569:B2 *2569:B1 7.48444e-05
73 *2580:A1 *2580:B1 1.93007e-05
74 *2581:C1 *2580:B1 1.56e-05
75 *2583:B1 *898:24 0.00010326
76 *2591:A1 *2569:B1 1.32552e-05
77 *2591:A1 *898:66 5.76121e-05
78 *2592:C1 *2569:B1 5.71472e-05
79 *2605:A1 *898:22 5.58776e-05
80 *2606:B *2580:B1 4.87854e-05
81 *2606:B *898:16 1.58163e-05
82 *2606:B *898:22 0.000139792
83 *2625:A1 *898:127 0.00010326
84 *2625:B2 *898:127 0
85 *2873:GATE_N *898:127 0.000551225
86 *2901:GATE_N *2559:A2 4.51611e-05
87 *2901:GATE_N *898:10 1.92905e-05
88 *2902:GATE_N *898:66 0.000251543
89 *2904:D *898:66 7.39304e-05
90 *2997:GATE_N *898:10 0.000149905
91 *2997:GATE_N *898:16 0.000153054
92 *3004:GATE_N *2559:A2 0.000194352
93 *3012:GATE_N *2548:B1 0
94 *3020:GATE_N *2559:A2 0.000128496
95 *3020:GATE_N *898:10 5.52302e-05
96 *3030:D *2569:B1 0.00018372
97 *3033:D *898:22 5.71472e-05
98 *3033:GATE_N *898:22 9.90431e-05
99 *3036:GATE_N *2559:A2 3.74829e-05
100 *3219:A *898:127 3.0285e-05
101 *381:10 *2504:B1 0
102 *381:10 *898:127 0
103 *496:24 *2559:A2 6.05161e-06
104 *597:10 *2559:A2 2.61494e-05
105 *805:84 *898:127 0
106 *814:16 *2580:B1 7.79781e-06
107 *814:20 *2580:B1 1.19402e-05
108 *814:20 *898:24 5.75896e-05
109 *816:45 *898:47 0
110 *818:74 *898:16 0.000196269
111 *820:33 *898:34 0
112 *831:67 *898:47 0
113 *831:67 *898:66 0.000123902
114 *833:91 *898:127 0
115 *833:101 *898:127 0
116 *833:119 *898:16 2.28598e-05
117 *833:119 *898:22 5.33005e-05
118 *836:88 *898:47 0
119 *862:30 *2559:A2 0
*RES
1 *3203:X *898:4 9.3 
2 *898:4 *898:10 7.89286 
3 *898:10 *898:16 9.41071 
4 *898:16 *898:22 13.6786 
5 *898:22 *898:24 16.8214 
6 *898:24 *898:34 19.8036 
7 *898:34 *2495:A2 10.0321 
8 *898:34 *898:47 12.4464 
9 *898:47 *2470:B1 23.9786 
10 *898:47 *898:66 14.7143 
11 *898:66 *2591:B1 9.3 
12 *898:66 *2569:B1 19.4964 
13 *898:24 *2548:B1 16.4071 
14 *898:22 *2580:B1 20.0143 
15 *898:16 *2605:A2 9.3 
16 *898:10 *898:127 30.2679 
17 *898:127 *2504:B1 24.4786 
18 *898:127 *2627:A2 13.8 
19 *898:4 *2559:A2 27.3714 
*END

*D_NET *899 0.0178718
*CONN
*I *2612:B1 I *D sky130_fd_sc_hd__a22o_1
*I *2432:B I *D sky130_fd_sc_hd__nand2_1
*I *2527:B1 I *D sky130_fd_sc_hd__a22o_1
*I *2517:A2 I *D sky130_fd_sc_hd__a211o_1
*I *2477:B1 I *D sky130_fd_sc_hd__a22o_1
*I *2536:B1 I *D sky130_fd_sc_hd__a22o_1
*I *2637:B1 I *D sky130_fd_sc_hd__a22o_1
*I *3204:X O *D sky130_fd_sc_hd__clkbuf_2
*CAP
1 *2612:B1 1.72105e-05
2 *2432:B 0
3 *2527:B1 0.00063737
4 *2517:A2 0.000611525
5 *2477:B1 2.04425e-05
6 *2536:B1 0.00136654
7 *2637:B1 0.000449027
8 *3204:X 0
9 *899:82 0.000804926
10 *899:74 0.000481681
11 *899:12 0.00211077
12 *899:10 0.000677033
13 *899:8 0.00115995
14 *899:6 0.000483956
15 *2477:B1 *903:22 2.59355e-05
16 *2477:B1 *921:41 5.33005e-05
17 *2527:B1 *922:14 2.28598e-05
18 *2536:B1 *2538:B1 9.99952e-06
19 *2536:B1 *904:44 7.96592e-05
20 *2612:B1 *928:12 4.66511e-05
21 *2637:B1 *2637:A2 0.00023812
22 *899:12 *904:36 7.6644e-05
23 *899:74 *928:12 0.000227537
24 *899:82 *2428:B 0.000409027
25 *899:82 *2612:A2 0.000135028
26 *2432:A *2527:B1 0.000142856
27 *2477:B2 *899:10 0.000519177
28 *2517:A1 *2517:A2 1.02504e-05
29 *2517:B1 *2517:A2 1.08192e-05
30 *2527:B2 *2527:B1 4.6025e-06
31 *2529:A *2517:A2 0.000109328
32 *2536:B2 *2536:B1 5.38444e-06
33 *2612:A1 *2612:B1 5.59013e-05
34 *2612:A1 *899:74 9.91086e-05
35 *2614:B1 *899:8 4.89264e-05
36 *2614:B1 *899:74 2.72449e-05
37 *2869:GATE_N *2536:B1 0.00018101
38 *2873:GATE_N *2637:B1 0.000359775
39 *2873:GATE_N *899:12 3.42554e-05
40 *2988:D *899:12 0.000146992
41 *3018:GATE_N *2517:A2 0.000354635
42 *3098:D *899:10 0.000144684
43 *3098:GATE_N *899:10 3.45894e-05
44 *3127:A *2527:B1 5.922e-05
45 *3127:A *899:82 0.00010746
46 *3130:A *2527:B1 0.00066861
47 *3208:A *899:74 4.89264e-05
48 *3221:A *2527:B1 3.9846e-05
49 *3221:A *899:82 0.000207233
50 *444:12 *2527:B1 0.000175251
51 *446:20 *2517:A2 5.48248e-05
52 *446:20 *2536:B1 0.000471749
53 *496:14 *899:74 0.000113285
54 *496:24 *2637:B1 9.86351e-05
55 *496:24 *899:8 0.000134201
56 *496:24 *899:10 5.57982e-05
57 *496:24 *899:12 0.000152536
58 *496:24 *899:74 1.78353e-05
59 *580:22 *2536:B1 7.75881e-05
60 *815:14 *899:82 5.52302e-05
61 *819:12 *2527:B1 0.000186662
62 *836:20 *2536:B1 0.000154732
63 *837:39 *899:8 0.000311336
64 *837:39 *899:10 0.000912939
65 *837:39 *899:12 0.000195064
66 *837:41 *899:12 8.80119e-05
67 *848:43 *899:82 0.000394969
68 *849:43 *2637:B1 2.95641e-05
69 *859:44 *899:12 7.69776e-06
70 *862:30 *2637:B1 0
71 *862:40 *2536:B1 0
72 *898:127 *2637:B1 0.000617873
*RES
1 *3204:X *899:6 13.8 
2 *899:6 *899:8 5.28571 
3 *899:8 *899:10 11.9643 
4 *899:10 *899:12 7.86607 
5 *899:12 *2637:B1 26.6304 
6 *899:12 *2536:B1 25.2225 
7 *899:10 *2477:B1 14.3357 
8 *899:8 *2517:A2 32.0143 
9 *899:6 *899:74 6.46429 
10 *899:74 *899:82 12.0536 
11 *899:82 *2527:B1 33.8 
12 *899:82 *2432:B 9.3 
13 *899:74 *2612:B1 14.5321 
*END

*D_NET *900 0.0259255
*CONN
*I *2515:B1 I *D sky130_fd_sc_hd__a22o_1
*I *2557:B1 I *D sky130_fd_sc_hd__a22o_1
*I *2625:B1 I *D sky130_fd_sc_hd__a221o_1
*I *2506:A2 I *D sky130_fd_sc_hd__a211o_1
*I *2550:A2 I *D sky130_fd_sc_hd__a211o_1
*I *2593:B1 I *D sky130_fd_sc_hd__a22o_1
*I *2569:A2 I *D sky130_fd_sc_hd__a22o_1
*I *2494:B1 I *D sky130_fd_sc_hd__a22o_1
*I *2470:A2 I *D sky130_fd_sc_hd__a22o_1
*I *2583:A2 I *D sky130_fd_sc_hd__a211o_1
*I *3205:X O *D sky130_fd_sc_hd__clkbuf_4
*CAP
1 *2515:B1 0
2 *2557:B1 6.78368e-05
3 *2625:B1 0.000415318
4 *2506:A2 2.23854e-05
5 *2550:A2 0
6 *2593:B1 0.000378965
7 *2569:A2 0.00104124
8 *2494:B1 0.000430846
9 *2470:A2 0.0001052
10 *2583:A2 7.82444e-05
11 *3205:X 0.00022187
12 *900:116 0.000741165
13 *900:53 0.000935863
14 *900:51 0.00215285
15 *900:47 0.00127192
16 *900:45 0.00038101
17 *900:43 0.000818215
18 *900:30 0.00139409
19 *900:14 0.00155195
20 *900:8 0.000705046
21 *2557:B1 *2539:C1 0.000186669
22 *2569:A2 *2591:A2 3.48705e-05
23 *2583:A2 *2583:C1 0.000268396
24 *2625:B1 *2626:A2 9.86266e-05
25 *2625:B1 *2627:C1 0
26 *900:8 *907:38 0.000185819
27 *900:8 *907:56 5.14328e-05
28 *900:14 *905:22 0
29 *900:30 *2539:C1 0.00026353
30 *900:30 *2604:B1 8.73991e-05
31 *900:30 *932:31 1.18451e-05
32 *900:43 *2583:C1 0.000137983
33 *900:43 *932:37 0.000529289
34 *900:45 *932:37 9.32491e-05
35 *900:45 *932:41 0
36 *900:116 *932:132 0.000270964
37 *2470:B1 *2470:A2 0.000319326
38 *2470:B1 *2494:B1 0
39 *2470:B1 *900:51 0
40 *2470:B1 *900:53 0.000436205
41 *2471:A1 *2494:B1 0.000150625
42 *2471:C1 *2494:B1 0
43 *2475:B2 *900:51 2.34337e-05
44 *2494:A1 *2494:B1 0.000289564
45 *2494:B2 *2494:B1 0.000165038
46 *2504:B1 *2625:B1 0.000266681
47 *2504:B2 *2625:B1 1.32552e-05
48 *2504:B2 *900:116 4.3049e-05
49 *2515:A1 *900:14 9.65182e-05
50 *2551:A *2625:B1 5.52238e-05
51 *2551:A *900:116 0.00135195
52 *2551:C *900:45 0.000125987
53 *2552:B2 *900:45 1.21859e-05
54 *2557:A1 *2557:B1 3.69047e-06
55 *2559:C1 *900:30 7.14469e-05
56 *2569:B1 *2569:A2 0.000195855
57 *2570:C1 *2569:A2 1.58213e-06
58 *2584:B *900:30 0.000146474
59 *2584:C *2583:A2 9.6087e-05
60 *2584:C *900:43 4.13496e-05
61 *2591:A1 *2569:A2 0.000188586
62 *2591:B2 *900:51 0
63 *2593:B2 *2593:B1 5.65145e-05
64 *2625:A1 *2625:B1 0.000104974
65 *2625:B2 *2625:B1 5.33882e-05
66 *2626:A1 *2625:B1 9.32005e-05
67 *2627:B1 *2625:B1 0.000125731
68 *2875:GATE_N *900:43 0.000112027
69 *2888:GATE_N *900:47 0.000204802
70 *2888:GATE_N *900:51 0.000160979
71 *2904:D *900:51 4.46612e-05
72 *2978:GATE_N *900:30 0.000387726
73 *2982:GATE_N *2593:B1 6.05161e-06
74 *2987:GATE_N *900:43 1.98839e-05
75 *2992:D *900:116 0.000534222
76 *3004:GATE_N *900:14 0
77 *3006:GATE_N *900:14 0.000153047
78 *3007:D *2494:B1 0
79 *3013:D *900:30 4.66189e-05
80 *3016:D *2593:B1 4.53889e-05
81 *3023:GATE_N *900:51 4.57445e-05
82 *3030:D *2569:A2 7.50473e-05
83 *3030:GATE_N *2569:A2 8.07313e-05
84 *446:20 *900:14 0.000109052
85 *515:18 *900:51 0
86 *540:18 *900:51 6.27272e-06
87 *620:18 *900:43 1.28585e-05
88 *816:14 *900:14 0.000399823
89 *816:31 *900:30 0.000442762
90 *816:37 *900:30 0.000168939
91 *816:39 *900:45 0
92 *816:39 *900:47 0
93 *816:45 *900:51 0
94 *818:61 *900:116 6.71755e-05
95 *818:70 *900:116 9.41642e-05
96 *819:46 *900:14 0.000172231
97 *820:12 *900:30 0.00101824
98 *820:130 *900:30 0.000142327
99 *831:67 *2494:B1 0
100 *833:119 *900:43 0
101 *833:119 *900:45 0
102 *833:119 *900:116 6.91215e-06
103 *836:72 *900:45 0.000192269
104 *836:72 *900:47 0.000449974
105 *836:72 *900:51 0.000372911
106 *836:76 *900:51 0.00050365
107 *836:88 *900:51 2.11784e-05
108 *851:38 *900:51 3.38861e-06
109 *859:56 *900:30 5.62901e-05
110 *869:37 *900:116 5.33005e-05
111 *875:43 *2593:B1 9.86374e-05
112 *898:47 *2494:B1 0
113 *898:47 *900:51 0
114 *898:66 *2569:A2 2.32625e-05
115 *898:127 *2625:B1 0.000130932
*RES
1 *3205:X *900:8 12.3179 
2 *900:8 *900:14 20.3571 
3 *900:14 *900:30 35.5 
4 *900:30 *2583:A2 11.8893 
5 *900:30 *900:43 13.2232 
6 *900:43 *900:45 5.13393 
7 *900:45 *900:47 5.89286 
8 *900:47 *900:51 21.0179 
9 *900:51 *900:53 8.33929 
10 *900:53 *2470:A2 12.3 
11 *900:53 *2494:B1 27.8357 
12 *900:51 *2569:A2 34.675 
13 *900:47 *2593:B1 19.1929 
14 *900:45 *2550:A2 13.8 
15 *900:43 *900:116 18.1696 
16 *900:116 *2506:A2 9.72857 
17 *900:116 *2625:B1 30.1929 
18 *900:14 *2557:B1 11.0679 
19 *900:8 *2515:B1 9.3 
*END

*D_NET *901 0.00114727
*CONN
*I *2668:A1 I *D sky130_fd_sc_hd__mux2_1
*I *3264:X O *D sky130_fd_sc_hd__clkbuf_1
*CAP
1 *2668:A1 0.00028007
2 *3264:X 0.00028007
3 *2668:A1 *2668:A0 0.000125724
4 *2668:A1 *2669:A1 0
5 *2668:A1 *1038:12 0.000363837
6 *610:16 *2668:A1 4.87854e-05
7 *882:65 *2668:A1 4.87854e-05
*RES
1 *3264:X *2668:A1 33.9036 
*END

*D_NET *902 0.00154947
*CONN
*I *2774:A1 I *D sky130_fd_sc_hd__a221o_1
*I *3265:X O *D sky130_fd_sc_hd__clkbuf_1
*CAP
1 *2774:A1 0.000630338
2 *3265:X 0.000630338
3 *2774:A1 *2766:B2 6.39829e-05
4 *2774:A1 *3334:A 2.59355e-05
5 *2774:A1 *1007:22 0
6 PADDR[1] *2774:A1 1.07719e-05
7 *2766:A1 *2774:A1 9.60337e-06
8 *2766:A2 *2774:A1 3.15196e-05
9 *2767:A1 *2774:A1 5.29004e-05
10 *2774:B1 *2774:A1 1.02504e-05
11 *3262:A *2774:A1 6.75281e-05
12 *3278:A *2774:A1 0
13 *115:10 *2774:A1 9.33978e-07
14 *505:44 *2774:A1 1.53725e-05
*RES
1 *3265:X *2774:A1 38.7585 
*END

*D_NET *903 0.0179977
*CONN
*I *2614:A2 I *D sky130_fd_sc_hd__a211o_1
*I *2635:B1 I *D sky130_fd_sc_hd__a22o_1
*I *2477:A2 I *D sky130_fd_sc_hd__a22o_1
*I *2430:B I *D sky130_fd_sc_hd__nand2_1
*I *2525:B1 I *D sky130_fd_sc_hd__a22o_1
*I *2604:B1 I *D sky130_fd_sc_hd__a22o_1
*I *2539:A2 I *D sky130_fd_sc_hd__a211o_1
*I *3206:X O *D sky130_fd_sc_hd__clkbuf_2
*CAP
1 *2614:A2 0
2 *2635:B1 0.000305572
3 *2477:A2 2.23854e-05
4 *2430:B 3.50338e-05
5 *2525:B1 0.00107979
6 *2604:B1 0.000851663
7 *2539:A2 0.000108146
8 *3206:X 0.000179689
9 *903:32 0.00108472
10 *903:28 0.00148222
11 *903:22 0.00066969
12 *903:16 0.000407777
13 *903:14 0.000852396
14 *903:8 0.000698253
15 *2430:B *927:79 4.1331e-06
16 *2430:B *927:87 2.28428e-05
17 *2539:A2 *2539:C1 8.85631e-05
18 *2604:B1 *2539:C1 0.000154433
19 *2604:B1 *2558:A2 0.000233076
20 *2604:B1 *2603:B1 0.000180602
21 *2604:B1 *926:37 0.000160296
22 *2604:B1 *927:87 0.000109467
23 *2635:B1 *2636:B1 0.000400217
24 *2635:B1 *904:14 0.00011784
25 *2635:B1 *923:72 0.000432883
26 *903:8 *933:101 0.000263524
27 *903:14 *2483:C1 0.000148189
28 *903:14 *907:26 1.30604e-05
29 *903:14 *908:12 0.00035877
30 *903:14 *933:14 0.000122942
31 *903:14 *933:101 0.000101683
32 *903:14 *934:20 0.000192771
33 *903:16 *921:41 8.43535e-06
34 *903:16 *923:72 9.41642e-05
35 *903:22 *2635:A2 0.000225609
36 *903:22 *905:24 0.000522432
37 *903:22 *921:41 0.000121393
38 *903:22 *923:72 0.00114823
39 *903:22 *927:87 3.93893e-05
40 *903:32 *2538:A2 1.08359e-05
41 *2477:B1 *903:22 2.59355e-05
42 *2525:B2 *2525:B1 5.33882e-05
43 *2540:B *903:32 0.000123594
44 *2559:C1 *2604:B1 2.88045e-05
45 *2604:A1 *2604:B1 0.000136958
46 *2614:A1 *903:14 0.000123295
47 *2614:C1 *903:8 2.42516e-05
48 *2614:C1 *903:14 0.000134167
49 *2635:A1 *2635:B1 2.89016e-05
50 *2878:GATE_N *2635:B1 5.33005e-05
51 *2978:GATE_N *2430:B 7.83659e-05
52 *2978:GATE_N *903:22 0.000121573
53 *2990:D *903:14 0.000175526
54 *3010:D *2525:B1 2.59355e-05
55 *3010:GATE_N *2525:B1 0.00023314
56 *3018:GATE_N *2525:B1 5.52238e-05
57 *3029:GATE_N *2604:B1 7.50697e-05
58 *3132:A *2525:B1 5.41794e-05
59 *3132:A *903:32 0.000308184
60 *3133:A *2525:B1 0.000442997
61 *3146:A *903:32 1.43563e-05
62 *3147:A *2525:B1 1.69115e-05
63 *493:12 *903:14 0
64 *817:13 *2525:B1 8.86512e-05
65 *817:17 *2525:B1 0.000221671
66 *817:29 *2525:B1 0.000229159
67 *817:29 *903:32 0.000110632
68 *819:54 *903:28 0.000394969
69 *820:12 *2604:B1 0.000590335
70 *820:130 *2604:B1 0.000134792
71 *821:26 *2525:B1 3.35594e-05
72 *834:31 *903:14 5.41794e-05
73 *834:50 *2635:B1 0.000380608
74 *834:50 *903:16 5.52302e-05
75 *834:68 *2635:B1 3.17148e-05
76 *837:39 *903:8 0.000181796
77 *837:85 *2635:B1 1.58163e-05
78 *849:102 *2604:B1 0
79 *889:10 *903:14 0
80 *900:30 *2604:B1 8.73991e-05
*RES
1 *3206:X *903:8 13.4429 
2 *903:8 *903:14 23.3929 
3 *903:14 *903:16 0.946429 
4 *903:16 *903:22 17.3571 
5 *903:22 *903:28 12.8214 
6 *903:28 *903:32 8.57143 
7 *903:32 *2539:A2 11.0679 
8 *903:32 *2604:B1 38.6929 
9 *903:28 *2525:B1 41.0321 
10 *903:22 *2430:B 14.8357 
11 *903:16 *2477:A2 9.72857 
12 *903:14 *2635:B1 28.3536 
13 *903:8 *2614:A2 9.3 
*END

*D_NET *904 0.0240881
*CONN
*I *2483:A2 I *D sky130_fd_sc_hd__a221o_1
*I *2624:B1 I *D sky130_fd_sc_hd__a22o_1
*I *2592:B1 I *D sky130_fd_sc_hd__a221o_1
*I *2570:B1 I *D sky130_fd_sc_hd__a221o_1
*I *2505:B1 I *D sky130_fd_sc_hd__a22o_1
*I *2558:B1 I *D sky130_fd_sc_hd__a221o_1
*I *2580:A2 I *D sky130_fd_sc_hd__a22o_1
*I *2547:B1 I *D sky130_fd_sc_hd__a22o_1
*I *2492:B1 I *D sky130_fd_sc_hd__a22o_1
*I *2472:B1 I *D sky130_fd_sc_hd__a22o_1
*I *3207:X O *D sky130_fd_sc_hd__clkbuf_4
*CAP
1 *2483:A2 3.0947e-05
2 *2624:B1 2.06112e-05
3 *2592:B1 0.000295526
4 *2570:B1 0.000417224
5 *2505:B1 0.000210121
6 *2558:B1 1.9574e-05
7 *2580:A2 2.80869e-05
8 *2547:B1 0
9 *2492:B1 0
10 *2472:B1 0.000351729
11 *3207:X 0.000183799
12 *904:142 0.00176416
13 *904:121 0.00209306
14 *904:113 0.00130498
15 *904:64 0.000848813
16 *904:56 0.00117977
17 *904:44 0.00162266
18 *904:36 0.00221948
19 *904:14 0.00221162
20 *904:8 0.0006855
21 *2505:B1 *926:88 5.33334e-05
22 *2558:B1 *2558:C1 3.99614e-06
23 *2570:B1 *2591:A2 3.63324e-05
24 *2570:B1 *920:31 1.62384e-05
25 *2592:B1 *2592:A2 8.7636e-06
26 *904:14 *2636:B1 0
27 *904:36 *2558:A2 1.57155e-05
28 *904:36 *2558:C1 9.21587e-05
29 *904:36 *932:8 0.000316213
30 *904:36 *934:20 0.000365152
31 *904:44 *2536:A2 0.000142856
32 *904:44 *2558:C1 3.16326e-05
33 *904:44 *2602:A2 0.000339217
34 *904:44 *922:32 0
35 *904:56 *2547:A2 5.99152e-05
36 *904:56 *2582:B1 0
37 *904:56 *922:32 0
38 *904:113 *2624:A2 9.60875e-05
39 *904:113 *2625:A2 4.58976e-05
40 *904:121 *2625:A2 9.60939e-05
41 *904:121 *2627:C1 0
42 *904:121 *906:16 8.13563e-05
43 *904:142 *906:16 0
44 *904:142 *906:18 0
45 *2472:A1 *2472:B1 0.000371761
46 *2484:B1 *2483:A2 1.50087e-05
47 *2484:B1 *904:14 2.56694e-05
48 *2484:C1 *2483:A2 7.13226e-06
49 *2484:C1 *904:8 7.17108e-06
50 *2492:A1 *2472:B1 0.000487014
51 *2503:A1 *904:142 0
52 *2504:C1 *904:142 0
53 *2505:A1 *2505:B1 2.27416e-05
54 *2506:A1 *904:142 0
55 *2506:B1 *2505:B1 2.89114e-05
56 *2506:B1 *904:121 0
57 *2536:B1 *904:44 7.96592e-05
58 *2538:B2 *904:44 5.30637e-06
59 *2547:A1 *904:56 5.65955e-05
60 *2547:A1 *904:64 0.000478168
61 *2547:B2 *904:64 6.05161e-06
62 *2548:C1 *904:56 1.32056e-05
63 *2558:B2 *904:44 2.84269e-05
64 *2570:A1 *2570:B1 1.02504e-05
65 *2570:B2 *2570:B1 5.47092e-05
66 *2570:C1 *2570:B1 4.1331e-06
67 *2571:B2 *904:142 0
68 *2580:B1 *2580:A2 5.33005e-05
69 *2580:B2 *904:56 0
70 *2581:B2 *904:56 7.01378e-05
71 *2581:C1 *2580:A2 6.05161e-06
72 *2581:C1 *904:56 0.000125005
73 *2595:A *2592:B1 1.24368e-05
74 *2603:C1 *904:44 0.000174854
75 *2624:A1 *904:113 3.18676e-05
76 *2624:A1 *904:121 0.000300104
77 *2624:B2 *2624:B1 3.99614e-06
78 *2624:B2 *904:121 6.05161e-06
79 *2635:B1 *904:14 0.00011784
80 *2635:B2 *904:14 7.48091e-05
81 *2635:B2 *904:36 6.57032e-05
82 *2636:B2 *904:14 9.25014e-06
83 *2636:B2 *904:113 0
84 *2637:A1 *904:113 0
85 *2637:B2 *904:113 8.5048e-05
86 *2868:GATE_N *904:56 0
87 *2868:GATE_N *904:64 0.000147474
88 *2891:D *904:121 0.00016587
89 *2896:D *2505:B1 2.89114e-05
90 *2908:GATE_N *904:113 6.17134e-05
91 *2978:GATE_N *904:36 3.30352e-05
92 *2982:D *904:142 0.000247771
93 *2985:D *904:44 0
94 *2987:D *904:121 0.000173804
95 *2988:D *904:36 0.000175892
96 *2988:GATE_N *904:36 3.97677e-05
97 *3003:D *904:121 0
98 *3031:GATE_N *904:56 0.000145477
99 *3035:GATE_N *904:121 0
100 *3146:A *904:44 5.71472e-05
101 *3178:A *2592:B1 8.45697e-05
102 *3207:A *2483:A2 4.46186e-06
103 *3207:A *904:8 3.32631e-05
104 *496:24 *904:36 3.92854e-05
105 *630:20 *2570:B1 9.87983e-06
106 *630:20 *904:142 4.46186e-06
107 *814:48 *2472:B1 0
108 *814:48 *904:64 0
109 *820:130 *904:36 5.33005e-05
110 *831:12 *904:44 0.000109065
111 *831:20 *904:44 0.000116664
112 *831:114 *904:56 1.00133e-05
113 *833:91 *904:113 0.000254413
114 *833:101 *904:113 9.25014e-06
115 *834:68 *2483:A2 3.46549e-05
116 *834:68 *904:8 4.46231e-06
117 *834:68 *904:14 7.2754e-05
118 *836:12 *904:44 1.39841e-05
119 *836:43 *904:56 0
120 *836:60 *904:56 1.10868e-05
121 *836:60 *904:64 5.74499e-06
122 *837:85 *904:14 2.86974e-05
123 *842:58 *904:113 0
124 *842:72 *904:113 0
125 *842:98 *904:113 0
126 *844:10 *904:121 0.000151333
127 *844:32 *904:121 8.04343e-05
128 *853:76 *904:56 0
129 *855:71 *2570:B1 4.54039e-05
130 *855:71 *904:142 0.000252586
131 *855:82 *904:142 0.000142725
132 *859:44 *904:36 2.13481e-06
133 *862:40 *904:44 0
134 *869:20 *904:142 0
135 *869:37 *2505:B1 4.46618e-05
136 *869:37 *904:121 6.0299e-05
137 *869:37 *904:142 0
138 *875:62 *2472:B1 0
139 *889:16 *2483:A2 3.34366e-05
140 *889:28 *904:14 0
141 *889:28 *904:113 0.000894542
142 *889:28 *904:121 0
143 *899:12 *904:36 7.6644e-05
*RES
1 *3207:X *904:8 15.9786 
2 *904:8 *904:14 13.2679 
3 *904:14 *904:36 28.7679 
4 *904:36 *904:44 23.1786 
5 *904:44 *904:56 17.1964 
6 *904:56 *904:64 15.1071 
7 *904:64 *2472:B1 22.3893 
8 *904:64 *2492:B1 13.8 
9 *904:56 *2547:B1 9.3 
10 *904:44 *2580:A2 14.3357 
11 *904:36 *2558:B1 9.72857 
12 *904:14 *904:113 22.4286 
13 *904:113 *904:121 21.6339 
14 *904:121 *2505:B1 17.9518 
15 *904:121 *904:142 17.7232 
16 *904:142 *2570:B1 28.8 
17 *904:142 *2592:B1 17.6393 
18 *904:113 *2624:B1 9.72857 
19 *904:8 *2483:A2 14.983 
*END

*D_NET *905 0.0210346
*CONN
*I *2612:A2 I *D sky130_fd_sc_hd__a22o_1
*I *2428:B I *D sky130_fd_sc_hd__nand2_1
*I *2516:B1 I *D sky130_fd_sc_hd__a221o_1
*I *2635:A2 I *D sky130_fd_sc_hd__a22o_1
*I *2603:B1 I *D sky130_fd_sc_hd__a221o_1
*I *2527:A2 I *D sky130_fd_sc_hd__a22o_1
*I *2537:B1 I *D sky130_fd_sc_hd__a221o_1
*I *3208:X O *D sky130_fd_sc_hd__clkbuf_2
*CAP
1 *2612:A2 0.000249602
2 *2428:B 0.000719664
3 *2516:B1 0
4 *2635:A2 0.00110526
5 *2603:B1 0.00108103
6 *2527:A2 0.000721986
7 *2537:B1 3.83983e-05
8 *3208:X 5.90248e-05
9 *905:97 0.00107391
10 *905:30 0.000949328
11 *905:24 0.00142759
12 *905:22 0.0019852
13 *905:16 0.00113811
14 *905:8 0.000579462
15 *2527:A2 *2525:A2 0.000161358
16 *2527:A2 *2602:A2 3.92708e-05
17 *2527:A2 *922:22 0.000356417
18 *2527:A2 *922:32 0.000639792
19 *2537:B1 *2537:A2 1.24368e-05
20 *2537:B1 *2602:A2 1.08506e-05
21 *2603:B1 *2528:A2 1.52978e-05
22 *2603:B1 *2558:A2 4.06712e-05
23 *2603:B1 *2602:B1 0
24 *2603:B1 *2603:A2 6.10112e-05
25 *2603:B1 *927:87 0.000218568
26 *2612:A2 *2411:C 7.6644e-05
27 *2635:A2 *2539:C1 3.40172e-05
28 *2635:A2 *2638:C1 0.000146
29 *2635:A2 *921:41 0.000114645
30 *2635:A2 *933:28 3.06878e-06
31 *2635:A2 *933:30 3.30781e-05
32 *905:16 *927:54 3.57366e-05
33 *905:16 *928:12 0.000161468
34 *905:16 *933:101 1.21258e-05
35 *905:22 *927:22 2.06178e-05
36 *905:22 *927:54 0.000190526
37 *905:24 *921:41 0.000160355
38 *905:24 *921:58 0.000426351
39 *905:24 *923:72 0.000114665
40 *905:30 *2537:A2 2.30969e-05
41 *905:30 *2538:A2 0.000178847
42 *905:30 *921:58 9.71197e-05
43 *905:30 *923:72 0.000205873
44 *2428:A *2428:B 0
45 *2516:B2 *905:16 1.38323e-05
46 *2526:B2 *2527:A2 0.00012401
47 *2526:C1 *2527:A2 2.23987e-05
48 *2527:B2 *2527:A2 0
49 *2528:A1 *2527:A2 0.00022217
50 *2528:B1 *2527:A2 6.05161e-06
51 *2537:A1 *2537:B1 5.38016e-05
52 *2537:B2 *2527:A2 2.74721e-05
53 *2537:C1 *2527:A2 9.25014e-06
54 *2537:C1 *2537:B1 5.33005e-05
55 *2540:A *2603:B1 1.27625e-05
56 *2540:B *905:30 0.000107996
57 *2558:A1 *2603:B1 9.67025e-05
58 *2558:B2 *2603:B1 0.000308563
59 *2603:B2 *2603:B1 5.7661e-06
60 *2604:B1 *2603:B1 0.000180602
61 *2612:A1 *2612:A2 2.49484e-05
62 *2612:B2 *905:16 0.00010326
63 *2612:B2 *905:97 0.000168939
64 *2866:GATE_N *2527:A2 3.30237e-05
65 *3004:GATE_N *2635:A2 0.000240946
66 *3004:GATE_N *905:22 0
67 *3022:D *905:22 0.000225307
68 *3029:GATE_N *2603:B1 0.000146474
69 *3036:GATE_N *2635:A2 9.02023e-05
70 *3127:A *2428:B 0.000142856
71 *3132:A *2603:B1 6.17109e-05
72 *3147:A *2527:A2 0
73 *3205:A *905:16 9.41642e-05
74 *3205:A *905:22 0
75 *3208:A *2612:A2 8.50152e-05
76 *3219:A *2635:A2 0.000146
77 *3221:A *2612:A2 5.52238e-05
78 *3224:A *905:16 0
79 *3224:A *905:22 0.000130625
80 *3224:A *905:97 0
81 *3318:A *2428:B 0
82 *3318:A *905:97 0
83 *443:16 *2527:A2 0.000151333
84 *446:20 *2428:B 1.02504e-05
85 *446:20 *2603:B1 0.000179658
86 *486:8 *905:8 9.41642e-05
87 *580:22 *2603:B1 2.09826e-05
88 *814:10 *2603:B1 9.91086e-05
89 *814:16 *2603:B1 0.000195625
90 *815:39 *2635:A2 0.000149036
91 *815:39 *905:22 0
92 *819:46 *905:22 0.000249826
93 *821:61 *905:22 0
94 *834:16 *2527:A2 0
95 *837:39 *905:16 7.07155e-06
96 *837:85 *2635:A2 0.000304387
97 *840:87 *2428:B 0
98 *848:43 *2612:A2 8.894e-05
99 *848:71 *905:16 0.000268528
100 *849:102 *2603:B1 0.00012401
101 *864:77 *905:22 8.77613e-05
102 *899:82 *2428:B 0.000409027
103 *899:82 *2612:A2 0.000135028
104 *900:14 *905:22 0
105 *903:22 *2635:A2 0.000225609
106 *903:22 *905:24 0.000522432
*RES
1 *3208:X *905:8 14.7464 
2 *905:8 *905:16 12.8036 
3 *905:16 *905:22 23.3929 
4 *905:22 *905:24 7.10714 
5 *905:24 *905:30 5.19643 
6 *905:30 *2537:B1 10.2464 
7 *905:30 *2527:A2 37.7107 
8 *905:24 *2603:B1 39.9964 
9 *905:22 *2635:A2 44.9786 
10 *905:16 *2516:B1 9.3 
11 *905:8 *905:97 6.75 
12 *905:97 *2428:B 28.6929 
13 *905:97 *2612:A2 22.4607 
*END

*D_NET *906 0.0224329
*CONN
*I *2557:A2 I *D sky130_fd_sc_hd__a22o_1
*I *2538:B1 I *D sky130_fd_sc_hd__a22o_1
*I *2626:B1 I *D sky130_fd_sc_hd__a22o_1
*I *2503:B1 I *D sky130_fd_sc_hd__a22o_1
*I *2549:B1 I *D sky130_fd_sc_hd__a22o_1
*I *2582:B1 I *D sky130_fd_sc_hd__a22o_1
*I *2492:A2 I *D sky130_fd_sc_hd__a22o_1
*I *2473:A2 I *D sky130_fd_sc_hd__a211o_1
*I *2594:A2 I *D sky130_fd_sc_hd__a211o_1
*I *2572:A2 I *D sky130_fd_sc_hd__a211o_1
*I *3209:X O *D sky130_fd_sc_hd__clkbuf_4
*CAP
1 *2557:A2 0.000175396
2 *2538:B1 0.000503843
3 *2626:B1 0.00037448
4 *2503:B1 1.20577e-05
5 *2549:B1 0
6 *2582:B1 0.000414338
7 *2492:A2 0.000220004
8 *2473:A2 0.000149533
9 *2594:A2 3.04135e-05
10 *2572:A2 0.000893512
11 *3209:X 0
12 *906:112 0.000901175
13 *906:65 0.000738479
14 *906:50 0.000299197
15 *906:48 0.000293178
16 *906:46 0.000259709
17 *906:18 0.00115585
18 *906:16 0.000617021
19 *906:12 0.00199181
20 *906:6 0.00145416
21 *2492:A2 *920:77 5.33005e-05
22 *2503:B1 *920:69 2.89114e-05
23 *2503:B1 *922:90 4.27935e-05
24 *2538:B1 *2536:A2 0.000277334
25 *2538:B1 *2602:A2 4.11218e-05
26 *2538:B1 *3369:A 2.04736e-05
27 *2572:A2 *2572:C1 0.00026372
28 *2572:A2 *2592:A2 0.000238764
29 *2582:B1 *920:77 3.17148e-05
30 *2582:B1 *922:36 6.44542e-05
31 *2582:B1 *922:51 0.000788657
32 *2626:B1 *2626:A2 0.000304082
33 *2626:B1 *2627:C1 0.000146002
34 *906:12 *2626:A2 0.000268682
35 *906:16 *926:88 7.95959e-05
36 *906:16 *926:90 0.000397736
37 *906:18 *2592:A2 0.000137224
38 *906:18 *926:90 0.000218734
39 *906:48 *920:69 0.000420425
40 *906:48 *920:71 5.62995e-05
41 *906:48 *922:77 0.000897528
42 *906:48 *922:90 0.000313235
43 *906:50 *920:71 0.000116049
44 *906:50 *922:77 0.000227539
45 *906:65 *2549:A2 0
46 *906:65 *920:77 0.000309273
47 *906:65 *922:77 0.000132977
48 *2493:C1 *2492:A2 7.0774e-05
49 *2496:A *2572:A2 1.32552e-05
50 *2503:A1 *906:16 7.8327e-05
51 *2503:B2 *906:48 0.000318101
52 *2536:B1 *2538:B1 9.99952e-06
53 *2538:A1 *2538:B1 5.33005e-05
54 *2538:B2 *2538:B1 4.46689e-05
55 *2548:A1 *2582:B1 0.000291851
56 *2548:B2 *2582:B1 1.18064e-05
57 *2557:A1 *2557:A2 5.02932e-05
58 *2557:A1 *906:112 5.58875e-06
59 *2557:B2 *906:12 0
60 *2557:B2 *906:112 0
61 *2559:A1 *2557:A2 6.69937e-05
62 *2559:A1 *906:112 0.000250145
63 *2559:A2 *906:12 9.24491e-05
64 *2559:A2 *906:112 6.30292e-05
65 *2559:B1 *2557:A2 4.55597e-05
66 *2573:C *2572:A2 5.52302e-05
67 *2582:A1 *2582:B1 5.52302e-05
68 *2582:B2 *2582:B1 1.02504e-05
69 *2595:C *2572:A2 9.60337e-06
70 *2607:B2 *906:12 0
71 *2869:GATE_N *2538:B1 0.00104717
72 *2869:GATE_N *2557:A2 0.000100445
73 *2869:GATE_N *906:112 5.13009e-05
74 *2870:D *2572:A2 5.23057e-05
75 *2870:GATE_N *2572:A2 0.000161868
76 *2982:D *2572:A2 0
77 *2982:D *906:18 0
78 *2987:GATE_N *906:12 0.000118339
79 *2997:GATE_N *906:12 0
80 *3003:D *906:12 0
81 *3004:GATE_N *2557:A2 3.01835e-05
82 *3024:GATE_N *906:16 5.4081e-05
83 *3035:GATE_N *906:12 0
84 *3035:GATE_N *906:16 3.66495e-05
85 *535:14 *2572:A2 6.97409e-05
86 *580:22 *2538:B1 0.000772134
87 *818:74 *906:12 0.000150407
88 *820:33 *2473:A2 0.000188928
89 *831:114 *2582:B1 0.000213322
90 *836:20 *2538:B1 0.000381994
91 *851:28 *2594:A2 5.33005e-05
92 *853:37 *2582:B1 5.52302e-05
93 *855:82 *2572:A2 0
94 *869:20 *906:16 0.000149421
95 *869:37 *906:16 0.000231912
96 *898:10 *906:12 0.000108529
97 *898:16 *906:12 0.000175795
98 *898:34 *2473:A2 0.000191243
99 *904:56 *2582:B1 0
100 *904:121 *906:16 8.13563e-05
101 *904:142 *906:16 0
102 *904:142 *906:18 0
*RES
1 *3209:X *906:6 13.8 
2 *906:6 *906:12 27.1786 
3 *906:12 *906:16 15.5536 
4 *906:16 *906:18 4.67857 
5 *906:18 *2572:A2 29.4607 
6 *906:18 *2594:A2 14.3357 
7 *906:16 *906:46 4.5 
8 *906:46 *906:48 11.625 
9 *906:48 *906:50 2.17857 
10 *906:50 *2473:A2 22.9786 
11 *906:50 *906:65 3.42857 
12 *906:65 *2492:A2 13.1214 
13 *906:65 *2582:B1 31.4071 
14 *906:48 *2549:B1 9.3 
15 *906:46 *2503:B1 9.83571 
16 *906:12 *2626:B1 24.4786 
17 *906:6 *906:112 4.83036 
18 *906:112 *2538:B1 24.0892 
19 *906:112 *2557:A2 17.4161 
*END

*D_NET *907 0.0176763
*CONN
*I *2636:B1 I *D sky130_fd_sc_hd__a221o_1
*I *2484:A2 I *D sky130_fd_sc_hd__a211o_1
*I *2613:A2 I *D sky130_fd_sc_hd__a221o_1
*I *2515:A2 I *D sky130_fd_sc_hd__a22o_1
*I *2426:B I *D sky130_fd_sc_hd__nand2_1
*I *2525:A2 I *D sky130_fd_sc_hd__a22o_1
*I *2602:B1 I *D sky130_fd_sc_hd__a22o_1
*I *3210:X O *D sky130_fd_sc_hd__clkbuf_2
*CAP
1 *2636:B1 0.00068571
2 *2484:A2 0
3 *2613:A2 7.21532e-06
4 *2515:A2 0
5 *2426:B 0
6 *2525:A2 0.000760042
7 *2602:B1 0.000655861
8 *3210:X 0.000227404
9 *907:111 0.00068571
10 *907:71 0.000760042
11 *907:56 0.00143952
12 *907:38 0.00136125
13 *907:26 0.000781007
14 *907:14 0.000423605
15 *2602:B1 *2602:A2 5.52302e-05
16 *2602:B1 *922:32 0.00130695
17 *2613:A2 *933:14 3.33238e-05
18 *2636:B1 *2638:C1 0.000445361
19 *907:14 *908:12 5.33005e-05
20 *907:26 *934:20 0.000173076
21 *907:38 *933:14 0.00018372
22 *907:56 *922:32 7.35306e-05
23 *2426:A *907:56 8.9338e-05
24 *2484:A1 *2636:B1 0.000181803
25 *2484:A1 *907:26 5.33005e-05
26 *2484:B1 *907:26 5.59013e-05
27 *2484:C1 *907:26 9.41642e-05
28 *2515:B2 *907:56 0.000470906
29 *2525:A1 *2525:A2 0.000538299
30 *2527:A2 *2525:A2 0.000161358
31 *2528:A1 *2525:A2 1.05851e-05
32 *2602:A1 *2602:B1 2.84109e-05
33 *2603:B1 *2602:B1 0
34 *2613:A1 *2613:A2 2.0887e-05
35 *2613:A1 *907:38 9.90367e-05
36 *2613:B2 *907:14 0.00012116
37 *2635:A1 *2636:B1 3.25078e-05
38 *2635:B1 *2636:B1 0.000400217
39 *2636:A1 *2636:B1 2.89114e-05
40 *2636:B2 *2636:B1 0.000198451
41 *2637:A1 *2636:B1 8.07879e-05
42 *2639:B *2636:B1 0
43 *2908:GATE_N *2636:B1 0.000439692
44 *2978:GATE_N *907:56 0.000291844
45 *2986:D *907:38 1.73088e-05
46 *3009:D *907:56 3.32631e-05
47 *3098:D *907:38 4.18895e-05
48 *3132:A *2602:B1 0
49 *3146:A *2602:B1 0.000768387
50 *3147:A *2602:B1 0.000137518
51 *3147:A *907:56 8.04387e-05
52 *3196:A *907:14 6.28948e-05
53 *3207:A *2636:B1 0.00016479
54 *3207:A *907:14 0.000295911
55 *3207:A *907:26 2.61337e-05
56 *3219:A *2636:B1 0.000237742
57 *443:16 *2525:A2 9.0145e-05
58 *443:16 *907:56 3.06878e-06
59 *446:20 *2602:B1 0
60 *814:10 *2602:B1 0
61 *814:16 *2602:B1 0
62 *817:49 *2602:B1 0.000399425
63 *821:57 *907:38 0.000174076
64 *821:57 *907:56 0.000188038
65 *831:162 *2602:B1 0.000105604
66 *832:60 *907:38 5.78173e-05
67 *834:16 *2525:A2 0.000112532
68 *834:68 *2636:B1 0.000165094
69 *840:24 *2636:B1 0.000181803
70 *840:24 *907:26 8.43535e-06
71 *848:77 *907:38 0.000223558
72 *864:77 *907:26 0.000179745
73 *889:10 *907:14 3.61769e-05
74 *889:10 *907:26 4.60232e-06
75 *889:16 *907:14 2.37388e-05
76 *889:16 *907:26 9.64345e-05
77 *900:8 *907:38 0.000185819
78 *900:8 *907:56 5.14328e-05
79 *903:14 *907:26 1.30604e-05
80 *904:14 *2636:B1 0
*RES
1 *3210:X *907:14 19.0679 
2 *907:14 *907:26 18.8571 
3 *907:26 *907:38 11.4107 
4 *907:38 *907:56 28.1429 
5 *907:56 *2602:B1 35.175 
6 *907:56 *907:71 4.5 
7 *907:71 *2525:A2 31.7107 
8 *907:71 *2426:B 9.3 
9 *907:38 *2515:A2 9.3 
10 *907:26 *2613:A2 9.63036 
11 *907:14 *907:111 4.5 
12 *907:111 *2484:A2 9.3 
13 *907:111 *2636:B1 39.7286 
*END

*D_NET *908 0.00641683
*CONN
*I *3209:A I *D sky130_fd_sc_hd__clkbuf_4
*I *3315:X O *D sky130_fd_sc_hd__clkbuf_1
*CAP
1 *3209:A 0.000380717
2 *3315:X 0.00103399
3 *908:12 0.00141471
4 *908:12 *2637:A2 0.000459496
5 *908:12 *933:14 0.00012465
6 *908:12 *933:101 2.15339e-05
7 *2477:A1 *908:12 0.00033763
8 *2529:A *908:12 2.42516e-05
9 *2873:GATE_N *908:12 0.000243627
10 *2892:GATE_N *908:12 0.000315708
11 *2974:GATE_N *908:12 1.90936e-05
12 *3036:D *3209:A 9.60875e-05
13 *3036:GATE_N *3209:A 2.77258e-05
14 *3228:A *908:12 0.000528343
15 *575:20 *3209:A 1.99449e-05
16 *834:31 *908:12 6.81083e-05
17 *837:39 *908:12 0.000385781
18 *837:41 *908:12 0.000345938
19 *862:30 *3209:A 0.000102197
20 *889:10 *908:12 5.52238e-05
21 *903:14 *908:12 0.00035877
22 *907:14 *908:12 5.33005e-05
*RES
1 *3315:X *908:12 46.4607 
2 *908:12 *3209:A 14.3714 
*END

*D_NET *909 0.021423
*CONN
*I *2501:B1 I *D sky130_fd_sc_hd__a22o_1
*I *2488:A2 I *D sky130_fd_sc_hd__a22o_1
*I *2562:B1 I *D sky130_fd_sc_hd__a221o_1
*I *2598:A2 I *D sky130_fd_sc_hd__a22o_1
*I *2577:A2 I *D sky130_fd_sc_hd__a221o_1
*I *2544:A2 I *D sky130_fd_sc_hd__a221o_1
*I *2566:A2 I *D sky130_fd_sc_hd__a221o_1
*I *2588:B1 I *D sky130_fd_sc_hd__a221o_1
*I *2466:A2 I *D sky130_fd_sc_hd__a22o_1
*I *2622:A2 I *D sky130_fd_sc_hd__a22o_1
*I *3211:X O *D sky130_fd_sc_hd__clkbuf_4
*CAP
1 *2501:B1 0.000977406
2 *2488:A2 8.0495e-05
3 *2562:B1 0.000636784
4 *2598:A2 0
5 *2577:A2 3.67321e-05
6 *2544:A2 1.75438e-05
7 *2566:A2 0
8 *2588:B1 0.000164709
9 *2466:A2 6.77723e-05
10 *2622:A2 0.000185933
11 *3211:X 3.95622e-05
12 *909:116 0.00100272
13 *909:103 0.000696028
14 *909:90 0.000750362
15 *909:84 0.000731064
16 *909:73 0.00134511
17 *909:52 0.00140493
18 *909:37 0.000929921
19 *909:27 0.00260302
20 *909:6 0.00109519
21 *2501:B1 *914:16 8.59056e-05
22 *2501:B1 *916:55 0.000438775
23 *2588:B1 *916:57 9.65375e-05
24 *909:27 *911:87 0
25 *909:37 *916:57 0
26 *909:90 *930:54 0.000258521
27 *2466:A1 *2466:A2 5.71472e-05
28 *2488:B1 *2488:A2 5.7661e-06
29 *2488:B1 *909:73 0.000141721
30 *2488:B1 *909:84 0.000349158
31 *2544:A1 *909:90 7.25963e-05
32 *2561:A2 *2562:B1 2.41224e-05
33 *2561:A2 *909:116 2.8266e-06
34 *2562:A1 *2562:B1 3.12183e-05
35 *2562:B2 *2562:B1 0.000559651
36 *2565:A2 *909:73 5.51944e-05
37 *2565:B2 *909:73 1.58163e-05
38 *2566:B2 *909:73 3.82227e-06
39 *2566:C1 *909:73 5.41609e-05
40 *2577:A1 *2577:A2 1.02504e-05
41 *2577:A1 *909:103 0.000147211
42 *2585:B1 *2577:A2 4.34948e-06
43 *2585:B1 *909:103 0.000107065
44 *2588:A1 *2588:B1 5.80706e-06
45 *2598:A1 *909:116 0.000487007
46 *2599:A1 *909:116 2.49484e-05
47 *2599:B1 *909:116 4.28365e-05
48 *2599:C1 *909:116 0.000669276
49 *2622:B2 *2622:A2 0
50 *2623:A1 *909:27 0
51 *2623:C1 *2622:A2 3.14078e-05
52 *2623:C1 *909:27 0.000150142
53 *2641:B *2577:A2 1.46576e-05
54 *2852:D *909:90 0.000172913
55 *2860:GATE_N *2562:B1 0.000265385
56 *2923:GATE_N *909:27 0.000400786
57 *2971:GATE_N *909:27 0
58 *3039:D *2501:B1 1.58163e-05
59 *3040:GATE_N *909:27 2.06178e-05
60 *3048:GATE_N *909:37 9.01905e-05
61 *3055:GATE_N *909:73 3.65382e-05
62 *3088:GATE_N *909:27 0.000159558
63 *3094:D *909:73 2.79421e-05
64 *3094:GATE_N *909:73 4.01768e-05
65 *3171:A *2562:B1 0
66 *3171:A *909:116 0
67 *492:34 *2622:A2 0.000105163
68 *551:12 *2544:A2 3.33174e-05
69 *620:18 *909:90 0
70 *620:18 *909:103 0
71 *807:59 *909:73 2.32353e-05
72 *807:101 *2501:B1 7.6021e-05
73 *807:112 *2501:B1 6.73313e-05
74 *809:35 *909:90 0
75 *809:165 *909:27 0.000518671
76 *811:39 *909:27 0.000280623
77 *811:39 *909:37 4.11218e-05
78 *811:62 *2501:B1 2.89016e-05
79 *822:78 *2466:A2 5.52238e-05
80 *822:95 *909:37 0
81 *825:96 *2501:B1 3.9745e-05
82 *827:160 *909:73 7.90803e-05
83 *838:37 *909:90 0
84 *838:39 *909:90 0
85 *855:152 *2466:A2 9.25014e-06
86 *855:152 *2588:B1 8.68665e-05
87 *856:55 *909:73 6.61212e-05
88 *858:20 *2562:B1 7.80714e-06
89 *869:102 *909:27 0
90 *876:38 *909:52 5.06983e-05
91 *876:38 *909:73 8.02709e-05
92 *883:57 *2577:A2 0
93 *883:57 *909:116 0
94 *892:31 *2501:B1 0.000280131
95 *892:118 *909:90 3.61696e-05
96 *892:118 *909:103 1.50087e-05
97 *894:29 *2466:A2 7.50601e-05
98 *894:29 *909:37 9.65075e-05
99 *894:143 *909:103 0.00037646
100 *894:143 *909:116 0.00012392
101 *896:60 *909:37 0.000827218
*RES
1 *3211:X *909:6 9.83571 
2 *909:6 *2622:A2 12.7286 
3 *909:6 *909:27 24.1607 
4 *909:27 *909:37 21.125 
5 *909:37 *2466:A2 16.2821 
6 *909:37 *909:52 5.85714 
7 *909:52 *2588:B1 22.3714 
8 *909:52 *909:73 24.0446 
9 *909:73 *2566:A2 9.3 
10 *909:73 *909:84 4.58036 
11 *909:84 *909:90 14.1607 
12 *909:90 *2544:A2 14.1304 
13 *909:90 *909:103 6.53571 
14 *909:103 *2577:A2 14.6795 
15 *909:103 *909:116 11.3571 
16 *909:116 *2598:A2 13.8 
17 *909:116 *2562:B1 24.4786 
18 *909:84 *2488:A2 10.675 
19 *909:27 *2501:B1 37.7821 
*END

*D_NET *910 0.0190367
*CONN
*I *2616:B1 I *D sky130_fd_sc_hd__a221o_1
*I *2514:B1 I *D sky130_fd_sc_hd__a22o_1
*I *2523:B1 I *D sky130_fd_sc_hd__a22o_1
*I *2424:B I *D sky130_fd_sc_hd__nand2_1
*I *2632:A2 I *D sky130_fd_sc_hd__a221o_1
*I *2481:B1 I *D sky130_fd_sc_hd__a221o_1
*I *2534:B1 I *D sky130_fd_sc_hd__a22o_1
*I *3212:X O *D sky130_fd_sc_hd__clkbuf_2
*CAP
1 *2616:B1 0
2 *2514:B1 0
3 *2523:B1 0.000782868
4 *2424:B 0.000121016
5 *2632:A2 0.000326229
6 *2481:B1 0.00010623
7 *2534:B1 0.000747291
8 *3212:X 0.000144926
9 *910:72 0.000565794
10 *910:70 0.00226604
11 *910:52 0.00211418
12 *910:18 0.00121332
13 *910:14 0.0013482
14 *910:8 0.000383774
15 *2481:B1 *2481:A2 1.33343e-05
16 *2481:B1 *915:39 3.25698e-05
17 *2523:B1 *2523:A2 3.71709e-05
18 *2523:B1 *911:22 0.000261829
19 *2523:B1 *931:81 2.62462e-05
20 *2534:B1 *2535:A2 0.00020346
21 *2632:A2 *2634:A2 1.10856e-05
22 *2632:A2 *911:22 0.000939112
23 *910:8 *2616:A2 0.000119924
24 *910:8 *921:16 9.41642e-05
25 *910:8 *927:22 3.53079e-05
26 *910:14 *921:16 1.98839e-05
27 *910:52 *2514:A2 0.00023935
28 *910:70 *912:35 5.04589e-05
29 *910:72 *911:22 0.000195291
30 *2481:B2 *2481:B1 1.28809e-05
31 *2481:B2 *2534:B1 4.93928e-05
32 *2481:B2 *910:18 5.25192e-06
33 *2481:C1 *2481:B1 5.52302e-05
34 *2485:A *910:18 6.32633e-05
35 *2485:C *910:18 0.00031275
36 *2514:A1 *910:70 9.54798e-06
37 *2514:B2 *910:52 0.000107193
38 *2518:A *910:70 0.000223112
39 *2518:C *910:70 8.15531e-05
40 *2522:A2 *2523:B1 1.46576e-05
41 *2522:B1 *2523:B1 2.77143e-05
42 *2522:B2 *2523:B1 1.38106e-05
43 *2522:C1 *2523:B1 4.26759e-05
44 *2524:C1 *2523:B1 0.000619769
45 *2534:B2 *2534:B1 5.52302e-05
46 *2616:A1 *910:52 9.60939e-05
47 *2616:B2 *910:14 0.000140971
48 *2617:C *910:8 0.000182694
49 *2619:B *2523:B1 0.000144773
50 *2632:B1 *2632:A2 0.000597623
51 *2647:A *2523:B1 3.99614e-06
52 *2858:D *910:70 0.000141985
53 *2897:GATE_N *910:18 9.46737e-05
54 *2915:GATE_N *2534:B1 0.000182628
55 *2961:D *910:52 9.71197e-05
56 *2970:GATE_N *910:14 0
57 *2970:GATE_N *910:18 0
58 *3054:D *2534:B1 0
59 *3054:D *910:18 0.000147398
60 *3123:A *2523:B1 8.86911e-05
61 *3196:A *910:70 9.70533e-05
62 *3201:A *2534:B1 0.000183141
63 *3201:A *910:18 0
64 *3212:A *910:8 5.33005e-05
65 *442:6 *2424:B 1.21258e-05
66 *499:22 *2534:B1 0
67 *561:20 *2523:B1 0.000177821
68 *806:10 *2424:B 0.000157311
69 *810:12 *2523:B1 0.000196459
70 *810:20 *910:70 0.000695773
71 *812:47 *910:70 5.30074e-05
72 *812:69 *910:14 0.000340976
73 *812:69 *910:18 6.8194e-05
74 *823:28 *910:52 0.000261146
75 *840:130 *910:14 4.19624e-06
76 *840:130 *910:72 0
77 *841:48 *2523:B1 0
78 *841:48 *910:72 0
79 *850:57 *2534:B1 0.00014285
80 *859:30 *2632:A2 8.7636e-06
81 *893:52 *2424:B 0.000106077
82 *893:63 *2424:B 5.52238e-05
83 *893:63 *2632:A2 0.000327099
84 *893:63 *910:72 2.13965e-05
85 *896:138 *2534:B1 6.31056e-05
*RES
1 *3212:X *910:8 13.1393 
2 *910:8 *910:14 9.71429 
3 *910:14 *910:18 8.85714 
4 *910:18 *2534:B1 29.8536 
5 *910:18 *2481:B1 15.5679 
6 *910:14 *910:52 19.3036 
7 *910:52 *910:70 35.2679 
8 *910:70 *910:72 2.55357 
9 *910:72 *2632:A2 26.2152 
10 *910:72 *2424:B 17.2286 
11 *910:70 *2523:B1 40.6393 
12 *910:52 *2514:B1 9.3 
13 *910:8 *2616:B1 9.3 
*END

*D_NET *911 0.0290711
*CONN
*I *2524:B1 I *D sky130_fd_sc_hd__a221o_1
*I *2576:B1 I *D sky130_fd_sc_hd__a22o_1
*I *2502:A2 I *D sky130_fd_sc_hd__a221o_1
*I *2491:A2 I *D sky130_fd_sc_hd__a221o_1
*I *2589:A2 I *D sky130_fd_sc_hd__a22o_1
*I *2567:B1 I *D sky130_fd_sc_hd__a22o_1
*I *2468:B1 I *D sky130_fd_sc_hd__a22o_1
*I *2600:A2 I *D sky130_fd_sc_hd__a22o_1
*I *2621:A2 I *D sky130_fd_sc_hd__a221o_1
*I *2543:A2 I *D sky130_fd_sc_hd__a22o_1
*I *3213:X O *D sky130_fd_sc_hd__clkbuf_4
*CAP
1 *2524:B1 4.64676e-05
2 *2576:B1 0
3 *2502:A2 4.41799e-05
4 *2491:A2 0.00018125
5 *2589:A2 0.000382295
6 *2567:B1 0
7 *2468:B1 0.000632183
8 *2600:A2 0.00108772
9 *2621:A2 0.00021854
10 *2543:A2 0.000200228
11 *3213:X 0.000193493
12 *911:99 0.00090756
13 *911:95 0.000862183
14 *911:87 0.000946643
15 *911:83 0.000729441
16 *911:58 0.00163885
17 *911:41 0.000983606
18 *911:26 0.000685231
19 *911:22 0.0015321
20 *911:10 0.00162537
21 *2600:A2 *2556:B1 0
22 *2600:A2 *914:97 0.000202214
23 *911:10 *931:81 0.000193833
24 *911:22 *2631:A2 2.12676e-05
25 *911:22 *2634:A2 3.36355e-06
26 *911:22 *914:107 0.0002386
27 *911:22 *914:117 5.7661e-06
28 *911:22 *915:62 0.000105336
29 *911:22 *931:81 6.55751e-05
30 *911:41 *2673:A1 0.000350124
31 *911:83 *916:25 1.55475e-05
32 *911:83 *916:27 7.48928e-05
33 *911:87 *2567:A2 2.39876e-05
34 *911:87 *916:27 1.01487e-05
35 *911:87 *916:31 1.24381e-05
36 *2491:A1 *911:95 0.000139913
37 *2491:B1 *2491:A2 1.46576e-05
38 *2491:B2 *911:95 4.45957e-05
39 *2491:C1 *911:87 0.000298237
40 *2491:C1 *911:95 1.30241e-05
41 *2502:B1 *2502:A2 7.41811e-05
42 *2502:B1 *911:87 0.000544094
43 *2507:A *2502:A2 7.61109e-05
44 *2523:B1 *911:22 0.000261829
45 *2524:B2 *2524:B1 3.04785e-05
46 *2524:C1 *2524:B1 1.58163e-05
47 *2543:B1 *2543:A2 9.41642e-05
48 *2576:A1 *911:26 9.9974e-05
49 *2576:B2 *911:22 5.92264e-05
50 *2578:A1 *2600:A2 8.66318e-05
51 *2578:B1 *2600:A2 6.05161e-06
52 *2578:B1 *911:58 0.000294904
53 *2578:B2 *911:83 1.55475e-05
54 *2579:C1 *2600:A2 4.16984e-05
55 *2590:A1 *2468:B1 5.33005e-05
56 *2590:C1 *2589:A2 9.90431e-05
57 *2621:A1 *2621:A2 3.33174e-05
58 *2631:A1 *911:22 6.722e-05
59 *2631:B2 *911:22 0.000445146
60 *2632:A1 *911:22 9.71906e-05
61 *2632:A2 *911:22 0.000939112
62 *2673:S *911:41 0.000279781
63 *2860:D *911:22 0.000148926
64 *2911:D *2589:A2 1.0562e-05
65 *2919:D *2600:A2 0.000229
66 *2943:GATE_N *2589:A2 0.000128774
67 *2948:GATE_N *2621:A2 6.55482e-05
68 *2950:D *2468:B1 0.000151006
69 *2968:GATE_N *2491:A2 0
70 *2971:GATE_N *911:83 4.9894e-05
71 *2971:GATE_N *911:87 4.71848e-05
72 *2972:D *911:22 0
73 *3039:D *911:99 0
74 *3048:D *911:95 0
75 *3048:GATE_N *2491:A2 4.65158e-06
76 *3048:GATE_N *911:87 0
77 *3067:GATE_N *2600:A2 0.000537516
78 *3125:A *2524:B1 0.000183713
79 *3179:A *2468:B1 2.9386e-05
80 *382:14 *911:22 0.000383859
81 *385:12 *2589:A2 6.2589e-06
82 *385:12 *911:99 0.000118584
83 *390:10 *2543:A2 0.000374324
84 *390:10 *911:22 0
85 *390:10 *911:26 0.000366624
86 *535:14 *2491:A2 7.13226e-06
87 *651:22 *911:10 0.000309266
88 *807:12 *911:26 4.22579e-05
89 *807:20 *2543:A2 0.000371887
90 *807:20 *911:26 0.000192645
91 *808:12 *911:22 9.86249e-07
92 *808:14 *911:22 0.000107657
93 *808:20 *911:22 0.000117378
94 *810:12 *911:10 2.19778e-05
95 *810:12 *911:22 6.8646e-06
96 *811:18 *2621:A2 0
97 *811:39 *911:87 0
98 *812:8 *911:22 0.00013162
99 *812:18 *911:22 0.000527277
100 *822:36 *911:41 9.41642e-05
101 *825:12 *2600:A2 0
102 *825:104 *2468:B1 0.00018631
103 *827:77 *2600:A2 0.000400867
104 *827:77 *911:41 0.000135933
105 *827:77 *911:58 0.00155731
106 *827:94 *2600:A2 2.14658e-05
107 *827:160 *911:41 4.13496e-05
108 *829:32 *2600:A2 0.000657858
109 *829:129 *911:87 2.11419e-05
110 *830:16 *911:10 0.00014183
111 *833:177 *2600:A2 1.02821e-05
112 *838:14 *2621:A2 0
113 *843:27 *911:22 9.78605e-05
114 *853:133 *2621:A2 1.66856e-05
115 *854:10 *2600:A2 0.000226492
116 *855:152 *2468:B1 0.000351745
117 *861:58 *2502:A2 1.98839e-05
118 *865:60 *2524:B1 2.88066e-05
119 *871:57 *911:99 0
120 *872:6 *2589:A2 5.33005e-05
121 *872:21 *2589:A2 9.90431e-05
122 *872:42 *911:95 0.000296608
123 *882:20 *911:22 0.000720513
124 *887:22 *911:10 9.41642e-05
125 *891:34 *911:22 0
126 *894:23 *911:58 0.000281071
127 *895:62 *911:22 0.000120697
128 *896:6 *2600:A2 4.43256e-05
129 *896:10 *2600:A2 3.76337e-05
130 *909:27 *911:87 0
131 *910:72 *911:22 0.000195291
*RES
1 *3213:X *911:10 19.3536 
2 *911:10 *911:22 46.1429 
3 *911:22 *911:26 9.48214 
4 *911:26 *2543:A2 19.7286 
5 *911:26 *911:41 12.8393 
6 *911:41 *2621:A2 21.4875 
7 *911:41 *911:58 15.3393 
8 *911:58 *2600:A2 44.5321 
9 *911:58 *911:83 7.05357 
10 *911:83 *911:87 12.6518 
11 *911:87 *911:95 13.7054 
12 *911:95 *911:99 9.17857 
13 *911:99 *2468:B1 19.7464 
14 *911:99 *2567:B1 9.3 
15 *911:95 *2589:A2 20.7821 
16 *911:87 *2491:A2 15.8848 
17 *911:83 *2502:A2 14.9518 
18 *911:22 *2576:B1 9.3 
19 *911:10 *2524:B1 15.5679 
*END

*D_NET *912 0.0207411
*CONN
*I *2422:B I *D sky130_fd_sc_hd__nand2_1
*I *2513:B1 I *D sky130_fd_sc_hd__a221o_1
*I *2535:A2 I *D sky130_fd_sc_hd__a221o_1
*I *2479:B1 I *D sky130_fd_sc_hd__a221o_1
*I *2555:B1 I *D sky130_fd_sc_hd__a221o_1
*I *2631:B1 I *D sky130_fd_sc_hd__a22o_1
*I *2609:B1 I *D sky130_fd_sc_hd__a22o_1
*I *3214:X O *D sky130_fd_sc_hd__clkbuf_2
*CAP
1 *2422:B 0.000372054
2 *2513:B1 2.38521e-05
3 *2535:A2 0.000382219
4 *2479:B1 0
5 *2555:B1 0.000264464
6 *2631:B1 0.000296111
7 *2609:B1 0.000298218
8 *3214:X 0
9 *912:95 0.00106362
10 *912:72 0.00155672
11 *912:37 0.00129072
12 *912:35 0.00139996
13 *912:23 0.00217436
14 *912:4 0.00110817
15 *2535:A2 *2479:A2 3.28686e-05
16 *2555:B1 *2555:A2 0.000152322
17 *2555:B1 *917:70 0
18 *2555:B1 *920:177 0
19 *2609:B1 *2609:A2 0.000145673
20 *2631:B1 *2634:A2 3.47984e-05
21 *912:35 *2524:A2 0.000135028
22 *912:35 *917:25 0.000121573
23 *912:35 *917:42 0
24 *912:35 *931:48 3.69697e-05
25 *912:72 *2555:A2 2.72602e-05
26 *912:72 *2634:A2 0.000126566
27 *912:72 *917:52 0.000221641
28 *2420:A *912:37 7.47029e-06
29 *2422:A *2422:B 5.7661e-06
30 *2479:A1 *2535:A2 0.000113929
31 *2479:B2 *912:95 3.03503e-05
32 *2479:C1 *2535:A2 1.05731e-05
33 *2479:C1 *912:95 3.97902e-05
34 *2486:B1 *2535:A2 1.02821e-05
35 *2486:B1 *912:95 0.00027278
36 *2512:A1 *912:37 0.000286645
37 *2513:B2 *912:37 0.000149414
38 *2519:B1 *2422:B 0.000213172
39 *2519:B1 *912:23 0.000662712
40 *2519:B1 *912:35 0
41 *2519:B2 *912:35 5.63404e-05
42 *2534:B1 *2535:A2 0.00020346
43 *2535:B2 *2535:A2 3.28686e-05
44 *2555:A1 *2555:B1 9.54798e-06
45 *2555:B2 *2555:B1 3.47641e-06
46 *2556:A1 *2555:B1 0
47 *2556:B2 *2555:B1 0
48 *2610:C1 *2609:B1 5.33005e-05
49 *2610:C1 *912:23 0.000467215
50 *2632:C1 *2631:B1 8.76045e-05
51 *2633:A2 *912:95 0
52 *2634:B1 *2631:B1 5.52302e-05
53 *2634:B2 *2631:B1 2.92346e-05
54 *2634:C1 *2631:B1 9.41642e-05
55 *2643:A *912:95 2.83284e-06
56 *2881:D *2609:B1 4.98055e-06
57 *2910:D *912:95 1.33343e-05
58 *2924:D *912:72 7.19522e-07
59 *2924:GATE_N *912:72 0.000301255
60 *2926:GATE_N *912:72 4.38074e-05
61 *2946:D *912:35 0.00021876
62 *3052:GATE_N *2631:B1 0.000100077
63 *3052:GATE_N *912:37 0.00010096
64 *3136:A *2609:B1 5.58941e-05
65 *3136:A *912:23 3.98559e-05
66 *3201:A *2535:A2 0.000402684
67 *3213:A *2609:B1 2.61337e-05
68 *441:6 *2422:B 0.000116049
69 *447:22 *2631:B1 0.000334644
70 *447:22 *912:35 0.000200297
71 *447:22 *912:37 0.000843802
72 *485:10 *2609:B1 6.5185e-05
73 *491:10 *2609:B1 5.94896e-06
74 *580:22 *912:95 0.000840181
75 *598:26 *2631:B1 0.00051847
76 *806:10 *2513:B1 1.07719e-05
77 *806:39 *912:72 7.76056e-05
78 *810:20 *912:35 6.42095e-05
79 *812:18 *912:37 8.70687e-05
80 *826:10 *912:35 0
81 *826:12 *912:35 0
82 *826:16 *912:72 0
83 *827:52 *2631:B1 0.000135179
84 *830:42 *912:72 0.000697427
85 *830:102 *912:35 0
86 *841:24 *912:35 4.19624e-06
87 *841:35 *2422:B 2.36784e-05
88 *841:48 *912:35 0
89 *859:30 *912:72 0.00108732
90 *863:48 *2535:A2 1.89596e-05
91 *893:52 *2513:B1 5.33005e-05
92 *897:12 *912:95 5.41797e-06
93 *897:84 *2609:B1 3.69047e-06
94 *897:109 *2422:B 2.54782e-05
95 *910:70 *912:35 5.04589e-05
*RES
1 *3214:X *912:4 9.3 
2 *912:4 *2609:B1 23.0857 
3 *912:4 *912:23 11.625 
4 *912:23 *912:35 30.0179 
5 *912:35 *912:37 11.0536 
6 *912:37 *2631:B1 23.6571 
7 *912:37 *912:72 35.0446 
8 *912:72 *2555:B1 18.0232 
9 *912:72 *912:95 16.3696 
10 *912:95 *2479:B1 9.3 
11 *912:95 *2535:A2 27.6482 
12 *912:35 *2513:B1 14.3357 
13 *912:23 *2422:B 14.9786 
*END

*D_NET *913 0.000752795
*CONN
*I *2675:A1 I *D sky130_fd_sc_hd__mux2_1
*I *3266:X O *D sky130_fd_sc_hd__clkbuf_1
*CAP
1 *2675:A1 0.000225942
2 *3266:X 0.000225942
3 *2675:A1 *3340:A 9.71197e-05
4 *2675:A1 *935:14 0.000125724
5 *2452:B *2675:A1 3.34295e-05
6 *2452:C *2675:A1 3.94968e-06
7 *431:10 *2675:A1 0
8 *880:43 *2675:A1 4.06875e-05
*RES
1 *3266:X *2675:A1 32.1357 
*END

*D_NET *914 0.0258281
*CONN
*I *2620:A2 I *D sky130_fd_sc_hd__a22o_1
*I *2576:A2 I *D sky130_fd_sc_hd__a22o_1
*I *2489:A2 I *D sky130_fd_sc_hd__a221o_1
*I *2562:A2 I *D sky130_fd_sc_hd__a221o_1
*I *2599:A2 I *D sky130_fd_sc_hd__a221o_1
*I *2501:A2 I *D sky130_fd_sc_hd__a22o_1
*I *2546:B1 I *D sky130_fd_sc_hd__a221o_1
*I *2468:A2 I *D sky130_fd_sc_hd__a22o_1
*I *2568:A2 I *D sky130_fd_sc_hd__a221o_1
*I *2590:A2 I *D sky130_fd_sc_hd__a221o_1
*I *3215:X O *D sky130_fd_sc_hd__clkbuf_4
*CAP
1 *2620:A2 0.000227594
2 *2576:A2 0
3 *2489:A2 0.000643802
4 *2562:A2 0.000635391
5 *2599:A2 0
6 *2501:A2 0
7 *2546:B1 2.03441e-05
8 *2468:A2 0
9 *2568:A2 0.000449604
10 *2590:A2 2.7205e-05
11 *3215:X 8.72208e-05
12 *914:128 0.00155591
13 *914:117 0.000861116
14 *914:107 0.00138218
15 *914:97 0.00164607
16 *914:34 0.000602116
17 *914:32 0.000790864
18 *914:16 0.000879007
19 *914:10 0.000393152
20 *914:6 0.000907956
21 *2546:B1 *2546:A2 0
22 *2562:A2 *1024:18 0
23 *2568:A2 *999:18 0.000152307
24 *914:16 *2546:A2 8.74239e-05
25 *914:97 *916:25 0
26 *2468:A1 *914:34 0.000135795
27 *2469:A1 *914:32 0.000150625
28 *2469:A2 *914:32 6.07328e-05
29 *2469:C1 *914:32 9.96385e-05
30 *2501:A1 *914:10 0.000147474
31 *2501:A1 *914:16 1.02504e-05
32 *2501:B1 *914:16 8.59056e-05
33 *2546:B2 *2546:B1 5.7661e-06
34 *2546:B2 *914:32 6.26774e-06
35 *2546:C1 *914:32 0.000100831
36 *2564:B *2562:A2 7.13226e-06
37 *2573:A *2590:A2 2.61613e-05
38 *2575:B *2489:A2 1.89695e-05
39 *2576:B2 *914:107 1.38837e-05
40 *2576:B2 *914:117 0
41 *2577:C1 *914:117 0.000440711
42 *2579:C1 *914:97 4.22736e-05
43 *2589:B1 *914:32 0
44 *2590:B1 *914:32 0.000167288
45 *2590:B1 *914:34 9.02862e-06
46 *2595:A *914:34 9.23883e-05
47 *2599:B2 *914:117 7.50897e-05
48 *2599:B2 *914:128 0.000163737
49 *2599:C1 *914:117 2.67758e-05
50 *2600:A2 *914:97 0.000202214
51 *2607:B2 *2562:A2 2.06112e-05
52 *2620:A1 *2620:A2 0.00010326
53 *2620:B1 *2620:A2 5.80706e-06
54 *2620:B2 *2620:A2 0
55 *2621:B2 *914:107 0.000135028
56 *2621:C1 *2620:A2 0.000170291
57 *2621:C1 *914:97 6.02288e-05
58 *2650:B *2562:A2 0.000177948
59 *2652:B *2489:A2 0.000221163
60 *2654:B *2489:A2 0.000571155
61 *2656:A *2489:A2 0.000125724
62 *2656:B *2489:A2 0.000195555
63 *2809:GATE_N *2489:A2 6.18257e-05
64 *2814:D *2562:A2 0.000118351
65 *2820:D *2489:A2 0.000291993
66 *2859:D *2620:A2 1.00375e-05
67 *2939:D *914:107 0.000175251
68 *2951:GATE_N *914:107 0.000137983
69 *2955:GATE_N *2620:A2 6.84559e-05
70 *2955:GATE_N *914:97 0.000102056
71 *3067:GATE_N *914:97 3.10885e-05
72 *3161:A *2590:A2 6.32424e-05
73 *3162:A *914:6 0.000107985
74 *3162:A *914:97 8.02593e-05
75 *3169:A *2568:A2 0.000156165
76 *3177:A *914:16 9.3111e-05
77 *3192:A *2489:A2 0.000170239
78 *3192:A *914:128 5.65955e-05
79 *385:12 *2568:A2 1.94945e-05
80 *426:10 *914:128 4.15263e-05
81 *581:12 *2562:A2 0.000198998
82 *621:14 *2489:A2 0.000390561
83 *630:20 *2568:A2 0.000228893
84 *641:8 *2489:A2 0.000218671
85 *641:8 *2562:A2 9.24395e-05
86 *661:12 *2562:A2 0
87 *807:112 *914:10 0
88 *807:112 *914:16 0
89 *809:119 *914:97 0.000351156
90 *809:123 *914:97 0.000920729
91 *811:14 *2620:A2 0
92 *825:18 *914:97 0.00152425
93 *825:45 *914:97 4.18895e-05
94 *825:45 *914:107 0.000137983
95 *825:94 *914:10 0.000322475
96 *825:96 *914:10 2.31791e-05
97 *825:96 *914:16 0.000195555
98 *827:77 *914:97 7.8201e-05
99 *827:94 *914:6 0.000309266
100 *827:94 *914:97 0.000472087
101 *838:14 *2620:A2 0
102 *844:102 *914:107 0.000306324
103 *845:31 *2620:A2 0
104 *851:110 *914:32 0.000140602
105 *852:8 *914:34 0
106 *852:19 *914:32 0
107 *853:133 *914:97 6.07526e-05
108 *854:40 *914:107 4.55244e-05
109 *869:16 *914:16 0.00021081
110 *869:16 *914:32 9.90431e-05
111 *871:57 *2568:A2 0.000826537
112 *877:130 *2489:A2 0.000198494
113 *884:53 *2489:A2 3.34366e-05
114 *886:23 *2489:A2 0.000158675
115 *886:27 *2489:A2 0.000163833
116 *886:31 *2489:A2 0.000222878
117 *887:123 *2562:A2 0.000239828
118 *887:123 *914:128 5.49544e-05
119 *889:46 *914:32 0.000126446
120 *889:94 *914:97 0.000142856
121 *892:10 *914:32 0
122 *896:20 *914:32 3.57844e-05
123 *911:22 *914:107 0.0002386
124 *911:22 *914:117 5.7661e-06
*RES
1 *3215:X *914:6 12.3 
2 *914:6 *914:10 9.17857 
3 *914:10 *914:16 10.875 
4 *914:16 *914:32 19.1607 
5 *914:32 *914:34 2.25 
6 *914:34 *2590:A2 14.5411 
7 *914:34 *2568:A2 23.1479 
8 *914:32 *2468:A2 13.8 
9 *914:16 *2546:B1 9.72857 
10 *914:10 *2501:A2 13.8 
11 *914:6 *914:97 38.1607 
12 *914:97 *914:107 19.6607 
13 *914:107 *914:117 10.2589 
14 *914:117 *2599:A2 9.3 
15 *914:117 *914:128 5.40179 
16 *914:128 *2562:A2 33.5009 
17 *914:128 *2489:A2 43.0411 
18 *914:107 *2576:A2 9.3 
19 *914:97 *2620:A2 19.0857 
*END

*D_NET *915 0.0203922
*CONN
*I *2610:A2 I *D sky130_fd_sc_hd__a221o_1
*I *2512:A2 I *D sky130_fd_sc_hd__a22o_1
*I *2523:A2 I *D sky130_fd_sc_hd__a22o_1
*I *2533:A2 I *D sky130_fd_sc_hd__a221o_1
*I *2631:A2 I *D sky130_fd_sc_hd__a22o_1
*I *2420:B I *D sky130_fd_sc_hd__nand2_1
*I *2480:B1 I *D sky130_fd_sc_hd__a22o_1
*I *3216:X O *D sky130_fd_sc_hd__buf_2
*CAP
1 *2610:A2 0.000406232
2 *2512:A2 0.000111714
3 *2523:A2 0.000597576
4 *2533:A2 6.18896e-06
5 *2631:A2 2.49566e-05
6 *2420:B 0
7 *2480:B1 0
8 *3216:X 0.00059093
9 *915:79 0.00104329
10 *915:62 0.000846149
11 *915:49 0.0012643
12 *915:39 0.00266012
13 *915:16 0.0020739
14 *915:39 *2481:A2 5.4414e-05
15 *915:39 *923:66 7.60528e-05
16 *2420:A *2512:A2 4.83885e-05
17 *2440:A *2512:A2 0.000161145
18 *2480:A1 *915:16 0.000120011
19 *2480:A1 *915:39 5.52238e-05
20 *2480:B2 *915:16 7.6644e-05
21 *2481:B1 *915:39 3.25698e-05
22 *2481:B2 *915:39 6.26774e-06
23 *2481:C1 *915:16 0
24 *2481:C1 *915:39 0.000135162
25 *2485:A *915:39 0.00030824
26 *2511:A1 *2610:A2 0.000325468
27 *2511:A1 *915:39 1.02504e-05
28 *2512:B2 *915:49 0.000135028
29 *2512:B2 *915:62 2.95641e-05
30 *2521:B1 *2523:A2 9.34004e-05
31 *2522:B1 *2523:A2 0
32 *2523:A1 *2523:A2 0.000446283
33 *2523:B1 *2523:A2 3.71709e-05
34 *2533:A1 *2523:A2 0.000326883
35 *2533:A1 *915:79 9.54798e-06
36 *2533:B1 *2523:A2 0.000125674
37 *2610:A1 *2610:A2 6.56593e-05
38 *2631:A1 *2631:A2 1.02504e-05
39 *2647:A *2523:A2 0
40 *2846:D *915:39 3.67142e-05
41 *2846:GATE_N *915:39 0.000332718
42 *2851:GATE_N *2533:A2 4.34948e-06
43 *2860:GATE_N *915:79 1.71904e-05
44 *2958:GATE_N *915:16 0.000436736
45 *3119:A *915:62 5.41794e-05
46 *3120:A *915:62 0.00028119
47 *3139:A *915:49 0.000914484
48 *3139:A *915:62 0
49 *3166:A *915:79 0.000570218
50 *3216:A *915:16 3.81416e-06
51 *3225:A *915:79 1.39702e-05
52 *390:10 *2631:A2 6.77187e-05
53 *390:10 *915:62 8.34418e-05
54 *435:32 *915:39 0.000105739
55 *439:30 *2610:A2 0.000409682
56 *439:30 *915:39 0.000217756
57 *440:37 *915:49 1.39841e-05
58 *440:37 *915:62 0.000393936
59 *448:45 *2533:A2 1.46576e-05
60 *490:8 *915:16 2.56694e-05
61 *580:22 *915:79 0.00023946
62 *808:14 *915:62 0.000146474
63 *808:20 *915:62 0.00022117
64 *810:43 *915:79 0.000140489
65 *812:47 *915:39 0.000104328
66 *827:25 *915:79 0.000696985
67 *839:31 *2610:A2 3.33174e-05
68 *839:60 *2523:A2 0.000104951
69 *858:40 *915:79 0
70 *866:16 *2610:A2 1.66856e-05
71 *883:53 *2523:A2 0.000177341
72 *887:88 *2523:A2 0.000345453
73 *887:104 *2523:A2 0.0011241
74 *887:104 *915:79 0.000108353
75 *891:18 *2512:A2 0.000123288
76 *891:77 *915:62 5.71472e-05
77 *891:90 *915:62 0.000249164
78 *895:12 *2610:A2 6.40746e-05
79 *911:22 *2631:A2 2.12676e-05
80 *911:22 *915:62 0.000105336
*RES
1 *3216:X *915:16 26.5857 
2 *915:16 *2480:B1 9.3 
3 *915:16 *915:39 31.9286 
4 *915:39 *915:49 15.875 
5 *915:49 *2420:B 9.3 
6 *915:49 *915:62 17.5268 
7 *915:62 *2631:A2 14.6839 
8 *915:62 *915:79 10.0877 
9 *915:79 *2533:A2 13.9473 
10 *915:79 *2523:A2 34.425 
11 *915:49 *2512:A2 21.2107 
12 *915:39 *2610:A2 23.3625 
*END

*D_NET *916 0.0195017
*CONN
*I *2556:B1 I *D sky130_fd_sc_hd__a22o_1
*I *2623:A2 I *D sky130_fd_sc_hd__a221o_1
*I *2578:A2 I *D sky130_fd_sc_hd__a22o_1
*I *2546:A2 I *D sky130_fd_sc_hd__a221o_1
*I *2499:A2 I *D sky130_fd_sc_hd__a22o_1
*I *2588:A2 I *D sky130_fd_sc_hd__a221o_1
*I *2467:A2 I *D sky130_fd_sc_hd__a221o_1
*I *2490:A2 I *D sky130_fd_sc_hd__a22o_1
*I *2567:A2 I *D sky130_fd_sc_hd__a22o_1
*I *2601:A2 I *D sky130_fd_sc_hd__a221o_1
*I *3217:X O *D sky130_fd_sc_hd__buf_2
*CAP
1 *2556:B1 0.000814831
2 *2623:A2 0.000172687
3 *2578:A2 0
4 *2546:A2 0.000711072
5 *2499:A2 0.000272509
6 *2588:A2 1.04544e-05
7 *2467:A2 0.000476242
8 *2490:A2 0
9 *2567:A2 0.000532745
10 *2601:A2 0.000132457
11 *3217:X 0
12 *916:57 0.000859018
13 *916:55 0.00123519
14 *916:31 0.000562398
15 *916:29 0.000689696
16 *916:27 0.00112829
17 *916:25 0.000711426
18 *916:23 0.000785937
19 *916:21 0.00153993
20 *916:4 0.000608193
21 *2556:B1 *920:177 9.31569e-05
22 *2467:A1 *2467:A2 1.02504e-05
23 *2467:C1 *2467:A2 5.15925e-05
24 *2467:C1 *916:57 0.000216304
25 *2475:A1 *2467:A2 7.92829e-05
26 *2475:B1 *2467:A2 5.16989e-05
27 *2489:B1 *2467:A2 1.46576e-05
28 *2490:A1 *2567:A2 0.000100831
29 *2491:B2 *2567:A2 5.41797e-05
30 *2491:C1 *2567:A2 0.000332516
31 *2499:B1 *2499:A2 0.000104258
32 *2499:B1 *916:57 2.05938e-05
33 *2500:A1 *2499:A2 5.01117e-05
34 *2501:B1 *916:55 0.000438775
35 *2502:A1 *916:27 7.02903e-05
36 *2502:B1 *916:27 0.00038457
37 *2502:B1 *916:29 0.000145411
38 *2502:B1 *916:31 2.95642e-05
39 *2502:B2 *916:27 0
40 *2546:B1 *2546:A2 0
41 *2546:B2 *2546:A2 0
42 *2556:A1 *2556:B1 0.000163014
43 *2568:C1 *2567:A2 5.62995e-05
44 *2578:B2 *916:25 0
45 *2587:A2 *2467:A2 0
46 *2587:A2 *916:57 1.59782e-05
47 *2588:A1 *2467:A2 5.48248e-05
48 *2588:B1 *916:57 9.65375e-05
49 *2596:B1 *2467:A2 5.52238e-05
50 *2600:A2 *2556:B1 0
51 *2601:A1 *2601:A2 3.99614e-06
52 *2606:A *2601:A2 8.71761e-06
53 *2622:B1 *2556:B1 1.19402e-05
54 *2622:B1 *2623:A2 1.65758e-05
55 *2622:B1 *916:23 4.21604e-05
56 *2622:B2 *916:21 6.05161e-06
57 *2623:A1 *2623:A2 0.000145406
58 *2623:B1 *2623:A2 1.46576e-05
59 *2623:B2 *2623:A2 1.46576e-05
60 *2623:B2 *916:23 6.74911e-05
61 *2845:D *2467:A2 0
62 *2885:D *2556:B1 0
63 *2928:GATE_N *916:27 0
64 *2944:D *2546:A2 1.24381e-05
65 *2971:GATE_N *2623:A2 1.90936e-05
66 *2971:GATE_N *916:25 0
67 *3046:GATE_N *2499:A2 0
68 *3067:D *2556:B1 0
69 *3067:D *916:21 5.33334e-05
70 *3067:D *916:23 0
71 *3067:GATE_N *916:21 4.87854e-05
72 *3067:GATE_N *916:25 0
73 *3072:D *2546:A2 5.15925e-05
74 *3177:A *2546:A2 0.000744033
75 *3183:A *2467:A2 0.000177821
76 *3183:A *2588:A2 3.28686e-05
77 *385:12 *2546:A2 0
78 *385:12 *2567:A2 0.000188571
79 *385:12 *916:27 6.88463e-06
80 *385:12 *916:29 4.43836e-05
81 *385:12 *916:31 1.23973e-05
82 *439:30 *2556:B1 0.000151816
83 *492:34 *2601:A2 7.25545e-05
84 *492:34 *916:21 4.42887e-05
85 *597:22 *2556:B1 0.000125241
86 *655:16 *2623:A2 4.91935e-05
87 *655:16 *916:23 0
88 *806:60 *2499:A2 0
89 *809:68 *2567:A2 0
90 *809:72 *2567:A2 0
91 *809:165 *2556:B1 3.91935e-05
92 *827:77 *916:25 0
93 *827:77 *916:27 0
94 *829:12 *2556:B1 0
95 *829:32 *2556:B1 0.000352304
96 *838:61 *2467:A2 1.57155e-05
97 *845:12 *916:23 0
98 *845:19 *2623:A2 0.000268403
99 *845:60 *916:23 0
100 *854:40 *2623:A2 0.000246053
101 *855:152 *2567:A2 0.00018372
102 *856:47 *2467:A2 0
103 *869:6 *2546:A2 0.000129595
104 *869:102 *2546:A2 9.7659e-05
105 *871:92 *2467:A2 8.37135e-05
106 *871:92 *2567:A2 7.57946e-05
107 *871:92 *2588:A2 3.28686e-05
108 *876:38 *916:57 8.2395e-05
109 *892:31 *916:55 5.33005e-05
110 *892:48 *916:55 0.00108715
111 *892:82 *916:55 0.000397918
112 *894:29 *916:57 0
113 *896:62 *916:57 3.15739e-05
114 *909:37 *916:57 0
115 *911:83 *916:25 1.55475e-05
116 *911:83 *916:27 7.48928e-05
117 *911:87 *2567:A2 2.39876e-05
118 *911:87 *916:27 1.01487e-05
119 *911:87 *916:31 1.24381e-05
120 *914:16 *2546:A2 8.74239e-05
121 *914:97 *916:25 0
*RES
1 *3217:X *916:4 9.3 
2 *916:4 *2601:A2 12.2554 
3 *916:4 *916:21 10.375 
4 *916:21 *916:23 4.07143 
5 *916:23 *916:25 5.28571 
6 *916:25 *916:27 7.41071 
7 *916:27 *916:29 1.94643 
8 *916:29 *916:31 0.732143 
9 *916:31 *2567:A2 25.4071 
10 *916:31 *2490:A2 13.8 
11 *916:29 *916:55 23.5 
12 *916:55 *916:57 7.71429 
13 *916:57 *2467:A2 31.8759 
14 *916:57 *2588:A2 14.1304 
15 *916:55 *2499:A2 18.7107 
16 *916:27 *2546:A2 35.4161 
17 *916:25 *2578:A2 13.8 
18 *916:23 *2623:A2 28.0902 
19 *916:21 *2556:B1 29.9429 
*END

*D_NET *917 0.0202943
*CONN
*I *2524:A2 I *D sky130_fd_sc_hd__a221o_1
*I *2513:A2 I *D sky130_fd_sc_hd__a221o_1
*I *2634:A2 I *D sky130_fd_sc_hd__a221o_1
*I *2478:A2 I *D sky130_fd_sc_hd__a22o_1
*I *2534:A2 I *D sky130_fd_sc_hd__a22o_1
*I *2418:B I *D sky130_fd_sc_hd__nand2_1
*I *2611:A2 I *D sky130_fd_sc_hd__a22o_1
*I *3218:X O *D sky130_fd_sc_hd__clkbuf_2
*CAP
1 *2524:A2 0.00037306
2 *2513:A2 6.18896e-06
3 *2634:A2 0.000450891
4 *2478:A2 0
5 *2534:A2 0
6 *2418:B 0.000265218
7 *2611:A2 7.44614e-05
8 *3218:X 4.36033e-05
9 *917:70 0.000830059
10 *917:52 0.00156953
11 *917:48 0.00147681
12 *917:44 0.00041588
13 *917:42 0.000929109
14 *917:25 0.00209548
15 *917:6 0.00151552
16 *917:42 *995:12 0.000646942
17 *917:44 *995:12 2.04825e-05
18 *2478:B1 *917:52 0.000506006
19 *2479:C1 *917:70 6.97494e-05
20 *2513:A1 *2513:A2 1.46576e-05
21 *2518:B *917:44 8.36741e-05
22 *2519:B1 *917:42 0.000489824
23 *2524:A1 *2524:A2 1.46576e-05
24 *2534:A1 *917:70 0.000144896
25 *2535:A1 *917:70 9.96264e-05
26 *2555:B1 *917:70 0
27 *2631:B1 *2634:A2 3.47984e-05
28 *2632:A1 *2634:A2 0.00014236
29 *2632:A2 *2634:A2 1.10856e-05
30 *2632:B1 *2634:A2 0.00015134
31 *2632:B2 *2634:A2 0.000167125
32 *2632:C1 *2634:A2 1.59935e-05
33 *2643:A *917:70 1.76649e-05
34 *2643:B *917:70 0.000124826
35 *2807:D *917:70 7.42611e-05
36 *2915:GATE_N *917:70 0.000307349
37 *2972:GATE_N *917:44 1.10632e-05
38 *2972:GATE_N *917:48 0.000810031
39 *3136:A *2418:B 5.10524e-05
40 *3201:A *917:70 0.000244855
41 *439:30 *917:70 0.000175502
42 *447:10 *2524:A2 2.84494e-05
43 *447:22 *2524:A2 3.15517e-05
44 *447:22 *917:44 8.92482e-05
45 *447:22 *917:48 0.000409684
46 *477:18 *917:25 0.000102027
47 *492:34 *917:70 0.000218675
48 *531:37 *2634:A2 0.00012338
49 *531:37 *917:52 0.000240801
50 *531:37 *917:70 0.000122091
51 *597:22 *917:70 7.47252e-05
52 *806:10 *2513:A2 4.34948e-06
53 *809:165 *917:70 0.000827218
54 *810:20 *2524:A2 0.000312215
55 *825:10 *917:6 5.33005e-05
56 *825:10 *917:25 9.90431e-05
57 *826:10 *2418:B 2.14757e-05
58 *826:12 *917:42 0
59 *830:42 *917:70 0.000140142
60 *830:102 *917:25 0.000476803
61 *841:24 *2418:B 0.000183713
62 *841:24 *917:42 0.000225609
63 *841:48 *2524:A2 0.0003267
64 *865:60 *2524:A2 4.34948e-06
65 *878:25 *2611:A2 0.000145598
66 *887:47 *2611:A2 4.55863e-05
67 *891:18 *2634:A2 0
68 *895:50 *917:48 2.09897e-05
69 *897:109 *917:25 0.000882808
70 *911:22 *2634:A2 3.36355e-06
71 *912:35 *2524:A2 0.000135028
72 *912:35 *917:25 0.000121573
73 *912:35 *917:42 0
74 *912:72 *2634:A2 0.000126566
75 *912:72 *917:52 0.000221641
*RES
1 *3218:X *917:6 9.83571 
2 *917:6 *2611:A2 20.2464 
3 *917:6 *917:25 29.3393 
4 *917:25 *2418:B 13.3446 
5 *917:25 *917:42 15.3036 
6 *917:42 *917:44 2.85714 
7 *917:44 *917:48 14.9464 
8 *917:48 *917:52 14.4107 
9 *917:52 *917:70 41.75 
10 *917:70 *2534:A2 9.3 
11 *917:52 *2478:A2 9.3 
12 *917:48 *2634:A2 27.6482 
13 *917:44 *2513:A2 13.9473 
14 *917:42 *2524:A2 30.3223 
*END

*D_NET *918 0.00684521
*CONN
*I *3217:A I *D sky130_fd_sc_hd__buf_2
*I *3316:X O *D sky130_fd_sc_hd__clkbuf_1
*CAP
1 *3217:A 0
2 *3316:X 4.80778e-05
3 *918:12 0.00180013
4 *918:8 0.0018482
5 *918:8 *925:10 5.39166e-06
6 *918:12 *3218:A 3.2534e-05
7 *2479:B2 *918:12 0.000142762
8 *2535:C1 *918:12 0.000304232
9 *3201:A *918:12 0
10 *3202:A *918:12 1.63058e-05
11 *492:18 *918:12 6.97736e-05
12 *492:34 *918:12 0.00102948
13 *647:20 *918:12 8.96017e-05
14 *825:10 *918:12 0.000277291
15 *825:12 *918:12 0.00118143
16 *829:32 *918:12 0
17 *847:12 *918:12 0
18 *878:25 *918:12 0
*RES
1 *3316:X *918:8 14.3357 
2 *918:8 *918:12 47.7321 
3 *918:12 *3217:A 9.3 
*END

*D_NET *919 0.0019165
*CONN
*I *3316:A I *D sky130_fd_sc_hd__clkbuf_1
*I *3218:A I *D sky130_fd_sc_hd__clkbuf_2
*I *3370:X O *D sky130_fd_sc_hd__clkbuf_1
*CAP
1 *3316:A 0
2 *3218:A 0.000146638
3 *3370:X 0.000150756
4 *919:10 0.000297394
5 *919:10 *3236:A 0.000153273
6 *919:10 *925:10 0.000242678
7 *919:10 *945:12 0.000140933
8 *830:102 *3218:A 0.000223632
9 *847:12 *3218:A 0.000100823
10 *847:12 *919:10 1.21258e-05
11 *848:23 *3218:A 1.08359e-05
12 *848:43 *919:10 4.58976e-05
13 *867:90 *3218:A 0.000358977
14 *878:25 *3218:A 0
15 *918:12 *3218:A 3.2534e-05
*RES
1 *3370:X *919:10 14.3893 
2 *919:10 *3218:A 23.6571 
3 *919:10 *3316:A 9.3 
*END

*D_NET *920 0.027935
*CONN
*I *2556:A2 I *D sky130_fd_sc_hd__a22o_1
*I *2504:A2 I *D sky130_fd_sc_hd__a221o_1
*I *2549:A2 I *D sky130_fd_sc_hd__a22o_1
*I *2603:A2 I *D sky130_fd_sc_hd__a221o_1
*I *2581:B1 I *D sky130_fd_sc_hd__a221o_1
*I *2493:B1 I *D sky130_fd_sc_hd__a221o_1
*I *2471:B1 I *D sky130_fd_sc_hd__a221o_1
*I *2570:A2 I *D sky130_fd_sc_hd__a221o_1
*I *2591:A2 I *D sky130_fd_sc_hd__a22o_1
*I *2624:A2 I *D sky130_fd_sc_hd__a22o_1
*I *3219:X O *D sky130_fd_sc_hd__clkbuf_4
*CAP
1 *2556:A2 0
2 *2504:A2 0
3 *2549:A2 2.23854e-05
4 *2603:A2 0.000236103
5 *2581:B1 0.00011532
6 *2493:B1 0
7 *2471:B1 0.000397423
8 *2570:A2 1.64456e-05
9 *2591:A2 0.000968968
10 *2624:A2 0.000162592
11 *3219:X 0
12 *920:177 0.00222226
13 *920:107 0.000930194
14 *920:77 0.000657325
15 *920:71 0.000980346
16 *920:69 0.000931357
17 *920:31 0.00143919
18 *920:29 0.00144247
19 *920:23 0.00106159
20 *920:17 0.00340129
21 *920:4 0.000501416
22 *2471:B1 *2472:A2 0.000206317
23 *2471:B1 *922:53 1.41029e-05
24 *2471:B1 *926:58 0
25 *2581:B1 *2581:A2 0.000118
26 *2603:A2 *922:32 0.000179789
27 *920:31 *2571:B1 5.84171e-05
28 *920:69 *2503:A2 2.4871e-05
29 *920:69 *2571:B1 0.000177328
30 *920:69 *922:90 1.21289e-05
31 *920:77 *922:51 2.14378e-05
32 *920:77 *922:53 5.24274e-05
33 *920:107 *2581:A2 0.000137983
34 *2492:A2 *920:77 5.33005e-05
35 *2493:B2 *2471:B1 7.6021e-05
36 *2493:C1 *2471:B1 1.00375e-05
37 *2493:C1 *920:77 2.83916e-05
38 *2494:B2 *2471:B1 0.000175519
39 *2503:B1 *920:69 2.89114e-05
40 *2503:B2 *920:69 0.000316184
41 *2504:B1 *920:29 1.19402e-05
42 *2504:C1 *920:29 0
43 *2504:C1 *920:69 0.000404707
44 *2508:B2 *920:23 4.00983e-05
45 *2535:C1 *920:177 5.52302e-05
46 *2550:B1 *920:69 0.00018631
47 *2554:B2 *920:177 5.52238e-05
48 *2555:B1 *920:177 0
49 *2555:C1 *920:177 0.000203513
50 *2556:A1 *920:177 0.000105805
51 *2556:B1 *920:177 9.31569e-05
52 *2556:B2 *920:177 0.000100823
53 *2569:A2 *2591:A2 3.48705e-05
54 *2569:B1 *2591:A2 0.000230482
55 *2570:A1 *2591:A2 4.58192e-05
56 *2570:B1 *2591:A2 3.63324e-05
57 *2570:B1 *920:31 1.62384e-05
58 *2570:B2 *2591:A2 7.63827e-05
59 *2571:A1 *920:31 0.000338746
60 *2580:B1 *2603:A2 4.80729e-05
61 *2581:A1 *2581:B1 2.27416e-05
62 *2582:B1 *920:77 3.17148e-05
63 *2583:B1 *920:107 0.000101545
64 *2584:B *2581:B1 3.18676e-05
65 *2584:B *920:107 6.57914e-05
66 *2592:A1 *2591:A2 3.69697e-05
67 *2592:C1 *2591:A2 0
68 *2603:B1 *2603:A2 6.10112e-05
69 *2606:B *2603:A2 7.83659e-05
70 *2628:B *920:23 0.000264514
71 *2629:B2 *920:23 0
72 *2638:B1 *920:177 9.25014e-06
73 *2640:B2 *920:177 0
74 *2873:GATE_N *2603:A2 2.8266e-06
75 *2885:D *920:177 3.24102e-05
76 *2902:GATE_N *2591:A2 2.61337e-05
77 *2963:D *920:177 3.67142e-05
78 *2963:GATE_N *920:177 3.14048e-05
79 *2998:D *2591:A2 1.92789e-05
80 *3030:D *2591:A2 4.94455e-05
81 *3030:GATE_N *2591:A2 0.000142856
82 *3049:GATE_N *920:23 0.000385431
83 *3092:GATE_N *920:23 9.71197e-05
84 *3095:D *920:23 5.03894e-05
85 *3219:A *920:17 0.000227532
86 *381:10 *2591:A2 8.15095e-05
87 *381:10 *920:29 0.000340795
88 *381:10 *920:31 0.000965107
89 *439:30 *920:177 0.000133237
90 *805:34 *920:23 0.000175793
91 *805:36 *920:23 1.52978e-05
92 *805:65 *920:23 2.11362e-05
93 *805:84 *920:23 0.000317054
94 *805:84 *920:177 9.5303e-05
95 *809:165 *920:177 1.74352e-05
96 *811:78 *920:23 0
97 *814:16 *2603:A2 0
98 *814:20 *920:107 0.000595208
99 *814:48 *2471:B1 9.86141e-05
100 *820:27 *920:107 5.39552e-05
101 *820:29 *920:107 0.000123861
102 *820:33 *920:107 0.000187731
103 *827:94 *920:23 0
104 *831:67 *2471:B1 5.33005e-05
105 *833:177 *2624:A2 0.000142856
106 *833:177 *920:17 9.05445e-05
107 *833:177 *920:177 0.00017636
108 *844:95 *920:23 0
109 *849:10 *920:23 0
110 *849:43 *920:23 0
111 *849:43 *920:177 0.00044468
112 *853:21 *920:23 2.35849e-05
113 *855:56 *2591:A2 5.85135e-05
114 *871:10 *2471:B1 0.00012401
115 *871:38 *2471:B1 2.89016e-05
116 *871:118 *2471:B1 0.000164407
117 *896:138 *920:177 0.00053071
118 *898:24 *2603:A2 0.000175519
119 *898:24 *920:107 0.000541119
120 *898:34 *920:107 9.34004e-05
121 *904:113 *2624:A2 9.60875e-05
122 *906:48 *920:69 0.000420425
123 *906:48 *920:71 5.62995e-05
124 *906:50 *920:71 0.000116049
125 *906:65 *2549:A2 0
126 *906:65 *920:77 0.000309273
*RES
1 *3219:X *920:4 9.3 
2 *920:4 *2624:A2 12.6214 
3 *920:4 *920:17 9.14286 
4 *920:17 *920:23 24.5089 
5 *920:23 *920:29 9.20536 
6 *920:29 *920:31 12.5714 
7 *920:31 *2591:A2 38.55 
8 *920:31 *2570:A2 14.1304 
9 *920:29 *920:69 23.6607 
10 *920:69 *920:71 3 
11 *920:71 *920:77 10.1607 
12 *920:77 *2471:B1 25.1393 
13 *920:77 *2493:B1 13.8 
14 *920:71 *920:107 27.1786 
15 *920:107 *2581:B1 11.9071 
16 *920:107 *2603:A2 24.7375 
17 *920:69 *2549:A2 9.72857 
18 *920:23 *2504:A2 9.3 
19 *920:17 *920:177 49.9286 
20 *920:177 *2556:A2 9.3 
*END

*D_NET *921 0.0225508
*CONN
*I *2514:A2 I *D sky130_fd_sc_hd__a22o_1
*I *2481:A2 I *D sky130_fd_sc_hd__a221o_1
*I *2615:A2 I *D sky130_fd_sc_hd__a22o_1
*I *2528:A2 I *D sky130_fd_sc_hd__a211o_1
*I *2538:A2 I *D sky130_fd_sc_hd__a22o_1
*I *2416:B I *D sky130_fd_sc_hd__nand2_1
*I *2638:A2 I *D sky130_fd_sc_hd__a211o_1
*I *3220:X O *D sky130_fd_sc_hd__buf_2
*CAP
1 *2514:A2 0.000974874
2 *2481:A2 0.000285378
3 *2615:A2 3.36321e-05
4 *2528:A2 0.000535521
5 *2538:A2 0.000379061
6 *2416:B 0.000202214
7 *2638:A2 0.000484593
8 *3220:X 0
9 *921:103 0.00143892
10 *921:58 0.00118985
11 *921:41 0.0020924
12 *921:26 0.00300647
13 *921:16 0.00115759
14 *921:4 0.000395676
15 *2481:A2 *2479:A2 0.000253982
16 *2528:A2 *2528:C1 9.71197e-05
17 *2528:A2 *927:79 0
18 *2528:A2 *927:87 0
19 *2638:A2 *2636:A2 0.000238381
20 *921:16 *927:22 0.000389064
21 *921:26 *2636:A2 6.07232e-05
22 *921:41 *923:72 2.80189e-05
23 *921:103 *2479:A2 0.000150465
24 *2477:B1 *921:41 5.33005e-05
25 *2480:A1 *921:41 0.000181803
26 *2481:B1 *2481:A2 1.33343e-05
27 *2528:A1 *2528:A2 3.93346e-05
28 *2528:B1 *2528:A2 9.7049e-06
29 *2529:A *2528:A2 0
30 *2529:B *2528:A2 1.39726e-05
31 *2539:B1 *2538:A2 3.32631e-05
32 *2540:B *2538:A2 0.000312026
33 *2540:C *2538:A2 3.417e-05
34 *2603:B1 *2528:A2 1.52978e-05
35 *2615:A1 *2615:A2 4.39995e-05
36 *2615:A1 *921:26 0.000274665
37 *2616:A1 *921:16 9.69712e-05
38 *2616:B2 *921:16 6.26774e-06
39 *2616:C1 *921:16 5.62995e-05
40 *2635:A2 *921:41 0.000114645
41 *2639:B *2638:A2 0.000216956
42 *2639:C *2638:A2 2.89114e-05
43 *2878:D *921:41 0.000120509
44 *2878:GATE_N *921:41 6.42095e-05
45 *2894:D *2638:A2 9.10492e-05
46 *2961:D *2514:A2 3.32631e-05
47 *2970:GATE_N *921:26 4.45592e-05
48 *3006:GATE_N *2416:B 0.000117903
49 *3009:D *2528:A2 0.000112195
50 *3026:D *2528:A2 0.000118179
51 *3043:GATE_N *2638:A2 0.000183713
52 *3070:GATE_N *921:26 2.05938e-05
53 *3082:GATE_N *921:26 6.13382e-05
54 *3132:A *2528:A2 0.000213868
55 *3133:A *2528:A2 0.000566157
56 *3146:A *2538:A2 0.000353187
57 *3201:A *2481:A2 0.000499055
58 *3201:A *921:16 9.54536e-05
59 *3201:A *921:103 0.000298756
60 *3215:A *2638:A2 0
61 *3220:A *2615:A2 2.95642e-05
62 *3220:A *921:16 5.33005e-05
63 *3220:A *921:26 0.000119185
64 *383:12 *921:26 3.93431e-05
65 *446:20 *2416:B 0.000429932
66 *499:22 *921:26 0.000370485
67 *575:20 *2638:A2 1.74352e-05
68 *812:69 *921:26 8.84776e-05
69 *816:14 *2416:B 0.000310314
70 *821:18 *2528:A2 0.00014734
71 *823:28 *2514:A2 0.000522451
72 *823:38 *921:26 0.000135846
73 *832:79 *2638:A2 1.00375e-05
74 *832:79 *921:26 2.17627e-05
75 *834:50 *921:41 0.000230626
76 *847:37 *921:16 1.40306e-05
77 *847:37 *921:103 8.25843e-06
78 *847:52 *921:26 2.09776e-05
79 *867:14 *2528:A2 0.000133253
80 *873:27 *921:26 0.000235092
81 *873:33 *2638:A2 0.000123288
82 *873:33 *921:26 5.59013e-05
83 *873:42 *2638:A2 8.98755e-05
84 *903:16 *921:41 8.43535e-06
85 *903:22 *921:41 0.000121393
86 *903:32 *2538:A2 1.08359e-05
87 *905:24 *921:41 0.000160355
88 *905:24 *921:58 0.000426351
89 *905:30 *2538:A2 0.000178847
90 *905:30 *921:58 9.71197e-05
91 *910:8 *921:16 9.41642e-05
92 *910:14 *921:16 1.98839e-05
93 *910:52 *2514:A2 0.00023935
94 *915:39 *2481:A2 5.4414e-05
*RES
1 *3220:X *921:4 9.3 
2 *921:4 *921:16 19.1964 
3 *921:16 *921:26 20.4282 
4 *921:26 *2638:A2 25.2107 
5 *921:26 *921:41 25.1607 
6 *921:41 *2416:B 24.425 
7 *921:41 *921:58 5.48214 
8 *921:58 *2538:A2 26.925 
9 *921:58 *2528:A2 32.8536 
10 *921:16 *2615:A2 14.5321 
11 *921:4 *921:103 9.10714 
12 *921:103 *2481:A2 21.6973 
13 *921:103 *2514:A2 27.1214 
*END

*D_NET *922 0.0231619
*CONN
*I *2414:B I *D sky130_fd_sc_hd__nand2_1
*I *2526:B1 I *D sky130_fd_sc_hd__a221o_1
*I *2582:A2 I *D sky130_fd_sc_hd__a22o_1
*I *2626:A2 I *D sky130_fd_sc_hd__a22o_1
*I *2571:B1 I *D sky130_fd_sc_hd__a22o_1
*I *2503:A2 I *D sky130_fd_sc_hd__a22o_1
*I *2593:A2 I *D sky130_fd_sc_hd__a22o_1
*I *2493:A2 I *D sky130_fd_sc_hd__a221o_1
*I *2472:A2 I *D sky130_fd_sc_hd__a22o_1
*I *2547:A2 I *D sky130_fd_sc_hd__a22o_1
*I *3221:X O *D sky130_fd_sc_hd__clkbuf_4
*CAP
1 *2414:B 0
2 *2526:B1 0
3 *2582:A2 0
4 *2626:A2 0.000751747
5 *2571:B1 0.000530142
6 *2503:A2 4.43895e-05
7 *2593:A2 9.79267e-05
8 *2493:A2 8.3637e-06
9 *2472:A2 0.00034184
10 *2547:A2 0.000112333
11 *3221:X 0.000343893
12 *922:90 0.000834058
13 *922:77 0.00131448
14 *922:53 0.000416115
15 *922:51 0.00138806
16 *922:38 0.000497245
17 *922:36 0.000868276
18 *922:32 0.00167601
19 *922:22 0.00183648
20 *922:14 0.000601104
21 *2472:A2 *926:58 0.000197477
22 *2593:A2 *932:85 2.84398e-05
23 *2626:A2 *2627:C1 1.69115e-05
24 *922:22 *2526:A2 6.65302e-05
25 *922:32 *2526:A2 5.80706e-06
26 *922:32 *2536:A2 9.93798e-05
27 *922:32 *2602:A2 0
28 *922:51 *926:58 0.000142336
29 *922:53 *926:58 6.5185e-05
30 *2414:A *922:14 4.72818e-05
31 *2414:A *922:22 8.97951e-05
32 *2471:B1 *2472:A2 0.000206317
33 *2471:B1 *922:53 1.41029e-05
34 *2473:B1 *2472:A2 0.000119135
35 *2503:B1 *922:90 4.27935e-05
36 *2527:A2 *922:22 0.000356417
37 *2527:A2 *922:32 0.000639792
38 *2527:B1 *922:14 2.28598e-05
39 *2528:B1 *922:22 0.000225616
40 *2537:C1 *922:32 4.26808e-05
41 *2539:B1 *922:32 7.09186e-05
42 *2548:C1 *2547:A2 9.76435e-06
43 *2551:B *922:51 9.32756e-05
44 *2571:A1 *2571:B1 1.02504e-05
45 *2571:B2 *2571:B1 5.80706e-06
46 *2581:B2 *922:32 0
47 *2581:C1 *922:32 0
48 *2582:B1 *922:36 6.44542e-05
49 *2582:B1 *922:51 0.000788657
50 *2582:B2 *922:32 0
51 *2593:A1 *2593:A2 1.02504e-05
52 *2602:B1 *922:32 0.00130695
53 *2603:A1 *922:32 5.01117e-05
54 *2603:A2 *922:32 0.000179789
55 *2603:C1 *922:32 0
56 *2606:B *922:32 8.00806e-05
57 *2625:B1 *2626:A2 9.86266e-05
58 *2626:B1 *2626:A2 0.000304082
59 *2865:D *922:22 0
60 *2873:GATE_N *922:32 0
61 *2875:GATE_N *2626:A2 0.000255966
62 *2993:D *922:14 5.41794e-05
63 *3017:GATE_N *922:32 0.000127439
64 *3147:A *922:22 8.54438e-05
65 *3147:A *922:32 0.00022681
66 *814:16 *922:32 0
67 *814:24 *2547:A2 0.000114587
68 *814:24 *2626:A2 0.000110107
69 *814:24 *922:38 4.72917e-05
70 *814:144 *2626:A2 0.000673703
71 *815:20 *922:14 4.46186e-06
72 *818:100 *2593:A2 0
73 *819:12 *922:14 0.000129944
74 *836:60 *2547:A2 0.000349432
75 *836:60 *2626:A2 0.000649017
76 *836:60 *922:38 9.71197e-05
77 *837:27 *922:14 1.39726e-05
78 *837:27 *922:22 7.17235e-05
79 *840:87 *922:14 0
80 *853:59 *922:32 0.000126439
81 *867:10 *922:14 9.91086e-05
82 *867:12 *922:14 3.17148e-05
83 *867:47 *922:14 5.33005e-05
84 *871:118 *2472:A2 6.81704e-05
85 *875:43 *2493:A2 1.46576e-05
86 *898:24 *922:32 0.000166464
87 *898:24 *922:36 0.000106542
88 *898:24 *922:51 0
89 *904:44 *922:32 0
90 *904:56 *2547:A2 5.99152e-05
91 *904:56 *922:32 0
92 *906:12 *2626:A2 0.000268682
93 *906:48 *922:77 0.000897528
94 *906:48 *922:90 0.000313235
95 *906:50 *922:77 0.000227539
96 *906:65 *922:77 0.000132977
97 *907:56 *922:32 7.35306e-05
98 *920:31 *2571:B1 5.84171e-05
99 *920:69 *2503:A2 2.4871e-05
100 *920:69 *2571:B1 0.000177328
101 *920:69 *922:90 1.21289e-05
102 *920:77 *922:51 2.14378e-05
103 *920:77 *922:53 5.24274e-05
*RES
1 *3221:X *922:14 24.675 
2 *922:14 *922:22 13.0179 
3 *922:22 *922:32 40.3036 
4 *922:32 *922:36 7.05357 
5 *922:36 *922:38 0.946429 
6 *922:38 *2547:A2 13.1393 
7 *922:38 *922:51 15.25 
8 *922:51 *922:53 1.64286 
9 *922:53 *2472:A2 21.7821 
10 *922:53 *2493:A2 13.9473 
11 *922:51 *922:77 17.7679 
12 *922:77 *2593:A2 19.9429 
13 *922:77 *922:90 3.82143 
14 *922:90 *2503:A2 10.6929 
15 *922:90 *2571:B1 26.2286 
16 *922:36 *2626:A2 41.1036 
17 *922:32 *2582:A2 13.8 
18 *922:22 *2526:B1 13.8 
19 *922:14 *2414:B 9.3 
*END

*D_NET *923 0.0209959
*CONN
*I *2636:A2 I *D sky130_fd_sc_hd__a221o_1
*I *2537:A2 I *D sky130_fd_sc_hd__a221o_1
*I *2602:A2 I *D sky130_fd_sc_hd__a22o_1
*I *2480:A2 I *D sky130_fd_sc_hd__a22o_1
*I *2555:A2 I *D sky130_fd_sc_hd__a221o_1
*I *2510:A2 I *D sky130_fd_sc_hd__a22o_1
*I *2609:A2 I *D sky130_fd_sc_hd__a22o_1
*I *3222:X O *D sky130_fd_sc_hd__buf_2
*CAP
1 *2636:A2 0.00034447
2 *2537:A2 4.16939e-05
3 *2602:A2 0.00067592
4 *2480:A2 0
5 *2555:A2 0.000531747
6 *2510:A2 0.000137881
7 *2609:A2 0.000186573
8 *3222:X 0
9 *923:72 0.0018533
10 *923:66 0.00201692
11 *923:53 0.00172074
12 *923:32 0.00255866
13 *923:6 0.000345065
14 *923:4 0.000863547
15 *2602:A2 *2536:A2 2.30632e-05
16 *923:53 *3369:A 0.000253125
17 *2478:A1 *2555:A2 0
18 *2478:B2 *2555:A2 2.11419e-05
19 *2478:B2 *923:53 0.000204661
20 *2480:A1 *923:66 0.000201362
21 *2480:A1 *923:72 5.33005e-05
22 *2484:B1 *923:72 0.000177821
23 *2510:B2 *923:32 0.000254449
24 *2518:C *923:32 0.000138992
25 *2527:A2 *2602:A2 3.92708e-05
26 *2536:A1 *2602:A2 6.30641e-05
27 *2537:A1 *2537:A2 1.85392e-05
28 *2537:A1 *2602:A2 3.44999e-05
29 *2537:B1 *2537:A2 1.24368e-05
30 *2537:B1 *2602:A2 1.08506e-05
31 *2537:B2 *2602:A2 5.31122e-05
32 *2537:C1 *2602:A2 0.000447142
33 *2538:B1 *2602:A2 4.11218e-05
34 *2538:B2 *2602:A2 3.71268e-05
35 *2555:A1 *2555:A2 9.54798e-06
36 *2555:B1 *2555:A2 0.000152322
37 *2560:C *2555:A2 7.13226e-06
38 *2602:B1 *2602:A2 5.52302e-05
39 *2609:B1 *2609:A2 0.000145673
40 *2610:B2 *923:32 0
41 *2635:B1 *923:72 0.000432883
42 *2638:A2 *2636:A2 0.000238381
43 *2639:B *2636:A2 9.25014e-06
44 *2807:GATE_N *2555:A2 0
45 *2846:GATE_N *2555:A2 8.23597e-06
46 *2846:GATE_N *923:32 0.000379309
47 *2858:D *923:32 0.000215121
48 *2878:D *923:72 7.84126e-05
49 *2878:GATE_N *923:72 4.27437e-05
50 *2908:GATE_N *2636:A2 1.96517e-05
51 *2926:GATE_N *923:53 0
52 *3043:GATE_N *2636:A2 0.000266122
53 *3054:D *923:53 2.06178e-05
54 *3066:GATE_N *923:53 0.000245089
55 *3070:GATE_N *2636:A2 7.90803e-05
56 *3070:GATE_N *923:72 1.21258e-05
57 *3136:A *2510:A2 0.000208664
58 *3136:A *2609:A2 8.70693e-05
59 *491:10 *2609:A2 0.000203743
60 *498:18 *2555:A2 0
61 *499:22 *923:53 2.04825e-05
62 *565:20 *923:32 1.5942e-05
63 *809:165 *2555:A2 0.000132952
64 *812:47 *2555:A2 0
65 *812:47 *923:32 0
66 *831:162 *2602:A2 2.59355e-05
67 *834:31 *2602:A2 9.71197e-05
68 *834:31 *923:72 0.00186358
69 *839:10 *923:32 8.84708e-05
70 *862:40 *2602:A2 0
71 *862:66 *2602:A2 0
72 *863:48 *2555:A2 8.7636e-06
73 *866:8 *923:32 0.000165304
74 *866:16 *923:32 5.45756e-05
75 *893:37 *923:32 0.000127495
76 *903:16 *923:72 9.41642e-05
77 *903:22 *923:72 0.00114823
78 *904:44 *2602:A2 0.000339217
79 *905:24 *923:72 0.000114665
80 *905:30 *2537:A2 2.30969e-05
81 *905:30 *923:72 0.000205873
82 *912:72 *2555:A2 2.72602e-05
83 *915:39 *923:66 7.60528e-05
84 *921:26 *2636:A2 6.07232e-05
85 *921:41 *923:72 2.80189e-05
86 *922:32 *2602:A2 0
*RES
1 *3222:X *923:4 9.3 
2 *923:4 *923:6 0.428571 
3 *923:6 *2609:A2 13.55 
4 *923:6 *2510:A2 12.4429 
5 *923:4 *923:32 24.1339 
6 *923:32 *2555:A2 23.6348 
7 *923:32 *923:53 14.5985 
8 *923:53 *2480:A2 9.3 
9 *923:53 *923:66 7.98214 
10 *923:66 *923:72 29.0179 
11 *923:72 *2602:A2 33.0143 
12 *923:72 *2537:A2 10.2643 
13 *923:66 *2636:A2 26.6482 
*END

*D_NET *924 0.0021894
*CONN
*I *2676:A1 I *D sky130_fd_sc_hd__mux2_1
*I *3267:X O *D sky130_fd_sc_hd__clkbuf_1
*CAP
1 *2676:A1 0.000522746
2 *3267:X 0.000522746
3 *2676:A1 *2676:A0 0.000107432
4 *2676:A1 *2678:A0 5.47743e-05
5 *2676:A1 *3340:A 0.00015304
6 *2676:A1 *3357:A 7.6644e-05
7 *2676:A1 *935:14 0
8 *2676:A1 *970:10 0
9 PSEL4 *2676:A1 6.76337e-05
10 PWRITE *2676:A1 0.000359786
11 *3266:A *2676:A1 0.000138816
12 *880:43 *2676:A1 0.000185779
*RES
1 *3267:X *2676:A1 40.9393 
*END

*D_NET *925 0.00638173
*CONN
*I *3222:A I *D sky130_fd_sc_hd__buf_2
*I *3317:X O *D sky130_fd_sc_hd__clkbuf_1
*CAP
1 *3222:A 0
2 *3317:X 0.00258654
3 *925:10 0.00258654
4 *925:10 *3236:A 0.000413788
5 *2881:D *925:10 0.00021427
6 *485:10 *925:10 0
7 *848:43 *925:10 0.000165619
8 *866:8 *925:10 0.000166904
9 *918:8 *925:10 5.39166e-06
10 *919:10 *925:10 0.000242678
*RES
1 *3317:X *925:10 48.5679 
2 *925:10 *3222:A 13.8 
*END

*D_NET *926 0.0228406
*CONN
*I *2604:A2 I *D sky130_fd_sc_hd__a22o_1
*I *2625:A2 I *D sky130_fd_sc_hd__a221o_1
*I *2581:A2 I *D sky130_fd_sc_hd__a221o_1
*I *2505:A2 I *D sky130_fd_sc_hd__a22o_1
*I *2571:A2 I *D sky130_fd_sc_hd__a22o_1
*I *2592:A2 I *D sky130_fd_sc_hd__a221o_1
*I *2494:A2 I *D sky130_fd_sc_hd__a22o_1
*I *2471:A2 I *D sky130_fd_sc_hd__a221o_1
*I *2548:A2 I *D sky130_fd_sc_hd__a221o_1
*I *2558:A2 I *D sky130_fd_sc_hd__a221o_1
*I *3223:X O *D sky130_fd_sc_hd__clkbuf_4
*CAP
1 *2604:A2 0
2 *2625:A2 0.000987401
3 *2581:A2 0.000257268
4 *2505:A2 0
5 *2571:A2 0.000562234
6 *2592:A2 0.000377725
7 *2494:A2 0
8 *2471:A2 0.000127245
9 *2548:A2 1.34141e-05
10 *2558:A2 0.000504894
11 *3223:X 0.00051711
12 *926:90 0.00130938
13 *926:88 0.00126366
14 *926:58 0.000591751
15 *926:47 0.000897277
16 *926:39 0.0018368
17 *926:37 0.00116577
18 *926:29 0.00139508
19 *926:27 0.000473029
20 *926:6 0.00147265
21 *2558:A2 *2558:C1 7.13226e-06
22 *2558:A2 *927:87 4.5539e-05
23 *2592:A2 *2572:C1 0
24 *926:27 *932:29 2.14378e-05
25 *926:90 *932:85 0
26 *2471:B1 *926:58 0
27 *2471:B2 *2471:A2 0
28 *2472:A2 *926:58 0.000197477
29 *2473:B1 *926:58 0.000123295
30 *2494:A1 *2471:A2 0.000125724
31 *2494:B2 *2471:A2 0
32 *2495:A1 *2471:A2 0
33 *2503:B2 *926:88 1.34703e-05
34 *2503:B2 *926:90 0
35 *2505:A1 *926:88 2.07937e-05
36 *2505:B1 *926:88 5.33334e-05
37 *2505:B2 *926:88 0
38 *2548:B1 *2548:A2 3.33174e-05
39 *2548:B1 *926:47 4.83217e-05
40 *2549:A1 *926:47 0.000101545
41 *2558:A1 *2558:A2 0.000103643
42 *2559:B1 *926:6 6.71755e-05
43 *2559:C1 *2558:A2 9.20635e-06
44 *2559:C1 *926:6 9.01775e-06
45 *2572:A1 *2571:A2 0.000224583
46 *2572:A2 *2592:A2 0.000238764
47 *2581:B1 *2581:A2 0.000118
48 *2583:A1 *926:39 0
49 *2584:B *2581:A2 0.000111439
50 *2592:B1 *2592:A2 8.7636e-06
51 *2594:B1 *2592:A2 4.94362e-05
52 *2595:C *2592:A2 0
53 *2603:B1 *2558:A2 4.06712e-05
54 *2604:A1 *926:37 1.39726e-05
55 *2604:B1 *2558:A2 0.000233076
56 *2604:B1 *926:37 0.000160296
57 *2605:B1 *2625:A2 9.90431e-05
58 *2606:A *2625:A2 0.000156445
59 *2624:A1 *2625:A2 4.25622e-05
60 *2624:B2 *2625:A2 1.55885e-05
61 *2625:B2 *2625:A2 1.28809e-05
62 *2625:C1 *2625:A2 9.41642e-05
63 *2626:A1 *2625:A2 5.33005e-05
64 *2869:D *2558:A2 2.79421e-05
65 *2869:GATE_N *926:6 9.60875e-05
66 *2907:GATE_N *926:27 0.000360102
67 *2976:D *926:88 7.70534e-05
68 *2982:D *2571:A2 1.58163e-05
69 *2982:GATE_N *2571:A2 0.00018372
70 *2988:GATE_N *926:6 2.5215e-05
71 *2997:GATE_N *926:27 0.000824431
72 *3003:D *2625:A2 3.67142e-05
73 *3003:GATE_N *2625:A2 0.00022459
74 *3012:D *926:47 5.33005e-05
75 *3012:GATE_N *926:47 2.97829e-05
76 *3033:D *926:37 7.12852e-05
77 *3178:A *2592:A2 7.13226e-06
78 *580:22 *2558:A2 1.94879e-05
79 *814:20 *926:37 0
80 *814:20 *926:39 0
81 *816:14 *926:27 0.000580261
82 *816:37 *926:39 0.000100576
83 *816:39 *926:39 0.000271342
84 *816:39 *926:47 0.000113004
85 *820:12 *926:37 0.000342502
86 *820:12 *926:39 0.000173804
87 *820:27 *926:39 0
88 *831:67 *2471:A2 0.000114279
89 *833:101 *2625:A2 4.43256e-05
90 *836:68 *926:88 9.0145e-05
91 *859:54 *2558:A2 2.79421e-05
92 *860:39 *926:47 0.000139913
93 *860:50 *926:47 5.27703e-06
94 *860:89 *926:39 4.8476e-05
95 *860:89 *926:47 3.72846e-05
96 *869:59 *926:88 5.75147e-05
97 *869:59 *926:90 0
98 *871:38 *2471:A2 4.79931e-05
99 *875:43 *2571:A2 0.000249738
100 *889:28 *2625:A2 0.00012401
101 *898:24 *926:58 1.08359e-05
102 *898:34 *2471:A2 2.79148e-05
103 *898:34 *926:58 0.000438149
104 *904:36 *2558:A2 1.57155e-05
105 *904:113 *2625:A2 4.58976e-05
106 *904:121 *2625:A2 9.60939e-05
107 *906:16 *926:88 7.95959e-05
108 *906:16 *926:90 0.000397736
109 *906:18 *2592:A2 0.000137224
110 *906:18 *926:90 0.000218734
111 *920:107 *2581:A2 0.000137983
112 *922:51 *926:58 0.000142336
113 *922:53 *926:58 6.5185e-05
*RES
1 *3223:X *926:6 15.175 
2 *926:6 *2558:A2 25.8402 
3 *926:6 *926:27 21.875 
4 *926:27 *926:29 0.428571 
5 *926:29 *926:37 13.125 
6 *926:37 *926:39 11.6607 
7 *926:39 *926:47 12.4286 
8 *926:47 *2548:A2 9.63036 
9 *926:47 *926:58 17.0714 
10 *926:58 *2471:A2 17.2687 
11 *926:58 *2494:A2 13.8 
12 *926:39 *926:88 20.4286 
13 *926:88 *926:90 8.01786 
14 *926:90 *2592:A2 21.4116 
15 *926:90 *2571:A2 23.425 
16 *926:88 *2505:A2 13.8 
17 *926:37 *2581:A2 19.0589 
18 *926:29 *2625:A2 35.3045 
19 *926:27 *2604:A2 9.3 
*END

*D_NET *927 0.0251944
*CONN
*I *2516:A2 I *D sky130_fd_sc_hd__a221o_1
*I *2412:B I *D sky130_fd_sc_hd__nand2_1
*I *2637:A2 I *D sky130_fd_sc_hd__a22o_1
*I *2536:A2 I *D sky130_fd_sc_hd__a22o_1
*I *2526:A2 I *D sky130_fd_sc_hd__a221o_1
*I *2616:A2 I *D sky130_fd_sc_hd__a221o_1
*I *2479:A2 I *D sky130_fd_sc_hd__a221o_1
*I *3224:X O *D sky130_fd_sc_hd__buf_2
*CAP
1 *2516:A2 2.59981e-05
2 *2412:B 0
3 *2637:A2 0.000970568
4 *2536:A2 0.000377942
5 *2526:A2 0.000369852
6 *2616:A2 0.000144099
7 *2479:A2 0.000532543
8 *3224:X 0
9 *927:87 0.00175103
10 *927:79 0.000782928
11 *927:60 0.00107031
12 *927:54 0.000470661
13 *927:22 0.00206293
14 *927:6 0.00151091
15 *2516:A2 *933:101 0
16 *2536:A2 *3369:A 0.000189215
17 *2637:A2 *3369:A 0.000231025
18 *2430:B *927:79 4.1331e-06
19 *2430:B *927:87 2.28428e-05
20 *2479:A1 *2479:A2 3.4792e-05
21 *2481:A1 *2479:A2 0.000351786
22 *2481:A2 *2479:A2 0.000253982
23 *2517:A1 *927:60 5.52302e-05
24 *2517:C1 *927:60 5.52238e-05
25 *2518:D *927:22 0.000397923
26 *2528:A1 *2526:A2 1.57155e-05
27 *2528:A2 *927:79 0
28 *2528:A2 *927:87 0
29 *2530:B2 *927:22 0.00212391
30 *2535:A2 *2479:A2 3.28686e-05
31 *2537:C1 *2536:A2 0.000158942
32 *2538:B1 *2536:A2 0.000277334
33 *2558:A2 *927:87 4.5539e-05
34 *2602:A2 *2536:A2 2.30632e-05
35 *2603:B1 *927:87 0.000218568
36 *2604:B1 *927:87 0.000109467
37 *2615:B1 *927:22 2.06178e-05
38 *2617:C *927:22 9.90367e-05
39 *2637:B1 *2637:A2 0.00023812
40 *2873:GATE_N *2637:A2 0.000152993
41 *2892:GATE_N *2637:A2 0.000598434
42 *2978:GATE_N *927:79 0.000127908
43 *2978:GATE_N *927:87 0
44 *3009:D *927:79 0.000118963
45 *3018:GATE_N *927:79 0.000332651
46 *3025:D *2526:A2 9.71197e-05
47 *3025:D *927:60 0.000106517
48 *3026:D *2526:A2 0.000178847
49 *3026:GATE_N *2526:A2 8.71377e-05
50 *3147:A *2526:A2 0.000126439
51 *3196:A *927:22 0.00104151
52 *3201:A *2479:A2 2.88635e-05
53 *3201:A *2616:A2 1.67389e-05
54 *3220:A *927:22 0.000289671
55 *492:34 *2479:A2 0.00124829
56 *492:34 *2616:A2 7.25293e-05
57 *499:8 *927:22 7.69776e-06
58 *580:22 *2536:A2 2.83129e-05
59 *580:22 *2637:A2 0.00141621
60 *815:26 *927:79 0.000571158
61 *819:46 *927:22 2.22043e-05
62 *819:46 *927:54 0.000181548
63 *837:39 *2516:A2 4.34948e-06
64 *837:39 *927:54 1.15281e-05
65 *837:39 *927:60 0.000125007
66 *849:43 *2637:A2 0.000522445
67 *859:44 *2637:A2 0.000781298
68 *867:14 *927:79 8.23854e-05
69 *889:28 *2637:A2 0
70 *898:127 *2637:A2 3.14078e-05
71 *903:22 *927:87 3.93893e-05
72 *904:44 *2536:A2 0.000142856
73 *905:16 *927:54 3.57366e-05
74 *905:22 *927:22 2.06178e-05
75 *905:22 *927:54 0.000190526
76 *908:12 *2637:A2 0.000459496
77 *910:8 *2616:A2 0.000119924
78 *910:8 *927:22 3.53079e-05
79 *921:16 *927:22 0.000389064
80 *921:103 *2479:A2 0.000150465
81 *922:22 *2526:A2 6.65302e-05
82 *922:32 *2526:A2 5.80706e-06
83 *922:32 *2536:A2 9.93798e-05
*RES
1 *3224:X *927:6 13.8 
2 *927:6 *927:22 28.9684 
3 *927:22 *2479:A2 30.6482 
4 *927:22 *2616:A2 16.5232 
5 *927:6 *927:54 8.01786 
6 *927:54 *927:60 6.01786 
7 *927:60 *2526:A2 24.3223 
8 *927:60 *927:79 15.8571 
9 *927:79 *927:87 11.3296 
10 *927:87 *2536:A2 22.1843 
11 *927:87 *2637:A2 35.0363 
12 *927:79 *2412:B 13.8 
13 *927:54 *2516:A2 9.87589 
*END

*D_NET *928 0.00593138
*CONN
*I *3223:A I *D sky130_fd_sc_hd__clkbuf_4
*I *3318:X O *D sky130_fd_sc_hd__clkbuf_1
*CAP
1 *3223:A 0
2 *3318:X 0.00110387
3 *928:12 0.00110387
4 *928:12 *2411:C 0
5 *928:12 *936:10 0
6 *2612:B1 *928:12 4.66511e-05
7 *2612:B2 *928:12 0.000332064
8 *2988:GATE_N *928:12 0.000739431
9 *3318:A *928:12 0
10 *496:24 *928:12 0.0017062
11 *821:61 *928:12 0.000414683
12 *848:71 *928:12 3.9745e-05
13 *848:77 *928:12 5.58496e-05
14 *899:74 *928:12 0.000227537
15 *905:16 *928:12 0.000161468
*RES
1 *3318:X *928:12 49.1393 
2 *928:12 *3223:A 9.3 
*END

*D_NET *929 0.00535465
*CONN
*I *2705:A3 I *D sky130_fd_sc_hd__o31ai_1
*I *2702:D I *D sky130_fd_sc_hd__or4_1
*I *2681:A0 I *D sky130_fd_sc_hd__mux2_1
*I *2409:A2 I *D sky130_fd_sc_hd__o21ai_1
*I *3319:X O *D sky130_fd_sc_hd__buf_1
*CAP
1 *2705:A3 0
2 *2702:D 5.38412e-05
3 *2681:A0 0.000306572
4 *2409:A2 0.00010182
5 *3319:X 0.000255948
6 *929:38 0.000377486
7 *929:10 0.00062599
8 *929:8 0.000797191
9 *2681:A0 *952:56 0.000437762
10 *2702:D *2705:A1 0.000158327
11 *929:38 *2705:A1 5.47837e-05
12 *2399:A *929:8 6.21521e-06
13 *2409:A1 *2409:A2 6.8646e-06
14 *2409:B1 *2409:A2 5.35423e-05
15 *2409:B1 *929:10 6.13683e-05
16 *2458:A *929:8 0.000131331
17 *2698:B1 *2702:D 1.02936e-05
18 *2698:B1 *929:38 0.000181803
19 *2698:B2 *2702:D 0
20 *2698:B2 *929:38 1.04232e-05
21 *2700:B *929:38 7.25614e-05
22 *2716:A *929:8 0.000142953
23 *2716:A *929:10 6.98302e-05
24 *2716:B *929:8 2.04825e-05
25 *2776:A2 *929:10 0.000285997
26 *2776:A3 *929:38 0.000129067
27 *2778:A2 *929:8 3.98154e-05
28 *2779:B *929:38 5.52302e-05
29 *2779:D *929:10 5.41797e-06
30 *2782:B *2409:A2 0.000108981
31 *2782:B *929:8 0
32 *2782:B *929:10 0.000120403
33 *471:14 *929:8 0
34 *471:14 *929:38 7.15962e-05
35 *475:31 *929:8 1.62672e-05
36 *483:14 *929:8 7.50697e-05
37 *485:10 *2409:A2 7.43578e-06
38 *672:65 *929:38 0.000180777
39 *691:8 *2702:D 5.62995e-05
40 *751:18 *929:38 8.25843e-06
41 *868:45 *929:10 8.48485e-05
42 *883:119 *929:10 0.000128848
43 *885:50 *929:8 4.29471e-05
44 *887:47 *2409:A2 0
*RES
1 *3319:X *929:8 19.9964 
2 *929:8 *929:10 6.19643 
3 *929:10 *2409:A2 16.2821 
4 *929:10 *2681:A0 18.0321 
5 *929:8 *929:38 12.5714 
6 *929:38 *2702:D 11.3893 
7 *929:38 *2705:A3 9.3 
*END

*D_NET *930 0.0188855
*CONN
*I *2640:A2 I *D sky130_fd_sc_hd__o22ai_2
*I *2607:A2 I *D sky130_fd_sc_hd__o22ai_2
*I *2552:A2 I *D sky130_fd_sc_hd__o22ai_1
*I *2585:A2 I *D sky130_fd_sc_hd__o22ai_1
*I *2497:A2 I *D sky130_fd_sc_hd__o22ai_1
*I *2574:A2 I *D sky130_fd_sc_hd__o22ai_1
*I *2475:A2 I *D sky130_fd_sc_hd__o22ai_2
*I *2596:A2 I *D sky130_fd_sc_hd__o22ai_2
*I *2508:A2 I *D sky130_fd_sc_hd__o22ai_2
*I *2629:A2 I *D sky130_fd_sc_hd__o22ai_2
*I *3225:X O *D sky130_fd_sc_hd__clkbuf_4
*CAP
1 *2640:A2 0
2 *2607:A2 0.00100113
3 *2552:A2 0.000160413
4 *2585:A2 0
5 *2497:A2 0.00017377
6 *2574:A2 1.67212e-05
7 *2475:A2 1.61048e-05
8 *2596:A2 0.000177884
9 *2508:A2 0.000502375
10 *2629:A2 0.000527151
11 *3225:X 0.000208166
12 *930:102 0.000244903
13 *930:66 0.000586653
14 *930:60 0.000882475
15 *930:54 0.00143728
16 *930:48 0.00124184
17 *930:31 0.00139776
18 *930:16 0.00124792
19 *930:14 0.00142138
20 *930:10 0.000436111
21 *930:54 *2670:A0 0
22 *2475:A1 *2596:A2 5.52302e-05
23 *2475:B1 *930:66 0.000184745
24 *2488:A1 *930:54 0.000153047
25 *2497:A1 *2497:A2 0.000197727
26 *2508:A1 *2508:A2 9.60875e-05
27 *2552:B1 *2552:A2 0.00010096
28 *2552:B1 *930:48 5.52238e-05
29 *2552:B1 *930:102 0.000142856
30 *2574:B1 *930:60 0.000162398
31 *2574:B2 *930:60 0.000137983
32 *2607:A1 *2607:A2 1.04232e-05
33 *2607:B1 *2607:A2 0.000109833
34 *2630:B *2607:A2 3.36025e-05
35 *2640:B2 *930:10 2.95076e-06
36 *2644:B *2497:A2 0.000110971
37 *2644:B *930:54 0.000108118
38 *2657:B *930:31 0
39 *2847:D *2497:A2 9.90431e-05
40 *2847:D *930:54 0
41 *2847:GATE_N *930:60 0.000126639
42 *2852:D *930:54 0.000172913
43 *2853:GATE_N *930:14 0.000203065
44 *2857:D *2607:A2 7.47337e-05
45 *2857:D *930:16 4.35452e-05
46 *2857:GATE_N *2607:A2 0.000158902
47 *2937:GATE_N *930:10 0.000220441
48 *2937:GATE_N *930:14 0.000174812
49 *2939:GATE_N *2629:A2 0
50 *2959:GATE_N *930:54 0
51 *2969:GATE_N *2629:A2 3.32631e-05
52 *2969:GATE_N *930:16 3.69047e-06
53 *3118:A *930:10 0
54 *521:26 *2497:A2 0.000300551
55 *521:26 *2574:A2 1.04232e-05
56 *521:26 *930:54 0.000106403
57 *521:26 *930:60 0.000114118
58 *521:26 *930:66 5.95692e-05
59 *551:12 *2508:A2 0.0010031
60 *551:12 *930:48 0.000530041
61 *591:10 *2552:A2 6.40384e-05
62 *621:14 *2552:A2 0.000108258
63 *631:28 *2596:A2 0.000135933
64 *631:28 *930:66 1.02821e-05
65 *661:12 *2607:A2 0.000124642
66 *661:12 *2629:A2 0.000150912
67 *661:12 *930:16 2.07491e-05
68 *671:8 *930:10 1.41029e-05
69 *671:8 *930:14 0.000183943
70 *671:8 *930:31 0
71 *805:8 *930:14 0.000153054
72 *805:20 *930:14 0.00012401
73 *807:20 *930:31 0
74 *809:35 *930:54 0
75 *822:14 *930:10 3.67142e-05
76 *822:22 *930:10 3.67257e-05
77 *822:30 *930:31 0.000155163
78 *827:160 *930:31 2.27501e-05
79 *838:39 *930:54 0
80 *838:123 *930:14 3.17163e-05
81 *850:22 *930:16 2.27416e-05
82 *854:59 *930:31 0.000217756
83 *858:40 *930:10 5.52238e-05
84 *861:58 *2508:A2 0.00018077
85 *872:53 *930:54 0
86 *909:90 *930:54 0.000258521
*RES
1 *3225:X *930:10 18.425 
2 *930:10 *930:14 12.5179 
3 *930:14 *930:16 2.58929 
4 *930:16 *2629:A2 16.2107 
5 *930:16 *930:31 18.5357 
6 *930:31 *2508:A2 20.55 
7 *930:31 *930:48 6.42857 
8 *930:48 *930:54 25.8214 
9 *930:54 *930:60 9.71429 
10 *930:60 *930:66 5.39286 
11 *930:66 *2596:A2 12.7286 
12 *930:66 *2475:A2 9.72857 
13 *930:60 *2574:A2 9.72857 
14 *930:54 *2497:A2 15.2107 
15 *930:48 *930:102 1.35714 
16 *930:102 *2585:A2 9.3 
17 *930:102 *2552:A2 13.0679 
18 *930:14 *2607:A2 22.4964 
19 *930:10 *2640:A2 13.8 
*END

*D_NET *931 0.0166158
*CONN
*I *2530:A2 I *D sky130_fd_sc_hd__o22ai_1
*I *2541:A2 I *D sky130_fd_sc_hd__o22ai_1
*I *2563:A2 I *D sky130_fd_sc_hd__o22ai_1
*I *2519:A2 I *D sky130_fd_sc_hd__o22ai_2
*I *2618:A2 I *D sky130_fd_sc_hd__o22ai_2
*I *2486:A2 I *D sky130_fd_sc_hd__o22ai_2
*I *3226:X O *D sky130_fd_sc_hd__buf_2
*CAP
1 *2530:A2 0
2 *2541:A2 0.00014617
3 *2563:A2 0.000228371
4 *2519:A2 2.52037e-05
5 *2618:A2 0
6 *2486:A2 0.000484599
7 *3226:X 0
8 *931:87 0.000945572
9 *931:85 0.000708907
10 *931:81 0.00139288
11 *931:48 0.00199783
12 *931:16 0.00124386
13 *931:4 0.00147689
14 *2486:A1 *2486:A2 5.52238e-05
15 *2486:B2 *2486:A2 3.99614e-06
16 *2487:A *931:81 0
17 *2487:A *931:85 4.51691e-05
18 *2487:A *931:87 0.00108513
19 *2519:A1 *931:48 2.07491e-05
20 *2519:B2 *2519:A2 1.3701e-05
21 *2519:B2 *931:48 0.000437749
22 *2522:A2 *931:81 3.34672e-05
23 *2523:B1 *931:81 2.62462e-05
24 *2523:B2 *931:81 3.1039e-05
25 *2523:B2 *931:85 0
26 *2523:B2 *931:87 0
27 *2524:B2 *931:81 9.68671e-05
28 *2524:C1 *931:81 0.000273269
29 *2530:B2 *931:87 2.06178e-05
30 *2541:A1 *931:87 0
31 *2541:B1 *2541:A2 5.52302e-05
32 *2562:A1 *2563:A2 4.46186e-06
33 *2562:C1 *2563:A2 1.93629e-05
34 *2563:A1 *2563:A2 7.88765e-05
35 *2619:B *931:81 0.000313241
36 *2643:A *2486:A2 0
37 *2646:A *931:85 0
38 *2807:GATE_N *2486:A2 0.000256176
39 *2807:GATE_N *931:16 5.80474e-05
40 *2811:D *931:81 9.25014e-06
41 *2938:GATE_N *2486:A2 0.000442361
42 *3134:A *931:87 0
43 *3149:A *931:16 5.33005e-05
44 *3200:A *931:16 8.64035e-05
45 *440:37 *2541:A2 2.15245e-05
46 *440:37 *2563:A2 0.000124875
47 *440:37 *931:87 0.000476757
48 *448:45 *2541:A2 1.11735e-05
49 *448:45 *2563:A2 4.13136e-05
50 *498:10 *931:16 0.000693877
51 *531:10 *2486:A2 4.88637e-05
52 *561:20 *2519:A2 3.57366e-05
53 *561:20 *931:48 2.27416e-05
54 *561:20 *931:81 0.000381557
55 *565:20 *931:16 5.30209e-05
56 *565:20 *931:48 1.01875e-05
57 *580:22 *2563:A2 1.49084e-05
58 *581:12 *2541:A2 5.52238e-05
59 *581:12 *2563:A2 0
60 *651:14 *2486:A2 3.39451e-05
61 *651:14 *931:16 0.000113524
62 *651:22 *931:81 0.000751363
63 *822:14 *2563:A2 3.86862e-05
64 *826:12 *931:48 3.69697e-05
65 *830:20 *931:48 0.000119135
66 *841:48 *931:81 0
67 *883:53 *931:87 0.000220686
68 *887:22 *931:81 0.000763225
69 *887:86 *931:81 2.46999e-05
70 *887:88 *931:87 0
71 *887:104 *931:87 0
72 *895:10 *931:16 5.52302e-05
73 *911:10 *931:81 0.000193833
74 *911:22 *931:81 6.55751e-05
75 *912:35 *931:48 3.69697e-05
*RES
1 *3226:X *931:4 9.3 
2 *931:4 *931:16 17.1071 
3 *931:16 *2486:A2 25.2464 
4 *931:16 *2618:A2 13.8 
5 *931:4 *931:48 18.9107 
6 *931:48 *2519:A2 10.0321 
7 *931:48 *931:81 48.8839 
8 *931:81 *931:85 1.9375 
9 *931:85 *931:87 16.2143 
10 *931:87 *2563:A2 18.5321 
11 *931:87 *2541:A2 16.55 
12 *931:85 *2530:A2 13.8 
*END

*D_NET *932 0.0218858
*CONN
*I *2605:C1 I *D sky130_fd_sc_hd__a211o_1
*I *2583:C1 I *D sky130_fd_sc_hd__a211o_1
*I *2506:C1 I *D sky130_fd_sc_hd__a211o_1
*I *2627:C1 I *D sky130_fd_sc_hd__a211o_1
*I *2550:C1 I *D sky130_fd_sc_hd__a211o_1
*I *2594:C1 I *D sky130_fd_sc_hd__a211o_1
*I *2572:C1 I *D sky130_fd_sc_hd__a211o_1
*I *2495:C1 I *D sky130_fd_sc_hd__a211o_1
*I *2473:C1 I *D sky130_fd_sc_hd__a211o_1
*I *2558:C1 I *D sky130_fd_sc_hd__a221o_1
*I *3227:X O *D sky130_fd_sc_hd__buf_2
*CAP
1 *2605:C1 2.75961e-05
2 *2583:C1 0.000176609
3 *2506:C1 0
4 *2627:C1 0.000424705
5 *2550:C1 0
6 *2594:C1 0
7 *2572:C1 0.000730536
8 *2495:C1 0.00029943
9 *2473:C1 0.000375798
10 *2558:C1 0.000443918
11 *3227:X 0.000211292
12 *932:132 0.0011177
13 *932:85 0.00116882
14 *932:49 0.00115714
15 *932:43 0.00106708
16 *932:41 0.000329154
17 *932:37 0.00135075
18 *932:31 0.000832559
19 *932:29 0.000663446
20 *932:8 0.0011106
21 *2473:A1 *2473:C1 7.91925e-05
22 *2474:B *2495:C1 5.59013e-05
23 *2474:C *2495:C1 2.99773e-05
24 *2495:B1 *2495:C1 3.87303e-05
25 *2496:A *2572:C1 0.000697684
26 *2496:B *2495:C1 0.000320031
27 *2496:C *2495:C1 0.000153047
28 *2504:B2 *932:132 2.27416e-05
29 *2505:B2 *932:132 5.52302e-05
30 *2506:B1 *2627:C1 9.25014e-06
31 *2550:B1 *932:43 0.000148189
32 *2551:C *932:37 8.32242e-05
33 *2558:A2 *2558:C1 7.13226e-06
34 *2558:B1 *2558:C1 3.99614e-06
35 *2558:B2 *2558:C1 1.38323e-05
36 *2559:C1 *2558:C1 5.52238e-05
37 *2572:A2 *2572:C1 0.00026372
38 *2583:A2 *2583:C1 0.000268396
39 *2583:B1 *2583:C1 3.63587e-05
40 *2584:B *932:31 5.74562e-05
41 *2584:B *932:37 7.48356e-05
42 *2584:C *932:37 0.000125724
43 *2592:A2 *2572:C1 0
44 *2593:A1 *2572:C1 4.03202e-05
45 *2593:A1 *932:85 7.0368e-05
46 *2593:A2 *932:85 2.84398e-05
47 *2594:B1 *2572:C1 1.02504e-05
48 *2594:B1 *932:85 0.000148189
49 *2604:B2 *932:29 0.000123288
50 *2605:A1 *2605:C1 2.89016e-05
51 *2606:B *2605:C1 1.39841e-05
52 *2625:B1 *2627:C1 0
53 *2626:A1 *2627:C1 7.76152e-05
54 *2626:A2 *2627:C1 1.69115e-05
55 *2626:B1 *2627:C1 0.000146002
56 *2627:A1 *2627:C1 5.52302e-05
57 *2875:GATE_N *932:31 0
58 *2886:GATE_N *932:41 1.02504e-05
59 *2886:GATE_N *932:43 0.000335208
60 *2886:GATE_N *932:49 0.000196262
61 *2907:GATE_N *932:29 0.000356081
62 *2907:GATE_N *932:31 9.24299e-05
63 *2978:GATE_N *2558:C1 9.71197e-05
64 *2982:GATE_N *932:49 1.90111e-05
65 *2983:GATE_N *2583:C1 9.99303e-05
66 *2987:GATE_N *2583:C1 0.0002083
67 *2992:D *932:132 0.000241182
68 *3013:D *932:29 8.59056e-05
69 *3016:D *932:49 0.000148903
70 *3178:A *2495:C1 0.000318101
71 *446:20 *932:29 6.87181e-05
72 *535:14 *2572:C1 0.000445571
73 *816:14 *932:29 0.000379195
74 *816:31 *932:29 0.000214094
75 *816:31 *932:31 0.000108848
76 *816:39 *932:37 0
77 *818:61 *932:37 0.000119125
78 *818:61 *932:132 6.05161e-06
79 *818:70 *932:132 2.42516e-05
80 *820:14 *2583:C1 0.000258915
81 *820:33 *2495:C1 0
82 *820:41 *2473:C1 2.80937e-05
83 *820:65 *2473:C1 6.81335e-05
84 *820:65 *932:49 0.000130405
85 *820:130 *2558:C1 5.33005e-05
86 *833:119 *932:41 0.000297022
87 *836:68 *932:37 0.000105037
88 *836:72 *932:41 5.67902e-05
89 *836:72 *932:43 5.93879e-05
90 *836:72 *932:49 1.59782e-05
91 *851:28 *932:49 5.30637e-06
92 *851:32 *932:49 1.92905e-05
93 *859:56 *932:29 8.5579e-05
94 *869:37 *932:132 1.21258e-05
95 *875:43 *932:85 0.000438781
96 *889:28 *2627:C1 0.000162454
97 *898:22 *2605:C1 9.71197e-05
98 *898:34 *2495:C1 4.70078e-05
99 *898:47 *2495:C1 1.92789e-05
100 *900:30 *932:31 1.18451e-05
101 *900:43 *2583:C1 0.000137983
102 *900:43 *932:37 0.000529289
103 *900:45 *932:37 9.32491e-05
104 *900:45 *932:41 0
105 *900:116 *932:132 0.000270964
106 *904:36 *2558:C1 9.21587e-05
107 *904:36 *932:8 0.000316213
108 *904:44 *2558:C1 3.16326e-05
109 *904:121 *2627:C1 0
110 *926:27 *932:29 2.14378e-05
111 *926:90 *932:85 0
*RES
1 *3227:X *932:8 13.1393 
2 *932:8 *2558:C1 16.05 
3 *932:8 *932:29 18.0357 
4 *932:29 *932:31 4.67857 
5 *932:31 *932:37 15 
6 *932:37 *932:41 8.57143 
7 *932:41 *932:43 4.375 
8 *932:43 *932:49 12.1071 
9 *932:49 *2473:C1 14.8179 
10 *932:49 *2495:C1 27.3179 
11 *932:43 *932:85 16.6964 
12 *932:85 *2572:C1 27.925 
13 *932:85 *2594:C1 13.8 
14 *932:41 *2550:C1 13.8 
15 *932:37 *932:132 12.5 
16 *932:132 *2627:C1 26.7643 
17 *932:132 *2506:C1 9.3 
18 *932:31 *2583:C1 19.6929 
19 *932:29 *2605:C1 14.7464 
*END

*D_NET *933 0.0172078
*CONN
*I *2516:C1 I *D sky130_fd_sc_hd__a221o_1
*I *2528:C1 I *D sky130_fd_sc_hd__a211o_1
*I *2613:C1 I *D sky130_fd_sc_hd__a221o_1
*I *2410:A I *D sky130_fd_sc_hd__nand2_1
*I *2638:C1 I *D sky130_fd_sc_hd__a211o_1
*I *2483:C1 I *D sky130_fd_sc_hd__a221o_1
*I *2539:C1 I *D sky130_fd_sc_hd__a211o_1
*I *3228:X O *D sky130_fd_sc_hd__clkbuf_2
*CAP
1 *2516:C1 0
2 *2528:C1 0.000908019
3 *2613:C1 0
4 *2410:A 4.40688e-05
5 *2638:C1 0.000391077
6 *2483:C1 0.000176349
7 *2539:C1 0.00155537
8 *3228:X 0
9 *933:101 0.001263
10 *933:30 0.0021459
11 *933:28 0.00141298
12 *933:22 0.000901263
13 *933:14 0.000429401
14 *933:6 0.000534922
15 *2483:C1 *934:20 0.000285413
16 *933:14 *934:20 3.82242e-05
17 *933:22 *934:20 5.52302e-05
18 *2483:A1 *2483:C1 2.14658e-05
19 *2483:B1 *2483:C1 9.7049e-06
20 *2484:A1 *933:28 1.37292e-05
21 *2485:C *2410:A 5.33334e-05
22 *2516:A2 *933:101 0
23 *2526:A1 *2528:C1 1.3701e-05
24 *2528:A1 *2528:C1 0.000109319
25 *2528:A2 *2528:C1 9.71197e-05
26 *2528:B1 *2528:C1 0.000165019
27 *2529:A *2528:C1 0.000647985
28 *2529:B *2528:C1 5.74499e-06
29 *2529:C *2528:C1 2.59355e-05
30 *2539:A1 *2539:C1 5.79914e-05
31 *2539:A2 *2539:C1 8.85631e-05
32 *2540:C *2539:C1 9.41642e-05
33 *2557:A1 *2539:C1 1.15281e-05
34 *2557:B1 *2539:C1 0.000186669
35 *2558:B2 *2539:C1 0.000135028
36 *2604:B1 *2539:C1 0.000154433
37 *2613:A1 *933:14 3.66478e-05
38 *2613:A2 *933:14 3.33238e-05
39 *2613:B2 *933:14 2.84269e-05
40 *2614:A1 *933:101 0.000123295
41 *2614:B1 *933:101 3.34295e-05
42 *2614:C1 *933:101 5.03772e-05
43 *2635:A2 *2539:C1 3.40172e-05
44 *2635:A2 *2638:C1 0.000146
45 *2635:A2 *933:28 3.06878e-06
46 *2635:A2 *933:30 3.30781e-05
47 *2636:B1 *2638:C1 0.000445361
48 *2637:A1 *2638:C1 9.44415e-05
49 *2638:A1 *2638:C1 5.52238e-05
50 *2878:D *933:28 0.000134748
51 *2892:GATE_N *2483:C1 6.19181e-05
52 *2990:D *2483:C1 1.33343e-05
53 *3018:GATE_N *2528:C1 3.80079e-05
54 *3043:GATE_N *933:28 0
55 *3082:D *933:28 0
56 *3205:A *2528:C1 0.000100831
57 *3205:A *933:101 0.00015732
58 *3219:A *2638:C1 0.000246656
59 *3219:A *933:22 0
60 *3219:A *933:28 0
61 *3224:A *2528:C1 9.66526e-05
62 *3320:A *933:22 5.71472e-05
63 *435:14 *933:22 9.59532e-06
64 *493:12 *933:101 0
65 *495:8 *933:101 2.24079e-05
66 *575:20 *2638:C1 6.09919e-05
67 *805:84 *933:28 0.000552693
68 *812:69 *933:28 0
69 *832:60 *933:14 0.000397381
70 *832:60 *933:22 0.00012358
71 *832:64 *933:22 0.00014455
72 *832:64 *933:28 9.25014e-06
73 *834:31 *2483:C1 1.08359e-05
74 *837:39 *933:101 0.000220335
75 *837:85 *2539:C1 4.38136e-05
76 *837:85 *933:30 2.65133e-05
77 *840:12 *933:22 0.000165901
78 *848:71 *2528:C1 1.41029e-05
79 *864:77 *933:28 3.69697e-05
80 *873:8 *933:28 4.66203e-05
81 *889:28 *2483:C1 2.44266e-05
82 *900:30 *2539:C1 0.00026353
83 *903:8 *933:101 0.000263524
84 *903:14 *2483:C1 0.000148189
85 *903:14 *933:14 0.000122942
86 *903:14 *933:101 0.000101683
87 *905:16 *933:101 1.21258e-05
88 *907:38 *933:14 0.00018372
89 *908:12 *933:14 0.00012465
90 *908:12 *933:101 2.15339e-05
*RES
1 *3228:X *933:6 13.8 
2 *933:6 *933:14 10.8036 
3 *933:14 *933:22 10.6964 
4 *933:22 *933:28 16.3214 
5 *933:28 *933:30 4.64286 
6 *933:30 *2539:C1 31.05 
7 *933:30 *2483:C1 23.4607 
8 *933:28 *2638:C1 28.8 
9 *933:22 *2410:A 14.7464 
10 *933:14 *2613:C1 9.3 
11 *933:6 *933:101 14.1071 
12 *933:101 *2528:C1 32.425 
13 *933:101 *2516:C1 9.3 
*END

*D_NET *934 0.00543247
*CONN
*I *3227:A I *D sky130_fd_sc_hd__buf_2
*I *3320:X O *D sky130_fd_sc_hd__clkbuf_1
*CAP
1 *3227:A 0
2 *3320:X 0.00106913
3 *934:20 0.00106913
4 *2483:B2 *934:20 0.000127446
5 *2483:C1 *934:20 0.000285413
6 *2484:B1 *934:20 0.000120678
7 *2613:A1 *934:20 0.000139907
8 *2613:B2 *934:20 1.38323e-05
9 *2635:A1 *934:20 0.000135028
10 *2635:B2 *934:20 0.000143625
11 *2892:GATE_N *934:20 7.26751e-05
12 *2990:D *934:20 0.000171375
13 *3004:D *934:20 0.000224583
14 *3004:GATE_N *934:20 2.8535e-05
15 *597:22 *934:20 2.90075e-05
16 *842:100 *934:20 0.000259549
17 *859:30 *934:20 4.38243e-05
18 *889:28 *934:20 0.000674279
19 *903:14 *934:20 0.000192771
20 *904:36 *934:20 0.000365152
21 *907:26 *934:20 0.000173076
22 *933:14 *934:20 3.82242e-05
23 *933:22 *934:20 5.52302e-05
*RES
1 *3320:X *934:20 44.9964 
2 *934:20 *3227:A 9.3 
*END

*D_NET *935 0.00514587
*CONN
*I *2677:A1 I *D sky130_fd_sc_hd__mux2_1
*I *3268:X O *D sky130_fd_sc_hd__clkbuf_1
*CAP
1 *2677:A1 3.62004e-05
2 *3268:X 0.00173337
3 *935:14 0.00176957
4 *935:14 *2678:A1 0.000462813
5 *935:14 *3340:A 0
6 PWDATA[1] *935:14 0.00013624
7 *2452:A *935:14 9.99644e-06
8 *2675:A1 *935:14 0.000125724
9 *2676:A1 *935:14 0
10 *2823:GATE_N *935:14 0
11 *2826:D *935:14 5.57727e-05
12 *2827:D *935:14 0.000589004
13 *2840:D *935:14 1.58961e-05
14 *2842:GATE_N *935:14 1.56e-05
15 *3267:A *935:14 0
16 *3269:A *935:14 0
17 *431:10 *935:14 0
18 *766:12 *935:14 7.03103e-05
19 *878:73 *2677:A1 5.7661e-06
20 *878:73 *935:14 0.000119612
21 *878:85 *935:14 0
*RES
1 *3268:X *935:14 49.2821 
2 *935:14 *2677:A1 10.0321 
*END

*D_NET *936 0.00792781
*CONN
*I *2795:A I *D sky130_fd_sc_hd__xnor2_1
*I *2400:D I *D sky130_fd_sc_hd__nor4_1
*I *2413:C I *D sky130_fd_sc_hd__nor4b_1
*I *2439:D I *D sky130_fd_sc_hd__and4_1
*I *2431:B I *D sky130_fd_sc_hd__and4b_1
*I *2415:B_N I *D sky130_fd_sc_hd__and4bb_1
*I *2425:D_N I *D sky130_fd_sc_hd__nor4b_1
*I *2429:C I *D sky130_fd_sc_hd__and4bb_1
*I *2427:C I *D sky130_fd_sc_hd__and4bb_1
*I *2411:C I *D sky130_fd_sc_hd__nor4b_1
*I *3229:X O *D sky130_fd_sc_hd__clkbuf_2
*CAP
1 *2795:A 0.000148646
2 *2400:D 0.000253556
3 *2413:C 0.000239368
4 *2439:D 0
5 *2431:B 0
6 *2415:B_N 1.97835e-05
7 *2425:D_N 8.83197e-05
8 *2429:C 0.000132021
9 *2427:C 0
10 *2411:C 0.0001458
11 *3229:X 7.93319e-05
12 *936:82 0.000355657
13 *936:71 0.00014478
14 *936:51 0.000108103
15 *936:36 0.00018909
16 *936:34 0.000225978
17 *936:25 0.000651421
18 *936:10 0.00080055
19 *936:8 0.000625279
20 *2400:D *2400:C 5.91094e-05
21 *2413:C *2413:B 0.000266479
22 *2413:C *938:69 6.05161e-06
23 *2413:C *938:84 1.38323e-05
24 *2413:C *939:52 5.59013e-05
25 *2415:B_N *943:10 8.46829e-05
26 *2425:D_N *2425:A 0.000136951
27 *2425:D_N *943:10 5.33005e-05
28 *2429:C *938:48 1.08359e-05
29 *2429:C *940:16 5.01876e-06
30 *2429:C *943:21 3.17148e-05
31 *936:34 *2427:D 0.000170661
32 *936:34 *943:21 4.49293e-05
33 *936:36 *943:21 0.000114759
34 *936:71 *938:33 5.52302e-05
35 *936:82 *2413:B 5.7661e-06
36 *936:82 *938:31 4.27935e-05
37 *936:82 *938:33 0.00014285
38 *936:82 *938:69 6.52786e-05
39 *2612:A2 *2411:C 7.6644e-05
40 *2614:B1 *2411:C 0.00012401
41 *2784:B *2795:A 0.000143188
42 *2784:B *936:10 9.25014e-06
43 *2791:A *2795:A 0.000186662
44 *2795:B *2795:A 5.04589e-05
45 *2796:A *936:10 1.00375e-05
46 *2796:B *2795:A 6.05161e-06
47 *2796:B *936:10 2.72449e-05
48 *3175:A *2411:C 5.33005e-05
49 *3207:A *936:36 0
50 *3208:A *2411:C 5.97623e-05
51 *3221:A *2400:D 4.08637e-05
52 *3221:A *936:25 0.00040381
53 *3229:A *936:8 1.40306e-05
54 *3317:A *936:10 0
55 *3317:A *936:34 2.24646e-05
56 *487:10 *936:34 0.000171368
57 *493:12 *2429:C 0.000149911
58 *496:14 *2411:C 1.58163e-05
59 *500:10 *2429:C 0.000213841
60 *500:10 *936:36 5.01213e-05
61 *500:10 *936:82 0.000139913
62 *759:12 *936:10 0
63 *848:43 *2400:D 3.80385e-05
64 *867:76 *2413:C 2.84494e-05
65 *867:76 *2415:B_N 9.71197e-05
66 *867:76 *2425:D_N 0.000221628
67 *928:12 *2411:C 0
68 *928:12 *936:10 0
*RES
1 *3229:X *936:8 14.7464 
2 *936:8 *936:10 7.41071 
3 *936:10 *2411:C 17.4964 
4 *936:10 *936:25 8.32143 
5 *936:25 *2427:C 9.3 
6 *936:25 *936:34 8.26786 
7 *936:34 *936:36 1.64286 
8 *936:36 *2429:C 17.6214 
9 *936:36 *936:51 4.5 
10 *936:51 *2425:D_N 11.9071 
11 *936:51 *2415:B_N 10.2464 
12 *936:34 *936:71 5.03571 
13 *936:71 *2431:B 9.3 
14 *936:71 *936:82 3.14286 
15 *936:82 *2439:D 9.3 
16 *936:82 *2413:C 22.0321 
17 *936:25 *2400:D 12.7286 
18 *936:8 *2795:A 17.5143 
*END

*D_NET *937 0.00874767
*CONN
*I *2401:D I *D sky130_fd_sc_hd__or4_1
*I *2433:D I *D sky130_fd_sc_hd__and4bb_1
*I *2435:C I *D sky130_fd_sc_hd__and4b_1
*I *2419:B_N I *D sky130_fd_sc_hd__and4bb_1
*I *2421:B_N I *D sky130_fd_sc_hd__and4bb_1
*I *2417:C I *D sky130_fd_sc_hd__nor4b_1
*I *2437:D I *D sky130_fd_sc_hd__and4b_1
*I *2423:A_N I *D sky130_fd_sc_hd__and4b_1
*I *2797:A1 I *D sky130_fd_sc_hd__a22o_1
*I *3230:X O *D sky130_fd_sc_hd__clkbuf_2
*CAP
1 *2401:D 0.00014427
2 *2433:D 6.89285e-05
3 *2435:C 0.000486733
4 *2419:B_N 0
5 *2421:B_N 2.23854e-05
6 *2417:C 0
7 *2437:D 1.72085e-05
8 *2423:A_N 0.000265656
9 *2797:A1 8.41562e-05
10 *3230:X 0
11 *937:89 0.000232562
12 *937:67 0.000605303
13 *937:61 0.000210974
14 *937:50 0.000131349
15 *937:43 7.90478e-05
16 *937:19 0.00036344
17 *937:17 0.000799296
18 *937:4 0.000759751
19 *2401:D *2401:C 9.90431e-05
20 *2401:D *3233:A 0.000160353
21 *2421:B_N *2417:D_N 0
22 *2423:A_N *940:8 0.000175892
23 *2423:A_N *940:60 0
24 *2433:D *939:104 7.30279e-05
25 *2435:C *2435:B 0.000312222
26 *2435:C *2435:D 2.44318e-05
27 *2435:C *3233:A 0.000244993
28 *2435:C *939:69 0
29 *2435:C *939:73 0
30 *2435:C *941:66 2.32517e-05
31 *2437:D *2437:B 6.98553e-06
32 *2797:A1 *2790:A 6.05161e-06
33 *2797:A1 *939:35 4.16899e-05
34 *937:17 *2417:B 6.42338e-05
35 *937:17 *2433:B_N 5.31541e-05
36 *937:17 *944:16 0
37 *937:17 *944:20 0
38 *937:19 *3236:A 0
39 *937:19 *944:20 0
40 *937:50 *2417:A 7.03295e-05
41 *937:50 *2417:B 5.71472e-05
42 *937:50 *939:65 0.000102197
43 *937:61 *2417:A 6.05161e-06
44 *937:61 *2421:C 5.03772e-05
45 *937:61 *939:65 3.97677e-05
46 *937:67 *2437:B 4.01768e-05
47 *937:67 *3233:A 0
48 *937:67 *939:69 5.01117e-05
49 *937:67 *939:104 2.94103e-05
50 *937:89 *3233:A 0
51 *937:89 *939:104 2.0203e-05
52 *2437:C *937:17 0.000895576
53 *2437:C *937:19 0.00012501
54 *2797:A2 *2797:A1 9.41642e-05
55 *3230:A *937:17 5.33005e-05
56 *3232:A *937:17 9.95444e-05
57 *3370:A *2401:D 0.000146474
58 *3370:A *2433:D 0.000125731
59 *3370:A *937:61 5.38242e-05
60 *383:12 *937:17 0
61 *492:18 *2435:C 0
62 *499:8 *2423:A_N 8.56716e-05
63 *499:8 *937:19 1.76135e-05
64 *647:20 *2423:A_N 7.90803e-05
65 *752:6 *2797:A1 8.57023e-05
66 *752:6 *937:17 0.000432896
67 *752:8 *2797:A1 0.000177821
68 *812:69 *2435:C 9.20464e-06
69 *834:76 *2435:C 9.90367e-05
70 *834:76 *937:67 9.90431e-05
71 *883:127 *937:17 4.58194e-05
*RES
1 *3230:X *937:4 9.3 
2 *937:4 *2797:A1 11.8893 
3 *937:4 *937:17 21.6071 
4 *937:17 *937:19 1.94643 
5 *937:19 *2423:A_N 18.7286 
6 *937:19 *2437:D 14.0366 
7 *937:17 *937:43 5.03571 
8 *937:43 *2417:C 9.3 
9 *937:43 *937:50 1.76786 
10 *937:50 *2421:B_N 9.72857 
11 *937:50 *937:61 6.26786 
12 *937:61 *937:67 7.39286 
13 *937:67 *2419:B_N 9.3 
14 *937:67 *2435:C 26.425 
15 *937:61 *937:89 0.580357 
16 *937:89 *2433:D 15.8982 
17 *937:89 *2401:D 18.0946 
*END

*D_NET *938 0.00703298
*CONN
*I *2427:B_N I *D sky130_fd_sc_hd__and4bb_1
*I *2400:C I *D sky130_fd_sc_hd__nor4_1
*I *2439:C I *D sky130_fd_sc_hd__and4_1
*I *2413:B I *D sky130_fd_sc_hd__nor4b_1
*I *2429:B_N I *D sky130_fd_sc_hd__and4bb_1
*I *2431:A_N I *D sky130_fd_sc_hd__and4b_1
*I *2415:A_N I *D sky130_fd_sc_hd__and4bb_1
*I *2425:C I *D sky130_fd_sc_hd__nor4b_1
*I *2411:B I *D sky130_fd_sc_hd__nor4b_1
*I *2789:A I *D sky130_fd_sc_hd__nand2_1
*I *3231:X O *D sky130_fd_sc_hd__clkbuf_2
*CAP
1 *2427:B_N 0
2 *2400:C 0.000114145
3 *2439:C 0
4 *2413:B 0.000121185
5 *2429:B_N 0.000191977
6 *2431:A_N 0
7 *2415:A_N 0.000108161
8 *2425:C 0
9 *2411:B 3.52937e-05
10 *2789:A 0.000221001
11 *3231:X 7.39488e-05
12 *938:102 0.000114145
13 *938:84 0.000137032
14 *938:69 0.000231099
15 *938:48 0.00025041
16 *938:33 0.000252602
17 *938:31 8.73614e-05
18 *938:29 0.000191236
19 *938:25 0.000400722
20 *938:12 0.000540013
21 *2400:C *2427:A_N 6.28241e-05
22 *2411:B *2411:A 2.44318e-05
23 *2411:B *2411:D_N 9.80173e-05
24 *2411:B *2431:D 5.52302e-05
25 *2413:B *2413:A 4.13496e-05
26 *2413:B *2417:D_N 0
27 *2413:B *939:52 1.24368e-05
28 *2413:B *943:39 6.71755e-05
29 *2413:B *943:46 4.43256e-05
30 *2415:A_N *2425:A 5.52302e-05
31 *2415:A_N *943:10 0.000126572
32 *2429:B_N *2429:A_N 0.000175512
33 *2429:B_N *940:10 2.89016e-05
34 *2789:A *942:46 9.60875e-05
35 *938:12 *942:46 9.71197e-05
36 *938:31 *943:39 5.33005e-05
37 *938:33 *2411:D_N 9.60875e-05
38 *938:33 *2431:D 7.16489e-05
39 *938:33 *943:32 4.08637e-05
40 *938:33 *943:39 0.000172309
41 *938:48 *2411:A 1.52978e-05
42 *938:48 *940:16 1.02504e-05
43 *938:48 *940:29 0.000155609
44 *938:48 *943:21 0.000168939
45 *938:69 *943:39 9.71197e-05
46 *938:84 *943:39 5.33005e-05
47 *2400:D *2400:C 5.91094e-05
48 *2413:C *2413:B 0.000266479
49 *2413:C *938:69 6.05161e-06
50 *2413:C *938:84 1.38323e-05
51 *2429:C *938:48 1.08359e-05
52 *2789:B *2789:A 0.000181259
53 *3175:A *2411:B 1.95646e-05
54 *3207:A *2429:B_N 7.53568e-05
55 *3207:A *938:29 0.000144038
56 *3317:A *938:25 0
57 *386:14 *938:12 5.01213e-05
58 *386:14 *938:25 0
59 *476:8 *2429:B_N 0.000408189
60 *476:8 *938:25 1.19309e-05
61 *476:8 *938:29 7.72502e-05
62 *487:10 *938:29 0
63 *496:14 *2411:B 7.17136e-05
64 *753:6 *2789:A 2.59355e-05
65 *753:6 *938:12 4.72917e-05
66 *753:23 *938:12 2.97074e-05
67 *753:23 *938:25 5.66157e-05
68 *848:43 *2400:C 0
69 *848:43 *938:25 0.000115474
70 *848:43 *938:29 6.0038e-05
71 *936:71 *938:33 5.52302e-05
72 *936:82 *2413:B 5.7661e-06
73 *936:82 *938:31 4.27935e-05
74 *936:82 *938:33 0.00014285
75 *936:82 *938:69 6.52786e-05
*RES
1 *3231:X *938:12 20.5857 
2 *938:12 *2789:A 13.9607 
3 *938:12 *938:25 9.48214 
4 *938:25 *938:29 7.66071 
5 *938:29 *938:31 0.535714 
6 *938:31 *938:33 3 
7 *938:33 *2411:B 11.0679 
8 *938:33 *938:48 12.0893 
9 *938:48 *2425:C 9.3 
10 *938:48 *2415:A_N 11.4964 
11 *938:31 *2431:A_N 9.3 
12 *938:29 *938:69 0.946429 
13 *938:69 *2429:B_N 24.1214 
14 *938:69 *938:84 0.535714 
15 *938:84 *2413:B 13.1571 
16 *938:84 *2439:C 9.3 
17 *938:25 *938:102 4.5 
18 *938:102 *2400:C 11.925 
19 *938:102 *2427:B_N 9.3 
*END

*D_NET *939 0.0103342
*CONN
*I *2793:A1 I *D sky130_fd_sc_hd__a22o_1
*I *2421:C I *D sky130_fd_sc_hd__and4bb_1
*I *2401:C I *D sky130_fd_sc_hd__or4_1
*I *2433:C I *D sky130_fd_sc_hd__and4bb_1
*I *2419:C I *D sky130_fd_sc_hd__and4bb_1
*I *2435:B I *D sky130_fd_sc_hd__and4b_1
*I *2423:B I *D sky130_fd_sc_hd__and4b_1
*I *2417:D_N I *D sky130_fd_sc_hd__nor4b_1
*I *3231:A I *D sky130_fd_sc_hd__clkbuf_2
*I *2790:A I *D sky130_fd_sc_hd__or2_1
*I *3232:X O *D sky130_fd_sc_hd__clkbuf_2
*CAP
1 *2793:A1 0
2 *2421:C 0.000102225
3 *2401:C 9.1933e-05
4 *2433:C 0
5 *2419:C 2.25053e-05
6 *2435:B 0.000248532
7 *2423:B 0
8 *2417:D_N 4.94093e-05
9 *3231:A 0.000111997
10 *2790:A 0.000144437
11 *3232:X 0.000508146
12 *939:104 0.000214674
13 *939:73 0.000367999
14 *939:69 0.000208295
15 *939:67 0.000189063
16 *939:65 0.000381855
17 *939:52 0.00107771
18 *939:44 0.000797703
19 *939:35 0.000413292
20 *939:12 0.00090485
21 *2401:C *2401:A 0
22 *2401:C *3233:A 0.000134335
23 *2401:C *941:38 0.000217094
24 *2419:C *2437:B 5.33005e-05
25 *2435:B *2435:D 0.000380813
26 *2435:B *944:26 5.99824e-05
27 *939:35 *942:10 0
28 *939:52 *2400:A 9.34004e-05
29 *939:52 *2413:A 1.56e-05
30 *939:52 *2413:D_N 2.84494e-05
31 *939:52 *3236:A 0.000148465
32 *939:52 *942:10 0
33 *939:52 *942:16 0
34 *939:65 *2417:A 8.25843e-06
35 *939:65 *2417:B 1.39841e-05
36 *939:104 *3233:A 2.14757e-05
37 *939:104 *941:38 5.52302e-05
38 *2401:D *2401:C 9.90431e-05
39 *2413:B *2417:D_N 0
40 *2413:B *939:52 1.24368e-05
41 *2413:C *939:52 5.59013e-05
42 *2421:B_N *2417:D_N 0
43 *2433:D *939:104 7.30279e-05
44 *2435:C *2435:B 0.000312222
45 *2435:C *939:69 0
46 *2435:C *939:73 0
47 *2783:A2 *939:12 0.000120969
48 *2787:B1 *2790:A 0.00019932
49 *2787:B2 *939:12 0
50 *2790:B *2790:A 7.7797e-05
51 *2791:B *2790:A 0
52 *2793:B1 *939:35 0.000168656
53 *2793:B2 *3231:A 0.00010096
54 *2793:B2 *939:35 2.99612e-05
55 *2795:B *2790:A 1.55885e-05
56 *2797:A1 *2790:A 6.05161e-06
57 *2797:A1 *939:35 4.16899e-05
58 *2797:A2 *939:35 4.87953e-05
59 *2797:B1 *2790:A 1.04232e-05
60 *3109:D *939:12 0.000175519
61 *3111:D *939:35 3.48023e-05
62 *3229:A *3231:A 6.57914e-05
63 *3229:A *939:44 5.03772e-05
64 *3370:A *2421:C 4.46231e-06
65 *383:12 *939:69 0.000139653
66 *383:12 *939:73 0.000244143
67 *383:12 *939:104 0.000236099
68 *386:14 *939:12 0.000546771
69 *386:14 *939:35 0
70 *386:14 *939:52 0
71 *492:18 *939:73 4.86429e-05
72 *752:8 *2790:A 1.02821e-05
73 *834:76 *2419:C 1.58163e-05
74 *867:76 *939:52 3.19202e-05
75 *937:50 *939:65 0.000102197
76 *937:61 *2421:C 5.03772e-05
77 *937:61 *939:65 3.97677e-05
78 *937:67 *939:69 5.01117e-05
79 *937:67 *939:104 2.94103e-05
80 *937:89 *939:104 2.0203e-05
*RES
1 *3232:X *939:12 29.2286 
2 *939:12 *2790:A 13.175 
3 *939:12 *939:35 14.1607 
4 *939:35 *3231:A 11.4786 
5 *939:35 *939:44 0.946429 
6 *939:44 *939:52 22.3482 
7 *939:52 *2417:D_N 10.4875 
8 *939:52 *939:65 3.61607 
9 *939:65 *939:67 4.5 
10 *939:67 *939:69 1.94643 
11 *939:69 *939:73 7.66071 
12 *939:73 *2423:B 9.3 
13 *939:73 *2435:B 15.3179 
14 *939:69 *2419:C 14.3357 
15 *939:67 *939:104 8.19643 
16 *939:104 *2433:C 9.3 
17 *939:104 *2401:C 12.8714 
18 *939:65 *2421:C 10.6571 
19 *939:44 *2793:A1 9.3 
*END

*D_NET *940 0.00690983
*CONN
*I *2423:C I *D sky130_fd_sc_hd__and4b_1
*I *2413:D_N I *D sky130_fd_sc_hd__nor4b_1
*I *2400:B I *D sky130_fd_sc_hd__nor4_1
*I *2427:A_N I *D sky130_fd_sc_hd__and4bb_1
*I *2439:B I *D sky130_fd_sc_hd__and4_1
*I *2415:D I *D sky130_fd_sc_hd__and4bb_1
*I *2429:D I *D sky130_fd_sc_hd__and4bb_1
*I *2411:A I *D sky130_fd_sc_hd__nor4b_1
*I *2431:D I *D sky130_fd_sc_hd__and4b_1
*I *2425:B I *D sky130_fd_sc_hd__nor4b_1
*I *3233:X O *D sky130_fd_sc_hd__clkbuf_2
*CAP
1 *2423:C 0
2 *2413:D_N 5.95259e-05
3 *2400:B 0
4 *2427:A_N 0.000201536
5 *2439:B 0
6 *2415:D 4.09299e-05
7 *2429:D 0
8 *2411:A 9.88307e-05
9 *2431:D 5.71272e-05
10 *2425:B 0
11 *3233:X 5.46446e-05
12 *940:90 0.000304948
13 *940:77 0.000167225
14 *940:66 0.000345539
15 *940:60 0.00048823
16 *940:29 0.000318708
17 *940:16 0.000336848
18 *940:10 0.000483607
19 *940:8 0.000792224
20 *940:6 0.000349452
21 *2411:A *2411:D_N 5.52238e-05
22 *2411:A *2427:D 6.8646e-06
23 *2411:A *943:21 6.8646e-06
24 *2413:D_N *3236:A 0.000127439
25 *940:6 *2435:D 0.000131752
26 *940:6 *944:26 5.29937e-05
27 *940:8 *944:26 0.000136958
28 *940:60 *3236:A 3.34366e-05
29 *940:66 *2437:A_N 3.18676e-05
30 *940:66 *943:6 7.32955e-05
31 *2400:C *2427:A_N 6.28241e-05
32 *2411:B *2411:A 2.44318e-05
33 *2411:B *2431:D 5.52302e-05
34 *2423:A_N *940:8 0.000175892
35 *2423:A_N *940:60 0
36 *2429:B_N *940:10 2.89016e-05
37 *2429:C *940:16 5.01876e-06
38 *2614:B1 *2411:A 0
39 *2614:B1 *940:16 0
40 *2614:B1 *940:29 0
41 *2614:C1 *940:16 6.05161e-06
42 *3175:A *2411:A 0.00010946
43 *3175:A *940:90 4.90703e-05
44 *386:14 *940:90 2.70899e-05
45 *476:8 *940:60 0
46 *476:8 *940:77 0.000121573
47 *476:8 *940:90 0.000134788
48 *488:10 *940:60 0
49 *492:18 *940:6 5.33433e-05
50 *493:12 *940:16 4.25809e-05
51 *495:8 *940:16 1.56e-05
52 *496:14 *2431:D 5.33005e-05
53 *647:20 *940:8 0.00019242
54 *647:20 *940:10 0.000389587
55 *647:20 *940:16 7.48091e-05
56 *848:43 *2427:A_N 1.04232e-05
57 *867:76 *2415:D 5.52302e-05
58 *867:76 *940:66 0.000129515
59 *867:76 *940:77 3.93986e-05
60 *867:76 *940:90 1.59689e-05
61 *938:33 *2431:D 7.16489e-05
62 *938:48 *2411:A 1.52978e-05
63 *938:48 *940:16 1.02504e-05
64 *938:48 *940:29 0.000155609
65 *939:52 *2413:D_N 2.84494e-05
*RES
1 *3233:X *940:6 11.0679 
2 *940:6 *940:8 6.28571 
3 *940:8 *940:10 7.10714 
4 *940:10 *940:16 8.10714 
5 *940:16 *2425:B 13.8 
6 *940:16 *940:29 2.91071 
7 *940:29 *2431:D 15.0455 
8 *940:29 *2411:A 16.2107 
9 *940:10 *2429:D 9.3 
10 *940:8 *940:60 7.66071 
11 *940:60 *940:66 8.03571 
12 *940:66 *2415:D 9.83571 
13 *940:66 *940:77 6.14286 
14 *940:77 *2439:B 13.8 
15 *940:77 *940:90 6.98214 
16 *940:90 *2427:A_N 11.9071 
17 *940:90 *2400:B 9.3 
18 *940:60 *2413:D_N 15.4429 
19 *940:6 *2423:C 9.3 
*END

*D_NET *941 0.005391
*CONN
*I *2421:D I *D sky130_fd_sc_hd__and4bb_1
*I *2419:A_N I *D sky130_fd_sc_hd__and4bb_1
*I *2437:B I *D sky130_fd_sc_hd__and4b_1
*I *2435:A_N I *D sky130_fd_sc_hd__and4b_1
*I *2401:B I *D sky130_fd_sc_hd__or4_1
*I *2433:B_N I *D sky130_fd_sc_hd__and4bb_1
*I *2417:B I *D sky130_fd_sc_hd__nor4b_1
*I *3234:X O *D sky130_fd_sc_hd__buf_1
*CAP
1 *2421:D 0.000232942
2 *2419:A_N 0
3 *2437:B 0.000393197
4 *2435:A_N 5.25028e-05
5 *2401:B 0
6 *2433:B_N 4.97125e-05
7 *2417:B 8.70592e-05
8 *3234:X 4.31953e-05
9 *941:66 0.000632967
10 *941:51 0.000392475
11 *941:49 0.000456418
12 *941:38 0.000483319
13 *941:8 0.000136772
14 *941:6 0.000403241
15 *2417:B *2417:A 9.71197e-05
16 *2417:B *944:18 3.06406e-05
17 *2417:B *944:20 9.69119e-06
18 *2433:B_N *3233:A 5.52302e-05
19 *2433:B_N *944:16 2.46999e-05
20 *2433:B_N *944:18 1.19402e-05
21 *941:6 *3233:A 1.92789e-05
22 *941:38 *2401:A 7.49387e-06
23 *941:38 *2433:A_N 9.90367e-05
24 *941:38 *3233:A 2.79875e-05
25 *941:51 *3233:A 4.98055e-06
26 *2401:C *941:38 0.000217094
27 *2419:C *2437:B 5.33005e-05
28 *2435:C *941:66 2.32517e-05
29 *2437:D *2437:B 6.98553e-06
30 *2922:D *941:49 1.00375e-05
31 *3050:D *941:66 3.69047e-06
32 *3050:GATE_N *2435:A_N 0.000113647
33 *3050:GATE_N *941:51 7.22594e-05
34 *3050:GATE_N *941:66 3.32631e-05
35 *3157:A *941:38 5.71472e-05
36 *3157:A *941:49 2.14658e-05
37 *3201:A *2435:A_N 6.24997e-05
38 *3201:A *941:51 1.88578e-05
39 *491:10 *2421:D 1.67323e-05
40 *497:20 *941:38 0.000181796
41 *497:20 *941:49 9.97648e-05
42 *497:20 *941:51 0.000116147
43 *497:20 *941:66 5.74499e-06
44 *812:69 *2435:A_N 2.11419e-05
45 *830:102 *941:49 0.000125717
46 *834:76 *2437:B 3.72659e-05
47 *834:76 *941:66 2.13481e-06
48 *847:12 *941:49 0
49 *867:76 *2433:B_N 5.52302e-05
50 *937:17 *2417:B 6.42338e-05
51 *937:17 *2433:B_N 5.31541e-05
52 *937:50 *2417:B 5.71472e-05
53 *937:67 *2437:B 4.01768e-05
54 *939:65 *2417:B 1.39841e-05
55 *939:104 *941:38 5.52302e-05
*RES
1 *3234:X *941:6 9.83571 
2 *941:6 *941:8 4.5 
3 *941:8 *2417:B 16.3893 
4 *941:8 *2433:B_N 15.675 
5 *941:6 *941:38 6.85714 
6 *941:38 *2401:B 9.3 
7 *941:38 *941:49 7.58929 
8 *941:49 *941:51 2.55357 
9 *941:51 *2435:A_N 15.4429 
10 *941:51 *941:66 7.51786 
11 *941:66 *2437:B 15.7464 
12 *941:66 *2419:A_N 9.3 
13 *941:49 *2421:D 16.3893 
*END

*D_NET *942 0.00916196
*CONN
*I *2783:B1 I *D sky130_fd_sc_hd__o21a_1
*I *2787:A1 I *D sky130_fd_sc_hd__a22o_1
*I *2784:A I *D sky130_fd_sc_hd__or3_1
*I *3233:A I *D sky130_fd_sc_hd__clkbuf_2
*I *3234:A I *D sky130_fd_sc_hd__buf_1
*I *3235:X O *D sky130_fd_sc_hd__buf_1
*CAP
1 *2783:B1 0.000317867
2 *2787:A1 0
3 *2784:A 0
4 *3233:A 0.000506227
5 *3234:A 0
6 *3235:X 0.000455208
7 *942:61 0.000586243
8 *942:46 0.00086327
9 *942:16 0.000797432
10 *942:10 0.00134131
11 *3233:A *2401:A 4.18895e-05
12 *3233:A *2433:A_N 4.58402e-05
13 *3233:A *944:16 0.000356028
14 *942:16 *3236:A 0.000103275
15 *2401:C *3233:A 0.000134335
16 *2401:D *3233:A 0.000160353
17 *2433:B_N *3233:A 5.52302e-05
18 *2435:C *3233:A 0.000244993
19 *2437:C *942:10 3.06406e-05
20 *2437:C *942:16 0.000151829
21 *2783:A2 *2783:B1 0.000141318
22 *2783:A2 *942:61 5.10955e-05
23 *2787:A2 *2783:B1 0
24 *2787:B1 *942:61 9.36423e-05
25 *2789:A *942:46 9.60875e-05
26 *2792:A *2783:B1 5.52238e-05
27 *2792:B *2783:B1 0.000125057
28 *2793:A2 *942:10 0
29 *2793:B2 *2783:B1 0.000141445
30 *2797:B2 *942:61 2.12933e-05
31 *3050:GATE_N *3233:A 9.36743e-05
32 *3110:D *942:10 0.000216677
33 *3157:A *3233:A 5.66157e-05
34 *3232:A *942:10 5.52302e-05
35 *497:20 *3233:A 0.000290264
36 *753:6 *942:46 0.0002126
37 *753:23 *942:46 0.000125731
38 *753:23 *942:61 0.000172007
39 *755:10 *942:46 1.88048e-05
40 *755:10 *942:61 8.18365e-05
41 *759:12 *942:46 0
42 *771:24 *942:10 6.79932e-05
43 *771:37 *942:10 9.82159e-05
44 *771:46 *942:10 4.94362e-05
45 *771:59 *942:10 7.27028e-05
46 *812:69 *3233:A 2.16477e-05
47 *867:76 *3233:A 9.45399e-05
48 *867:76 *942:16 7.48091e-05
49 *883:127 *942:10 0.000271198
50 *937:67 *3233:A 0
51 *937:89 *3233:A 0
52 *938:12 *942:46 9.71197e-05
53 *939:35 *942:10 0
54 *939:52 *942:10 0
55 *939:52 *942:16 0
56 *939:104 *3233:A 2.14757e-05
57 *941:6 *3233:A 1.92789e-05
58 *941:38 *3233:A 2.79875e-05
59 *941:51 *3233:A 4.98055e-06
*RES
1 *3235:X *942:10 25.0857 
2 *942:10 *942:16 11.4464 
3 *942:16 *3234:A 9.3 
4 *942:16 *3233:A 33.1571 
5 *942:10 *942:46 17.75 
6 *942:46 *2784:A 13.8 
7 *942:46 *942:61 9.83929 
8 *942:61 *2787:A1 9.3 
9 *942:61 *2783:B1 16.5857 
*END

*D_NET *943 0.00566721
*CONN
*I *2437:A_N I *D sky130_fd_sc_hd__and4b_1
*I *2415:C I *D sky130_fd_sc_hd__and4bb_1
*I *2429:A_N I *D sky130_fd_sc_hd__and4bb_1
*I *2427:D I *D sky130_fd_sc_hd__and4bb_1
*I *2413:A I *D sky130_fd_sc_hd__nor4b_1
*I *2400:A I *D sky130_fd_sc_hd__nor4_1
*I *2439:A I *D sky130_fd_sc_hd__and4_1
*I *2431:C I *D sky130_fd_sc_hd__and4b_1
*I *2411:D_N I *D sky130_fd_sc_hd__nor4b_1
*I *2425:A I *D sky130_fd_sc_hd__nor4b_1
*I *3236:X O *D sky130_fd_sc_hd__clkbuf_2
*CAP
1 *2437:A_N 8.4017e-05
2 *2415:C 0
3 *2429:A_N 5.83672e-05
4 *2427:D 0.000102989
5 *2413:A 7.20044e-05
6 *2400:A 0.000128018
7 *2439:A 0
8 *2431:C 0
9 *2411:D_N 4.38576e-05
10 *2425:A 5.20151e-05
11 *3236:X 0
12 *943:46 0.000237715
13 *943:39 0.000144651
14 *943:32 0.000124609
15 *943:23 6.15081e-05
16 *943:21 0.000181637
17 *943:10 0.000235927
18 *943:8 0.000188026
19 *943:6 0.000148561
20 *943:4 0.000208185
21 *2437:A_N *3236:A 5.52302e-05
22 *2411:A *2411:D_N 5.52238e-05
23 *2411:A *2427:D 6.8646e-06
24 *2411:A *943:21 6.8646e-06
25 *2411:B *2411:D_N 9.80173e-05
26 *2413:B *2413:A 4.13496e-05
27 *2413:B *943:39 6.71755e-05
28 *2413:B *943:46 4.43256e-05
29 *2415:A_N *2425:A 5.52302e-05
30 *2415:A_N *943:10 0.000126572
31 *2415:B_N *943:10 8.46829e-05
32 *2425:D_N *2425:A 0.000136951
33 *2425:D_N *943:10 5.33005e-05
34 *2429:B_N *2429:A_N 0.000175512
35 *2429:C *943:21 3.17148e-05
36 *2614:B1 *2427:D 0
37 *3175:A *2411:D_N 6.87574e-05
38 *3175:A *943:32 3.23206e-05
39 *3175:A *943:39 0.000437762
40 *3207:A *2429:A_N 9.24299e-05
41 *487:10 *943:39 2.44318e-05
42 *487:10 *943:46 2.89016e-05
43 *488:10 *943:6 1.92905e-05
44 *867:76 *2400:A 0.000189621
45 *867:76 *943:6 0.000227532
46 *867:76 *943:8 5.33005e-05
47 *867:76 *943:10 0.000155331
48 *936:34 *2427:D 0.000170661
49 *936:34 *943:21 4.49293e-05
50 *936:36 *943:21 0.000114759
51 *938:31 *943:39 5.33005e-05
52 *938:33 *2411:D_N 9.60875e-05
53 *938:33 *943:32 4.08637e-05
54 *938:33 *943:39 0.000172309
55 *938:48 *943:21 0.000168939
56 *938:69 *943:39 9.71197e-05
57 *938:84 *943:39 5.33005e-05
58 *939:52 *2400:A 9.34004e-05
59 *939:52 *2413:A 1.56e-05
60 *940:66 *2437:A_N 3.18676e-05
61 *940:66 *943:6 7.32955e-05
*RES
1 *3236:X *943:4 9.3 
2 *943:4 *943:6 3.41071 
3 *943:6 *943:8 0.535714 
4 *943:8 *943:10 3 
5 *943:10 *2425:A 10.6571 
6 *943:10 *943:21 7.05357 
7 *943:21 *943:23 4.5 
8 *943:23 *2411:D_N 11.0679 
9 *943:23 *943:32 0.535714 
10 *943:32 *2431:C 9.3 
11 *943:32 *943:39 4.64286 
12 *943:39 *2439:A 9.3 
13 *943:39 *943:46 0.946429 
14 *943:46 *2400:A 21.4964 
15 *943:46 *2413:A 10.6571 
16 *943:21 *2427:D 16.05 
17 *943:8 *2429:A_N 20.55 
18 *943:6 *2415:C 9.3 
19 *943:4 *2437:A_N 11.0679 
*END

*D_NET *944 0.00512544
*CONN
*I *2401:A I *D sky130_fd_sc_hd__or4_1
*I *2433:A_N I *D sky130_fd_sc_hd__and4bb_1
*I *2421:A_N I *D sky130_fd_sc_hd__and4bb_1
*I *2417:A I *D sky130_fd_sc_hd__nor4b_1
*I *2419:D I *D sky130_fd_sc_hd__and4bb_1
*I *2435:D I *D sky130_fd_sc_hd__and4b_1
*I *2423:D I *D sky130_fd_sc_hd__and4b_1
*I *3237:X O *D sky130_fd_sc_hd__buf_1
*CAP
1 *2401:A 0.000144217
2 *2433:A_N 2.12334e-05
3 *2421:A_N 0
4 *2417:A 0.00014202
5 *2419:D 0
6 *2435:D 0.000240839
7 *2423:D 0
8 *3237:X 5.10633e-05
9 *944:55 0.00014202
10 *944:26 0.000368316
11 *944:20 0.000246594
12 *944:18 0.000178425
13 *944:16 0.000378629
14 *944:10 0.000493368
15 *2401:C *2401:A 0
16 *2417:B *2417:A 9.71197e-05
17 *2417:B *944:18 3.06406e-05
18 *2417:B *944:20 9.69119e-06
19 *2433:B_N *944:16 2.46999e-05
20 *2433:B_N *944:18 1.19402e-05
21 *2435:B *2435:D 0.000380813
22 *2435:B *944:26 5.99824e-05
23 *2435:C *2435:D 2.44318e-05
24 *3157:A *2401:A 1.92905e-05
25 *3157:A *944:10 3.52194e-05
26 *3233:A *2401:A 4.18895e-05
27 *3233:A *2433:A_N 4.58402e-05
28 *3233:A *944:16 0.000356028
29 *3370:A *2417:A 9.90367e-05
30 *3370:A *944:10 2.18262e-05
31 *383:12 *944:16 0.000102906
32 *383:12 *944:18 0.000121573
33 *383:12 *944:20 0.000245342
34 *383:12 *944:26 0.000197991
35 *830:102 *2401:A 0
36 *834:68 *944:20 7.29667e-05
37 *834:68 *944:26 0.000197991
38 *867:76 *944:16 8.6229e-06
39 *937:17 *944:16 0
40 *937:17 *944:20 0
41 *937:19 *944:20 0
42 *937:50 *2417:A 7.03295e-05
43 *937:61 *2417:A 6.05161e-06
44 *939:65 *2417:A 8.25843e-06
45 *940:6 *2435:D 0.000131752
46 *940:6 *944:26 5.29937e-05
47 *940:8 *944:26 0.000136958
48 *941:38 *2401:A 7.49387e-06
49 *941:38 *2433:A_N 9.90367e-05
*RES
1 *3237:X *944:10 19.3357 
2 *944:10 *944:16 9.25 
3 *944:16 *944:18 1.64286 
4 *944:18 *944:20 3.16071 
5 *944:20 *944:26 8.93304 
6 *944:26 *2423:D 9.3 
7 *944:26 *2435:D 15.8714 
8 *944:20 *2419:D 13.8 
9 *944:18 *944:55 4.5 
10 *944:55 *2417:A 12.3179 
11 *944:55 *2421:A_N 9.3 
12 *944:16 *2433:A_N 14.7464 
13 *944:10 *2401:A 11.3893 
*END

*D_NET *945 0.00889485
*CONN
*I *2788:A1 I *D sky130_fd_sc_hd__a21o_1
*I *2786:A I *D sky130_fd_sc_hd__xnor2_1
*I *2781:S I *D sky130_fd_sc_hd__mux2_1
*I *3237:A I *D sky130_fd_sc_hd__buf_1
*I *3236:A I *D sky130_fd_sc_hd__clkbuf_2
*I *3238:X O *D sky130_fd_sc_hd__clkbuf_2
*CAP
1 *2788:A1 0
2 *2786:A 0.000214345
3 *2781:S 8.10844e-05
4 *3237:A 0
5 *3236:A 0.000531766
6 *3238:X 0
7 *945:59 0.000397964
8 *945:42 0.00129819
9 *945:12 0.000983648
10 *945:6 0.00148537
11 *2413:D_N *3236:A 0.000127439
12 *2437:A_N *3236:A 5.52302e-05
13 *2437:C *3236:A 0
14 *2693:A *945:12 0
15 *2787:A2 *2781:S 2.50566e-05
16 *2787:A2 *945:42 1.02821e-05
17 *2788:A2 *2786:A 0.00020908
18 *2788:B1 *2786:A 0.000217497
19 *3109:D *2786:A 5.33005e-05
20 *3109:D *945:59 8.17274e-05
21 *3157:A *945:12 0.000247806
22 *3157:A *945:42 4.16207e-05
23 *386:14 *945:59 0.000196269
24 *680:16 *945:42 0
25 *751:26 *945:12 0.000104974
26 *751:26 *945:42 0.00068575
27 *751:28 *945:42 0.000123673
28 *758:10 *2786:A 2.28499e-05
29 *771:46 *945:59 0
30 *771:59 *945:59 0
31 *848:43 *3236:A 0.000576347
32 *848:43 *945:12 0.000130419
33 *919:10 *3236:A 0.000153273
34 *919:10 *945:12 0.000140933
35 *925:10 *3236:A 0.000413788
36 *937:19 *3236:A 0
37 *939:52 *3236:A 0.000148465
38 *940:60 *3236:A 3.34366e-05
39 *942:16 *3236:A 0.000103275
*RES
1 *3238:X *945:6 13.8 
2 *945:6 *945:12 15.0893 
3 *945:12 *3236:A 35.2464 
4 *945:12 *3237:A 9.3 
5 *945:6 *945:42 19.4107 
6 *945:42 *2781:S 10.5679 
7 *945:42 *945:59 12.5 
8 *945:59 *2786:A 13.9786 
9 *945:59 *2788:A1 9.3 
*END

*D_NET *946 0.00228114
*CONN
*I *2678:A1 I *D sky130_fd_sc_hd__mux2_1
*I *3269:X O *D sky130_fd_sc_hd__clkbuf_1
*CAP
1 *2678:A1 0.000736844
2 *3269:X 0.000736844
3 *2678:A1 *2678:A0 0.000313235
4 *2810:D *2678:A1 0
5 *2827:D *2678:A1 3.14048e-05
6 *431:10 *2678:A1 0
7 *878:85 *2678:A1 0
8 *935:14 *2678:A1 0.000462813
*RES
1 *3269:X *2678:A1 39.9036 
*END

*D_NET *947 0.0070499
*CONN
*I *2456:B I *D sky130_fd_sc_hd__or4bb_1
*I *2680:D I *D sky130_fd_sc_hd__or4_4
*I *2465:B I *D sky130_fd_sc_hd__nand4b_2
*I *2397:B I *D sky130_fd_sc_hd__and2b_1
*I *2707:A_N I *D sky130_fd_sc_hd__and3b_1
*I *2441:C I *D sky130_fd_sc_hd__or4b_4
*I *2711:A I *D sky130_fd_sc_hd__nor3_1
*I *2679:B_N I *D sky130_fd_sc_hd__and4bb_1
*I *2464:B I *D sky130_fd_sc_hd__and4b_1
*I *2455:A_N I *D sky130_fd_sc_hd__nand2b_1
*I *3239:X O *D sky130_fd_sc_hd__clkbuf_2
*CAP
1 *2456:B 0.000327505
2 *2680:D 9.35684e-05
3 *2465:B 5.54436e-05
4 *2397:B 0
5 *2707:A_N 0
6 *2441:C 9.35514e-05
7 *2711:A 1.69531e-05
8 *2679:B_N 0
9 *2464:B 0.000129458
10 *2455:A_N 2.02482e-05
11 *3239:X 0.000226822
12 *947:99 0.000149012
13 *947:97 0.000458124
14 *947:90 0.000174016
15 *947:61 0.000296459
16 *947:51 0.000412952
17 *947:38 0.000286433
18 *947:27 0.00036764
19 *947:23 0.000261401
20 *947:14 0.000286328
21 *2441:C *2441:B 5.33005e-05
22 *2441:C *949:55 5.52302e-05
23 *2441:C *953:18 0.000137336
24 *2441:C *995:12 0.000137336
25 *2455:A_N *948:16 6.46334e-06
26 *2456:B *948:58 2.28598e-05
27 *2465:B *948:33 2.84398e-05
28 *2465:B *951:21 1.02504e-05
29 *2465:B *951:30 5.58941e-05
30 *2680:D *948:33 8.11454e-05
31 *2680:D *951:30 0.000133776
32 *947:14 *948:8 0.000122689
33 *947:14 *948:12 2.57619e-05
34 *947:14 *948:16 3.32839e-05
35 *947:14 *948:81 2.31791e-05
36 *947:14 *953:18 0
37 *947:23 *948:16 7.17235e-05
38 *947:23 *948:25 3.18676e-05
39 *947:27 *2464:C 5.7903e-06
40 *947:38 *950:94 1.00375e-05
41 *947:51 *2717:A3 4.19624e-06
42 *947:51 *950:94 3.25247e-05
43 *947:61 *2717:A3 7.02923e-05
44 *947:90 *948:25 4.58976e-05
45 *947:97 *948:25 1.02936e-05
46 *2464:D *947:97 0.000142856
47 *2465:D *947:90 0
48 *2691:B *947:27 0
49 *2695:A *947:14 4.5539e-05
50 *2695:C *947:61 0.000155337
51 *2709:A *2464:B 0.000140933
52 *2709:A *947:27 9.69119e-06
53 *2709:A *947:38 3.4323e-06
54 *2710:B *947:51 0
55 *2711:B *2711:A 5.33005e-05
56 *2711:B *947:61 5.33005e-05
57 *2711:C *947:61 5.52302e-05
58 *2713:B1 *947:14 6.57032e-05
59 *2713:B1 *947:23 9.92409e-05
60 *2713:B1 *947:90 4.43256e-05
61 *2713:B1 *947:97 9.60939e-05
62 *2717:A1 *947:61 5.71472e-05
63 *2717:A2 *947:51 2.14658e-05
64 *2717:A2 *947:61 7.41239e-05
65 *2799:D *947:27 0.000106568
66 *2799:D *947:38 3.92854e-05
67 *474:10 *947:14 5.48083e-05
68 *675:30 *2464:B 2.14757e-05
69 *772:23 *2680:D 1.32511e-05
70 *772:23 *947:51 0
71 *774:29 *2456:B 0.000271357
72 *774:29 *947:97 0.000136951
73 *775:8 *947:14 0.000144773
74 *868:35 *947:38 0
75 *868:35 *947:51 0
76 *885:22 *947:51 5.52238e-05
77 *885:22 *947:61 5.71472e-05
78 *885:50 *2711:A 5.33005e-05
79 *885:50 *947:61 8.17274e-05
80 *888:24 *947:61 3.08283e-05
*RES
1 *3239:X *947:14 22.9607 
2 *947:14 *2455:A_N 9.72857 
3 *947:14 *947:23 1.76786 
4 *947:23 *947:27 7.66071 
5 *947:27 *2464:B 15.5679 
6 *947:27 *947:38 1.33929 
7 *947:38 *2679:B_N 13.8 
8 *947:38 *947:51 7.89286 
9 *947:51 *947:61 5.75 
10 *947:61 *2711:A 9.83571 
11 *947:61 *2441:C 20.7821 
12 *947:51 *2707:A_N 9.3 
13 *947:23 *947:90 1.375 
14 *947:90 *2397:B 9.3 
15 *947:90 *947:97 3 
16 *947:97 *947:99 4.5 
17 *947:99 *2465:B 15.0679 
18 *947:99 *2680:D 16.05 
19 *947:97 *2456:B 13.9607 
*END

*D_NET *948 0.00706709
*CONN
*I *2679:C I *D sky130_fd_sc_hd__and4bb_1
*I *2441:B I *D sky130_fd_sc_hd__or4b_4
*I *2464:A_N I *D sky130_fd_sc_hd__and4b_1
*I *2455:B I *D sky130_fd_sc_hd__nand2b_1
*I *2402:B I *D sky130_fd_sc_hd__or3b_1
*I *2456:C_N I *D sky130_fd_sc_hd__or4bb_1
*I *2465:A_N I *D sky130_fd_sc_hd__nand4b_2
*I *2445:A_N I *D sky130_fd_sc_hd__nand3b_1
*I *2444:A_N I *D sky130_fd_sc_hd__and3b_2
*I *2397:A_N I *D sky130_fd_sc_hd__and2b_1
*I *3240:X O *D sky130_fd_sc_hd__clkbuf_2
*CAP
1 *2679:C 0
2 *2441:B 0.000330282
3 *2464:A_N 0
4 *2455:B 0
5 *2402:B 0.000144879
6 *2456:C_N 0
7 *2465:A_N 0
8 *2445:A_N 5.06143e-05
9 *2444:A_N 0
10 *2397:A_N 0
11 *3240:X 5.91977e-05
12 *948:94 0.000485596
13 *948:81 0.000307273
14 *948:58 0.000308216
15 *948:49 0.000232065
16 *948:33 0.000336746
17 *948:25 0.000574139
18 *948:16 0.000294542
19 *948:12 8.33406e-05
20 *948:8 0.000219235
21 *2402:B *2402:A 3.68165e-05
22 *2441:B *949:55 8.41716e-05
23 *2441:B *950:77 0.000181796
24 *2445:A_N *2445:C 1.3701e-05
25 *2445:A_N *949:17 9.41642e-05
26 *2445:A_N *950:101 3.97677e-05
27 *948:33 *2462:A_N 7.02999e-05
28 *948:33 *949:17 8.86413e-05
29 *948:33 *949:19 5.72222e-05
30 *948:33 *950:94 9.01666e-05
31 *948:33 *950:101 0.000185794
32 *948:58 *2402:A 5.49544e-05
33 *948:94 *953:18 0
34 *2403:A *948:58 4.88546e-05
35 *2441:C *2441:B 5.33005e-05
36 *2455:A_N *948:16 6.46334e-06
37 *2456:A *948:58 5.52302e-05
38 *2456:B *948:58 2.28598e-05
39 *2464:D *948:25 8.07313e-05
40 *2465:B *948:33 2.84398e-05
41 *2465:D *948:25 0
42 *2680:C *948:8 0.000122689
43 *2680:C *948:81 0.000167626
44 *2680:D *948:33 8.11454e-05
45 *2691:B *948:81 2.0953e-05
46 *2691:B *948:94 3.43988e-06
47 *2695:A *948:81 7.01154e-05
48 *2695:A *948:94 3.10819e-05
49 *2695:C *2441:B 9.91086e-05
50 *2695:C *948:94 9.8958e-05
51 *2709:C *948:33 9.91086e-05
52 *2710:A *948:94 9.41642e-05
53 *2710:D_N *948:33 3.43708e-05
54 *474:10 *948:12 6.48387e-06
55 *474:10 *948:16 0.000208309
56 *474:10 *948:25 0.000214198
57 *510:14 *948:81 1.90936e-05
58 *511:16 *948:49 9.71197e-05
59 *772:23 *948:33 0
60 *774:29 *948:25 0.000105637
61 *774:29 *948:49 0.000200722
62 *774:29 *948:58 0.00010946
63 *868:35 *2441:B 9.91086e-05
64 *947:14 *948:8 0.000122689
65 *947:14 *948:12 2.57619e-05
66 *947:14 *948:16 3.32839e-05
67 *947:14 *948:81 2.31791e-05
68 *947:23 *948:16 7.17235e-05
69 *947:23 *948:25 3.18676e-05
70 *947:90 *948:25 4.58976e-05
71 *947:97 *948:25 1.02936e-05
*RES
1 *3240:X *948:8 15.4429 
2 *948:8 *948:12 4.75893 
3 *948:12 *948:16 2.47321 
4 *948:16 *2397:A_N 9.3 
5 *948:16 *948:25 5.48214 
6 *948:25 *948:33 16.2679 
7 *948:33 *2444:A_N 9.3 
8 *948:33 *2445:A_N 10.675 
9 *948:25 *948:49 2.17857 
10 *948:49 *2465:A_N 9.3 
11 *948:49 *948:58 3.83929 
12 *948:58 *2456:C_N 9.3 
13 *948:58 *2402:B 11.3893 
14 *948:12 *2455:B 9.3 
15 *948:8 *948:81 3.39286 
16 *948:81 *2464:A_N 13.8 
17 *948:81 *948:94 7.39286 
18 *948:94 *2441:B 23.4607 
19 *948:94 *2679:C 9.3 
*END

*D_NET *949 0.00966791
*CONN
*I *2444:B I *D sky130_fd_sc_hd__and3b_2
*I *2679:D I *D sky130_fd_sc_hd__and4bb_1
*I *2696:B I *D sky130_fd_sc_hd__or3_1
*I *2702:C I *D sky130_fd_sc_hd__or4_1
*I *2443:B I *D sky130_fd_sc_hd__nand2_1
*I *2398:B I *D sky130_fd_sc_hd__or3b_2
*I *2441:A I *D sky130_fd_sc_hd__or4b_4
*I *2680:B I *D sky130_fd_sc_hd__or4_4
*I *2462:A_N I *D sky130_fd_sc_hd__and3b_1
*I *2445:B I *D sky130_fd_sc_hd__nand3b_1
*I *3241:X O *D sky130_fd_sc_hd__clkbuf_2
*CAP
1 *2444:B 0
2 *2679:D 0
3 *2696:B 0
4 *2702:C 0
5 *2443:B 0.000460838
6 *2398:B 0
7 *2441:A 0
8 *2680:B 4.16687e-05
9 *2462:A_N 0.000351618
10 *2445:B 0
11 *3241:X 5.47904e-05
12 *949:80 0.000728776
13 *949:74 0.000495893
14 *949:68 0.00055948
15 *949:55 0.00041572
16 *949:53 0.000471232
17 *949:43 0.000408587
18 *949:19 0.000491459
19 *949:17 0.000242294
20 *949:6 0.000177363
21 *2443:B *2443:A 0
22 *2443:B *2801:RESET_B 0
23 *2443:B *950:37 2.21885e-05
24 *2462:A_N *951:21 0
25 *2680:B *951:34 2.89016e-05
26 *949:6 *950:116 4.87854e-05
27 *949:17 *2445:C 1.04232e-05
28 *949:17 *950:101 1.21258e-05
29 *949:17 *950:116 1.39841e-05
30 *949:53 *950:77 0.000266473
31 *949:53 *950:94 0.000180413
32 *949:55 *950:77 0.00014285
33 *949:74 *2702:B 1.02504e-05
34 *949:74 *2705:A1 9.54798e-06
35 *949:74 *1001:8 6.76116e-05
36 *949:80 *2699:A1 0
37 *949:80 *2705:A1 5.42764e-05
38 *2398:C_N *2443:B 7.69776e-06
39 *2441:B *949:55 8.41716e-05
40 *2441:C *949:55 5.52302e-05
41 *2445:A_N *949:17 9.41642e-05
42 *2462:B *2462:A_N 5.52302e-05
43 *2697:B *2443:B 2.72455e-05
44 *2698:B1 *949:74 0.00018372
45 *2699:A2 *2443:B 0.00016641
46 *2699:A2 *949:80 8.29104e-05
47 *2699:B1 *949:80 2.11419e-05
48 *2700:A *949:80 1.32178e-05
49 *2709:C *949:19 0.000146474
50 *2709:C *949:43 4.49293e-05
51 *2710:A *949:53 0.000362611
52 *2710:A *949:55 0.000397924
53 *2710:A *949:68 0.000101625
54 *2710:D_N *949:6 6.57914e-05
55 *2710:D_N *949:17 0.000347181
56 *2710:D_N *949:53 0.000145333
57 *2712:A *949:80 4.61009e-05
58 *2712:D_N *949:68 0.000125547
59 *2712:D_N *949:74 9.90367e-05
60 *2713:A1 *2443:B 0
61 *2714:A2 *2443:B 0
62 *2764:A1 *2462:A_N 0
63 *2764:A1 *949:19 0
64 *2800:D *949:80 3.07101e-05
65 *475:10 *949:74 0
66 *475:10 *949:80 0
67 *502:10 *2443:B 0.000316281
68 *502:44 *2443:B 9.90367e-05
69 *511:16 *2462:A_N 0.000161693
70 *672:8 *949:19 6.95627e-05
71 *672:26 *949:19 0.000173357
72 *672:26 *949:43 5.41794e-05
73 *690:26 *949:80 5.7903e-06
74 *691:8 *949:68 4.27437e-05
75 *774:29 *2462:A_N 0
76 *776:31 *2462:A_N 5.71472e-05
77 *948:33 *2462:A_N 7.02999e-05
78 *948:33 *949:17 8.86413e-05
79 *948:33 *949:19 5.72222e-05
*RES
1 *3241:X *949:6 10.6571 
2 *949:6 *2445:B 9.3 
3 *949:6 *949:17 8.33929 
4 *949:17 *949:19 3.46429 
5 *949:19 *2462:A_N 20.5321 
6 *949:19 *2680:B 14.3357 
7 *949:17 *949:43 5.23214 
8 *949:43 *949:53 9.03571 
9 *949:53 *949:55 3.82143 
10 *949:55 *2441:A 9.3 
11 *949:55 *949:68 5.21429 
12 *949:68 *949:74 8.125 
13 *949:74 *949:80 9.10714 
14 *949:80 *2398:B 9.3 
15 *949:80 *2443:B 26.7821 
16 *949:74 *2702:C 13.8 
17 *949:68 *2696:B 9.3 
18 *949:53 *2679:D 9.3 
19 *949:43 *2444:B 9.3 
*END

*D_NET *950 0.01041
*CONN
*I *2402:A I *D sky130_fd_sc_hd__or3b_1
*I *2456:D_N I *D sky130_fd_sc_hd__or4bb_1
*I *2445:C I *D sky130_fd_sc_hd__nand3b_1
*I *2444:C I *D sky130_fd_sc_hd__and3b_2
*I *2679:A_N I *D sky130_fd_sc_hd__and4bb_1
*I *2441:D_N I *D sky130_fd_sc_hd__or4b_4
*I *2696:A I *D sky130_fd_sc_hd__or3_1
*I *2398:A I *D sky130_fd_sc_hd__or3b_2
*I *2443:A I *D sky130_fd_sc_hd__nand2_1
*I *2702:B I *D sky130_fd_sc_hd__or4_1
*I *3242:X O *D sky130_fd_sc_hd__clkbuf_2
*CAP
1 *2402:A 0.000104183
2 *2456:D_N 0
3 *2445:C 2.9759e-05
4 *2444:C 0
5 *2679:A_N 0
6 *2441:D_N 0
7 *2696:A 0
8 *2398:A 0
9 *2443:A 0.000284747
10 *2702:B 0.000124062
11 *3242:X 1.99379e-05
12 *950:116 0.000392149
13 *950:101 0.000553177
14 *950:94 0.000751465
15 *950:77 0.000655595
16 *950:70 0.000457567
17 *950:37 0.000626772
18 *950:27 0.000367655
19 *950:23 0.000538018
20 *950:6 0.000338403
21 *2402:A *1033:14 2.89114e-05
22 *2443:A *2799:RESET_B 2.00751e-05
23 *2702:B *1001:8 6.12163e-05
24 *950:37 *2705:A1 1.49712e-05
25 *950:37 *2799:RESET_B 0.000139907
26 *950:37 *1001:8 2.83284e-06
27 *950:70 *953:18 9.60337e-06
28 *2402:B *2402:A 3.68165e-05
29 *2403:A *2402:A 0.000240678
30 *2441:B *950:77 0.000181796
31 *2443:B *2443:A 0
32 *2443:B *950:37 2.21885e-05
33 *2445:A_N *2445:C 1.3701e-05
34 *2445:A_N *950:101 3.97677e-05
35 *2686:A1 *950:116 0.000123288
36 *2688:A *950:116 7.6644e-05
37 *2695:C *950:70 4.19624e-06
38 *2696:C *950:27 9.25014e-06
39 *2699:A2 *950:37 2.14658e-05
40 *2699:A3 *950:37 4.19624e-06
41 *2700:A *950:37 0.00032097
42 *2704:C1 *950:23 4.60858e-05
43 *2710:A *950:94 2.59355e-05
44 *2710:B *950:94 4.46186e-06
45 *2710:C *950:94 5.66157e-05
46 *2710:D_N *950:94 3.30237e-05
47 *2712:A *950:37 2.24164e-05
48 *2712:C *950:23 9.84994e-05
49 *2712:C *950:27 4.18834e-05
50 *2712:C *950:37 6.31717e-05
51 *2712:D_N *950:23 7.69776e-06
52 *2712:D_N *950:27 1.33776e-05
53 *2713:A3 *950:37 2.14757e-05
54 *2764:A1 *950:116 7.22497e-05
55 *2777:A1 *950:6 5.33334e-05
56 *2777:A1 *950:23 0.000187892
57 *2777:B1 *950:6 9.90367e-05
58 *2777:B1 *950:23 0.000350977
59 *2778:A2 *950:70 0.00038814
60 *2799:D *950:94 1.02504e-05
61 *2800:CLK *2443:A 0.000364617
62 *2800:D *2443:A 0.000145154
63 *2800:D *950:37 1.08359e-05
64 *3241:A *950:116 8.31523e-05
65 *3242:A *2702:B 0
66 *475:10 *2443:A 0
67 *475:25 *2702:B 0
68 *502:10 *2443:A 0
69 *502:10 *950:37 4.46186e-06
70 *672:34 *950:23 6.8646e-06
71 *690:26 *950:37 0.000116705
72 *691:8 *950:37 0.000137983
73 *772:23 *950:94 0
74 *774:55 *950:116 2.8266e-06
75 *868:39 *950:70 0.000246263
76 *885:50 *950:23 1.98839e-05
77 *947:38 *950:94 1.00375e-05
78 *947:51 *950:94 3.25247e-05
79 *948:33 *950:94 9.01666e-05
80 *948:33 *950:101 0.000185794
81 *948:58 *2402:A 5.49544e-05
82 *949:6 *950:116 4.87854e-05
83 *949:17 *2445:C 1.04232e-05
84 *949:17 *950:101 1.21258e-05
85 *949:17 *950:116 1.39841e-05
86 *949:53 *950:77 0.000266473
87 *949:53 *950:94 0.000180413
88 *949:55 *950:77 0.00014285
89 *949:74 *2702:B 1.02504e-05
*RES
1 *3242:X *950:6 10.2464 
2 *950:6 *2702:B 20.2464 
3 *950:6 *950:23 10.3125 
4 *950:23 *950:27 5.08036 
5 *950:27 *950:37 16.6964 
6 *950:37 *2443:A 25.05 
7 *950:37 *2398:A 9.3 
8 *950:27 *2696:A 9.3 
9 *950:23 *950:70 12.7248 
10 *950:70 *2441:D_N 9.3 
11 *950:70 *950:77 3.82143 
12 *950:77 *2679:A_N 9.3 
13 *950:77 *950:94 16.6205 
14 *950:94 *2444:C 9.3 
15 *950:94 *950:101 3.04018 
16 *950:101 *2445:C 10.0321 
17 *950:101 *950:116 14.7321 
18 *950:116 *2456:D_N 9.3 
19 *950:116 *2402:A 12.8714 
*END

*D_NET *951 0.00548344
*CONN
*I *2464:C I *D sky130_fd_sc_hd__and4b_1
*I *2694:B I *D sky130_fd_sc_hd__nand2_1
*I *2680:A I *D sky130_fd_sc_hd__or4_4
*I *2465:C I *D sky130_fd_sc_hd__nand4b_2
*I *2462:C I *D sky130_fd_sc_hd__and3b_1
*I *3243:X O *D sky130_fd_sc_hd__buf_1
*CAP
1 *2464:C 0.000320585
2 *2694:B 0.000285699
3 *2680:A 0
4 *2465:C 0
5 *2462:C 0.000340609
6 *3243:X 0.000282104
7 *951:34 0.000364052
8 *951:30 0.000475829
9 *951:21 0.000211695
10 *951:8 0.000757517
11 *2462:A_N *951:21 0
12 *2465:B *951:21 1.02504e-05
13 *2465:B *951:30 5.58941e-05
14 *2680:B *951:34 2.89016e-05
15 *2680:C *951:34 0.000117552
16 *2680:D *951:30 0.000133776
17 *2691:B *2464:C 2.22043e-05
18 *2691:B *951:8 0.000201277
19 *2764:A4 *2694:B 8.77729e-05
20 *2778:A2 *2464:C 0
21 *3193:A *2462:C 0
22 *672:8 *2694:B 1.28259e-05
23 *672:26 *2694:B 7.47622e-05
24 *672:103 *2694:B 4.34472e-05
25 *675:14 *2694:B 0.00034735
26 *675:30 *2694:B 9.46929e-05
27 *675:30 *951:34 0.000114587
28 *772:23 *951:21 0.000172375
29 *772:23 *951:30 0.000180944
30 *772:29 *2462:C 0.000121573
31 *772:29 *951:21 7.15521e-05
32 *776:31 *2462:C 0.00023327
33 *883:119 *2464:C 0.000289601
34 *885:22 *2694:B 2.49484e-05
35 *947:27 *2464:C 5.7903e-06
*RES
1 *3243:X *951:8 17.6214 
2 *951:8 *2462:C 20.2821 
3 *951:8 *951:21 3.16071 
4 *951:21 *2465:C 13.8 
5 *951:21 *951:30 2.55357 
6 *951:30 *951:34 6.67857 
7 *951:34 *2680:A 9.3 
8 *951:34 *2694:B 25.3536 
9 *951:30 *2464:C 21.7365 
*END

*D_NET *952 0.0130999
*CONN
*I *3101:RESET_B I *D sky130_fd_sc_hd__dfrtp_1
*I *3102:RESET_B I *D sky130_fd_sc_hd__dfrtp_1
*I *3103:RESET_B I *D sky130_fd_sc_hd__dfrtp_1
*I *3109:RESET_B I *D sky130_fd_sc_hd__dfrtp_1
*I *3108:RESET_B I *D sky130_fd_sc_hd__dfrtp_1
*I *3110:RESET_B I *D sky130_fd_sc_hd__dfrtp_1
*I *2799:RESET_B I *D sky130_fd_sc_hd__dfrtp_1
*I *2798:RESET_B I *D sky130_fd_sc_hd__dfrtp_1
*I *3111:RESET_B I *D sky130_fd_sc_hd__dfrtp_1
*I *3104:RESET_B I *D sky130_fd_sc_hd__dfrtp_1
*I *3244:X O *D sky130_fd_sc_hd__clkbuf_4
*CAP
1 *3101:RESET_B 0
2 *3102:RESET_B 6.85987e-05
3 *3103:RESET_B 0
4 *3109:RESET_B 6.66793e-05
5 *3108:RESET_B 0
6 *3110:RESET_B 0
7 *2799:RESET_B 0.00155467
8 *2798:RESET_B 5.60818e-06
9 *3111:RESET_B 4.94889e-05
10 *3104:RESET_B 2.80259e-05
11 *3244:X 0.0001546
12 *952:56 0.002497
13 *952:42 0.00116348
14 *952:38 0.000261675
15 *952:36 0.00021804
16 *952:34 0.000480105
17 *952:28 0.000418019
18 *952:18 0.000334931
19 *952:12 0.00040583
20 *952:10 0.000323154
21 *2799:RESET_B *2800:RESET_B 2.51837e-05
22 *2799:RESET_B *2801:RESET_B 5.7661e-06
23 *2799:RESET_B *953:18 8.70693e-05
24 *952:10 *987:16 7.15962e-05
25 *2398:C_N *2799:RESET_B 3.51393e-05
26 *2443:A *2799:RESET_B 2.00751e-05
27 *2462:B *2799:RESET_B 0
28 *2681:A0 *952:56 0.000437762
29 *2691:B *2799:RESET_B 0.000285759
30 *2700:A *2799:RESET_B 8.57535e-05
31 *2700:B *2799:RESET_B 1.72894e-05
32 *2700:C_N *2799:RESET_B 0.00010096
33 *2701:B1 *2798:RESET_B 1.52723e-05
34 *2701:B1 *2799:RESET_B 3.88139e-05
35 *2701:B1 *952:56 5.98948e-06
36 *2798:D *952:56 7.51525e-05
37 *2799:D *2799:RESET_B 0.000353086
38 *2800:D *2799:RESET_B 4.70092e-05
39 *3102:D *3102:RESET_B 9.84792e-05
40 *3104:D *3104:RESET_B 2.51837e-05
41 *3104:D *952:18 9.31893e-05
42 *3104:D *952:28 0
43 *3104:D *952:34 0
44 *3157:A *952:12 5.43587e-05
45 *3157:A *952:18 6.19181e-05
46 *3157:A *952:28 0
47 *3157:A *952:34 0
48 *3157:A *952:36 0
49 *3157:A *952:38 0
50 *3157:A *952:42 0
51 *3185:A *952:56 0.00014285
52 *3235:A *952:34 0.000128154
53 *3239:A *2799:RESET_B 7.77652e-05
54 *3243:A *2799:RESET_B 6.0038e-05
55 *383:12 *952:12 0
56 *383:12 *952:18 0
57 *383:12 *952:28 8.77116e-05
58 *383:12 *952:34 0.000228861
59 *383:12 *952:36 0.00012798
60 *383:12 *952:38 7.4826e-05
61 *383:12 *952:42 0.00013121
62 *475:10 *2799:RESET_B 0.000356028
63 *502:10 *2799:RESET_B 7.71205e-05
64 *771:14 *952:56 0.00091869
65 *771:24 *3111:RESET_B 4.73514e-05
66 *771:24 *952:56 0.000143635
67 *775:8 *2799:RESET_B 4.51641e-05
68 *782:10 *952:10 0
69 *782:10 *952:12 0
70 *783:8 *3102:RESET_B 5.52238e-05
71 *801:64 *952:10 0
72 *801:76 *952:10 0.000186669
73 *950:37 *2799:RESET_B 0.000139907
*RES
1 *3244:X *952:10 17.5143 
2 *952:10 *952:12 3.16071 
3 *952:12 *952:18 7.91071 
4 *952:18 *3104:RESET_B 0.473214 
5 *952:18 *952:28 7.66071 
6 *952:28 *952:34 7.46429 
7 *952:34 *952:36 3.16071 
8 *952:36 *952:38 1.94643 
9 *952:38 *952:42 7.96429 
10 *952:42 *3111:RESET_B 0.883929 
11 *952:42 *952:56 19.1786 
12 *952:56 *2798:RESET_B 0.473214 
13 *952:56 *2799:RESET_B 46.5446 
14 *952:38 *3110:RESET_B 4.5 
15 *952:36 *3108:RESET_B 4.5 
16 *952:34 *3109:RESET_B 5.38393 
17 *952:28 *3103:RESET_B 4.5 
18 *952:12 *3102:RESET_B 6.20536 
19 *952:10 *3101:RESET_B 4.5 
*END

*D_NET *953 0.0145004
*CONN
*I *2802:RESET_B I *D sky130_fd_sc_hd__dfrtp_1
*I *2804:RESET_B I *D sky130_fd_sc_hd__dfrtp_1
*I *2803:RESET_B I *D sky130_fd_sc_hd__dfrtp_1
*I *3105:RESET_B I *D sky130_fd_sc_hd__dfrtp_1
*I *3107:RESET_B I *D sky130_fd_sc_hd__dfrtp_1
*I *3106:RESET_B I *D sky130_fd_sc_hd__dfrtp_1
*I *2805:RESET_B I *D sky130_fd_sc_hd__dfrtp_1
*I *2801:RESET_B I *D sky130_fd_sc_hd__dfrtp_1
*I *2800:RESET_B I *D sky130_fd_sc_hd__dfrtp_1
*I *3245:X O *D sky130_fd_sc_hd__clkbuf_4
*CAP
1 *2802:RESET_B 0
2 *2804:RESET_B 0.000265299
3 *2803:RESET_B 1.6366e-05
4 *3105:RESET_B 0.000322418
5 *3107:RESET_B 5.93722e-05
6 *3106:RESET_B 6.9984e-05
7 *2805:RESET_B 3.49756e-05
8 *2801:RESET_B 0.000214137
9 *2800:RESET_B 2.2632e-05
10 *3245:X 0.000231591
11 *953:104 0.000544241
12 *953:76 0.000428321
13 *953:64 0.00123041
14 *953:56 0.00166631
15 *953:42 0.00078792
16 *953:18 0.00105874
17 *953:12 0.00155259
18 *953:10 0.000499103
19 *2801:RESET_B *995:12 0.000114131
20 *3105:RESET_B *972:10 0.000642413
21 *3106:RESET_B *965:33 2.60291e-05
22 *3106:RESET_B *972:10 4.50033e-05
23 *953:10 *979:16 3.25247e-05
24 *953:10 *995:12 4.66203e-05
25 *953:12 *979:16 7.76647e-05
26 *953:12 *995:12 0.000245935
27 *953:18 *995:12 0.000397412
28 *953:42 *979:16 4.35421e-05
29 *953:76 *972:10 7.74281e-05
30 *2441:C *953:18 0.000137336
31 *2443:B *2801:RESET_B 0
32 *2680:C *953:18 0
33 *2695:A *953:18 6.85411e-05
34 *2695:C *953:18 0
35 *2709:C *953:64 6.57026e-05
36 *2709:C *953:104 0.000132297
37 *2711:C *953:18 7.60258e-05
38 *2718:C1 *953:18 0.000125731
39 *2719:B2 *953:12 0.000160422
40 *2721:A0 *953:12 4.33002e-05
41 *2721:S *953:12 2.44286e-05
42 *2724:B1 *953:12 0.000165072
43 *2726:A1 *2804:RESET_B 0
44 *2726:A1 *953:104 0
45 *2732:A2 *2803:RESET_B 4.96254e-05
46 *2733:B2 *2803:RESET_B 9.42929e-05
47 *2733:B2 *953:104 0
48 *2766:A1 *3105:RESET_B 0.000176027
49 *2768:B1 *3107:RESET_B 0.00017411
50 *2769:B *3107:RESET_B 4.18073e-05
51 *2772:B1 *3105:RESET_B 9.24395e-05
52 *2772:B1 *3106:RESET_B 2.05413e-05
53 *2772:B1 *953:76 4.00485e-05
54 *2775:B2 *3105:RESET_B 9.47456e-05
55 *2799:RESET_B *2800:RESET_B 2.51837e-05
56 *2799:RESET_B *2801:RESET_B 5.7661e-06
57 *2799:RESET_B *953:18 8.70693e-05
58 *2801:D *953:18 0.000121418
59 *2804:D *2804:RESET_B 1.02504e-05
60 *2805:D *953:42 5.71472e-05
61 *3105:D *3105:RESET_B 9.23592e-05
62 *3250:A *953:104 3.39982e-05
63 *474:10 *953:18 9.2539e-06
64 *772:29 *2801:RESET_B 4.73514e-05
65 *775:8 *953:18 5.33005e-05
66 *786:21 *2804:RESET_B 0.000133819
67 *786:25 *2804:RESET_B 5.58875e-06
68 *786:25 *953:104 0.000169457
69 *786:44 *953:104 6.8646e-06
70 *787:30 *953:56 5.91306e-05
71 *788:49 *953:104 1.0562e-05
72 *794:14 *3105:RESET_B 0.00010377
73 *868:14 *953:56 0
74 *868:14 *953:64 2.06413e-05
75 *868:14 *953:104 6.98762e-05
76 *881:97 *953:10 0.000271352
77 *885:50 *953:18 6.28248e-05
78 *888:16 *953:18 2.6949e-05
79 *888:59 *953:12 0.000246064
80 *888:59 *953:18 0.000225191
81 *947:14 *953:18 0
82 *948:94 *953:18 0
83 *950:70 *953:18 9.60337e-06
*RES
1 *3245:X *953:10 17.7286 
2 *953:10 *953:12 8.625 
3 *953:12 *953:18 22.4821 
4 *953:18 *2800:RESET_B 0.473214 
5 *953:18 *2801:RESET_B 13.1696 
6 *953:12 *953:42 9.96429 
7 *953:42 *2805:RESET_B 0.901786 
8 *953:42 *953:56 8.44643 
9 *953:56 *953:64 9.7688 
10 *953:64 *3106:RESET_B 5.96429 
11 *953:64 *953:76 1.1875 
12 *953:76 *3107:RESET_B 6.20536 
13 *953:76 *3105:RESET_B 15.0625 
14 *953:56 *953:104 6.48214 
15 *953:104 *2803:RESET_B 5.38393 
16 *953:104 *2804:RESET_B 9.66964 
17 *953:10 *2802:RESET_B 4.5 
*END

*D_NET *954 0.00159364
*CONN
*I *2775:A1 I *D sky130_fd_sc_hd__a22o_1
*I *3246:X O *D sky130_fd_sc_hd__dlygate4sd3_1
*CAP
1 *2775:A1 0.000499701
2 *3246:X 0.000499701
3 *2775:A1 *1007:22 5.99947e-05
4 *2765:B *2775:A1 8.25843e-06
5 *2766:C1 *2775:A1 0.000186317
6 *2773:B *2775:A1 7.83659e-05
7 *2775:B1 *2775:A1 0.000104494
8 *3289:A *2775:A1 5.52238e-05
9 *505:44 *2775:A1 0.000101586
*RES
1 *3246:X *2775:A1 35.9571 
*END

*D_NET *955 0.000801511
*CONN
*I *2762:A1 I *D sky130_fd_sc_hd__a22o_1
*I *3247:X O *D sky130_fd_sc_hd__dlygate4sd3_1
*CAP
1 *2762:A1 0.000236168
2 *3247:X 0.000236168
3 *2762:A2 *2762:A1 3.18676e-05
4 *2762:B2 *2762:A1 0
5 *3104:D *2762:A1 5.30637e-06
6 *3157:A *2762:A1 0.000292
7 *801:42 *2762:A1 0
8 *801:53 *2762:A1 0
*RES
1 *3247:X *2762:A1 32.725 
*END

*D_NET *956 0.000740357
*CONN
*I *2757:A1 I *D sky130_fd_sc_hd__a22o_1
*I *3248:X O *D sky130_fd_sc_hd__dlygate4sd3_1
*CAP
1 *2757:A1 0.00013283
2 *3248:X 0.00013283
3 *2752:A1 *2757:A1 1.17968e-05
4 *2757:B1 *2757:A1 0.000149911
5 *722:29 *2757:A1 0.0001399
6 *804:39 *2757:A1 0.00017309
*RES
1 *3248:X *2757:A1 31.2071 
*END

*D_NET *957 0.0139708
*CONN
*I *2749:A1 I *D sky130_fd_sc_hd__o21ai_1
*I *2754:A1 I *D sky130_fd_sc_hd__a21oi_1
*I *2753:A I *D sky130_fd_sc_hd__and3_1
*I *2750:A1 I *D sky130_fd_sc_hd__a21oi_1
*I *2745:A1 I *D sky130_fd_sc_hd__o22a_1
*I *2719:A1_N I *D sky130_fd_sc_hd__o2bb2a_1
*I *3270:X O *D sky130_fd_sc_hd__clkbuf_2
*CAP
1 *2749:A1 0
2 *2754:A1 0.000112843
3 *2753:A 0.000398182
4 *2750:A1 3.92359e-05
5 *2745:A1 4.05809e-05
6 *2719:A1_N 0.00069084
7 *3270:X 4.63915e-05
8 *957:78 0.000112843
9 *957:22 0.00099019
10 *957:20 0.000329676
11 *957:18 0.000462757
12 *957:16 0.00361106
13 *957:10 0.00362454
14 *2719:A1_N *2395:A 7.77751e-05
15 *2719:A1_N *3187:A 0.00043698
16 *2719:A1_N *3359:A 4.66189e-05
17 *2750:A1 *2722:A 5.52238e-05
18 *2753:A *2720:A1 0
19 *2753:A *3245:A 2.59355e-05
20 *2754:A1 *2754:A2 0.000137983
21 *2754:A1 *3245:A 2.77258e-05
22 *957:16 *2750:A2 1.02504e-05
23 *957:16 *962:20 7.22594e-05
24 *957:16 *974:10 6.39901e-05
25 *957:18 *2750:A2 6.53083e-05
26 *957:20 *2750:A2 6.35819e-05
27 *957:22 *2727:A2 4.2771e-05
28 *957:22 *2728:B 5.7903e-06
29 *957:22 *2750:A2 5.15925e-05
30 *957:22 *3359:A 5.01876e-06
31 *957:22 *974:14 0.00011189
32 *957:22 *974:22 9.60337e-06
33 rlast *957:16 0
34 rvalid *957:10 0
35 *2717:A1 *2719:A1_N 0.00012401
36 *2737:B2 *2719:A1_N 1.31839e-05
37 *2738:B1 *2719:A1_N 2.70944e-05
38 *2743:B1 *2719:A1_N 1.76039e-05
39 *2749:B1 *2753:A 0.000605491
40 *2750:B1 *2754:A1 0.000136958
41 *2750:B1 *957:18 5.41797e-06
42 *2750:B1 *957:20 2.80507e-05
43 *2750:B1 *957:22 2.43739e-05
44 *2755:A1 *2719:A1_N 6.8646e-06
45 *2755:A1 *957:22 6.607e-06
46 *2756:B1 *2719:A1_N 3.17148e-05
47 *2756:B1 *2745:A1 9.90367e-05
48 *2756:B1 *957:22 0.000128161
49 *2760:B1 *2753:A 4.00349e-05
50 *3114:A *957:16 0
51 *3270:A *957:10 8.00806e-05
52 *3283:A *957:16 0.000128146
53 *3329:A *957:16 8.08376e-05
54 *3329:A *957:18 2.00751e-05
55 *501:25 *2719:A1_N 0.000114893
56 *501:36 *2719:A1_N 2.89016e-05
57 *704:55 *2753:A 0.000353149
58 *730:12 *2753:A 5.33005e-05
59 *737:16 *2719:A1_N 0
60 *881:48 *2719:A1_N 4.73656e-05
*RES
1 *3270:X *957:10 19.3357 
2 *957:10 *957:16 48.0179 
3 *957:16 *957:18 0.883929 
4 *957:18 *957:20 0.883929 
5 *957:20 *957:22 5.58929 
6 *957:22 *2719:A1_N 37.5545 
7 *957:22 *2745:A1 14.7464 
8 *957:20 *2750:A1 14.3357 
9 *957:18 *2753:A 22.9361 
10 *957:16 *957:78 4.5 
11 *957:78 *2754:A1 11.9071 
12 *957:78 *2749:A1 9.3 
*END

*D_NET *958 0.00102329
*CONN
*I *2772:A1 I *D sky130_fd_sc_hd__o22a_1
*I *3249:X O *D sky130_fd_sc_hd__dlygate4sd3_1
*CAP
1 *2772:A1 0.000234427
2 *3249:X 0.000234427
3 *2772:A1 *965:33 0.000178847
4 *2771:A *2772:A1 2.28598e-05
5 *2772:B2 *2772:A1 5.52238e-05
6 *2773:B *2772:A1 9.01238e-05
7 *3249:A *2772:A1 3.18676e-05
8 *505:44 *2772:A1 0.000175519
*RES
1 *3249:X *2772:A1 33.3857 
*END

*D_NET *959 0.000317594
*CONN
*I *2738:A1 I *D sky130_fd_sc_hd__a22o_1
*I *3250:X O *D sky130_fd_sc_hd__dlygate4sd3_1
*CAP
1 *2738:A1 8.64103e-05
2 *3250:X 8.64103e-05
3 *2738:A2 *2738:A1 0.000144773
*RES
1 *3250:X *2738:A1 20.3679 
*END

*D_NET *960 0.000551165
*CONN
*I *2734:A0 I *D sky130_fd_sc_hd__mux2_1
*I *3251:X O *D sky130_fd_sc_hd__dlygate4sd3_1
*CAP
1 *2734:A0 0.000142346
2 *3251:X 0.000142346
3 *881:97 *2734:A0 0.000266473
*RES
1 *3251:X *2734:A0 21.1893 
*END

*D_NET *961 0.00125433
*CONN
*I *2726:A0 I *D sky130_fd_sc_hd__mux2_1
*I *3252:X O *D sky130_fd_sc_hd__dlygate4sd3_1
*CAP
1 *2726:A0 0.000257582
2 *3252:X 0.000257582
3 *2732:A1 *2726:A0 0.000178847
4 *2733:B2 *2726:A0 0.000319352
5 *2734:S *2726:A0 3.42927e-05
6 *3252:A *2726:A0 0.000140933
7 *674:6 *2726:A0 1.24368e-05
8 *701:59 *2726:A0 5.33005e-05
9 *788:49 *2726:A0 0
*RES
1 *3252:X *2726:A0 24.7964 
*END

*D_NET *962 0.00997155
*CONN
*I *2725:A1 I *D sky130_fd_sc_hd__a221o_1
*I *2753:B I *D sky130_fd_sc_hd__and3_1
*I *2749:A2 I *D sky130_fd_sc_hd__o21ai_1
*I *2754:A2 I *D sky130_fd_sc_hd__a21oi_1
*I *2750:A2 I *D sky130_fd_sc_hd__a21oi_1
*I *3271:X O *D sky130_fd_sc_hd__dlymetal6s2s_1
*CAP
1 *2725:A1 2.75662e-05
2 *2753:B 0
3 *2749:A2 0
4 *2754:A2 4.76933e-05
5 *2750:A2 0.000104898
6 *3271:X 0.000530791
7 *962:20 0.000174709
8 *962:16 0.000446218
9 *962:14 0.00164523
10 *962:6 0.00177948
11 *2750:A2 *2722:A 5.33005e-05
12 *2750:A2 *2728:B 1.92905e-05
13 *2750:A2 *974:10 0.000133753
14 *2750:A2 *974:14 2.95642e-05
15 *2754:A2 *3245:A 6.57032e-05
16 *962:6 *3360:A 0.000221667
17 *962:6 *3361:A 0.000142856
18 *962:6 *1007:22 5.52238e-05
19 *962:6 *1039:14 5.52302e-05
20 *962:14 *3245:A 1.5424e-05
21 *962:14 *963:22 0.00174524
22 *962:16 *3245:A 0.000511553
23 *962:20 *974:10 7.90803e-05
24 PSEL1 *962:6 4.33058e-05
25 rdata[13] *962:6 1.55885e-05
26 rdata[5] *962:6 7.47337e-05
27 *2725:A2 *962:6 0.000208569
28 *2725:A2 *962:14 0
29 *2725:B1 *2725:A1 5.57185e-05
30 *2725:B1 *962:6 9.42181e-05
31 *2726:A1 *962:6 5.33433e-05
32 *2726:A1 *962:14 3.92854e-05
33 *2754:A1 *2754:A2 0.000137983
34 *2766:B1 *962:6 0.00019243
35 *3282:A *962:6 0.000230482
36 *505:48 *962:6 0.000482786
37 *505:70 *962:6 9.92409e-05
38 *704:55 *962:14 6.74911e-05
39 *880:8 *962:6 2.89114e-05
40 *957:16 *2750:A2 1.02504e-05
41 *957:16 *962:20 7.22594e-05
42 *957:18 *2750:A2 6.53083e-05
43 *957:20 *2750:A2 6.35819e-05
44 *957:22 *2750:A2 5.15925e-05
*RES
1 *3271:X *962:6 27.0857 
2 *962:6 *962:14 27.6071 
3 *962:14 *962:16 5.875 
4 *962:16 *962:20 5.53571 
5 *962:20 *2750:A2 16.5857 
6 *962:20 *2754:A2 15.1571 
7 *962:16 *2749:A2 9.3 
8 *962:14 *2753:B 9.3 
9 *962:6 *2725:A1 10.2509 
*END

*D_NET *963 0.00773707
*CONN
*I *2733:A1 I *D sky130_fd_sc_hd__a221o_1
*I *2754:B1 I *D sky130_fd_sc_hd__a21oi_1
*I *2753:C I *D sky130_fd_sc_hd__and3_1
*I *3272:X O *D sky130_fd_sc_hd__buf_1
*CAP
1 *2733:A1 0.000233663
2 *2754:B1 0.000144166
3 *2753:C 1.48071e-06
4 *3272:X 0.000105853
5 *963:22 0.000695288
6 *963:6 0.000889157
7 *2753:C *3245:A 8.43068e-06
8 *2754:B1 *3245:A 0.0002398
9 *963:22 *3245:A 0.000856336
10 *963:22 *964:10 0
11 *963:22 *1001:8 0
12 *2729:B *2754:B1 5.33005e-05
13 *2733:B1 *2733:A1 0.000291745
14 *2734:S *963:22 5.52238e-05
15 *3272:A *2733:A1 3.34295e-05
16 *3272:A *963:6 0.000312209
17 *3324:A *2733:A1 0.000142167
18 *704:55 *963:22 0.000704608
19 *730:12 *2754:B1 9.09593e-05
20 *730:12 *963:22 5.5064e-06
21 *787:8 *2733:A1 1.00375e-05
22 *787:24 *2733:A1 0
23 *880:10 *2733:A1 0.000604917
24 *880:20 *2733:A1 9.25014e-06
25 *881:14 *2754:B1 6.27268e-06
26 *881:14 *963:22 8.41875e-06
27 *881:97 *963:6 1.51571e-05
28 *881:97 *963:22 0.000243969
29 *881:105 *963:6 0.000230482
30 *962:14 *963:22 0.00174524
*RES
1 *3272:X *963:6 12.7107 
2 *963:6 *963:22 30.7455 
3 *963:22 *2753:C 9.53661 
4 *963:22 *2754:B1 13.4473 
5 *963:6 *2733:A1 26.55 
*END

*D_NET *964 0.00364995
*CONN
*I *2760:A1 I *D sky130_fd_sc_hd__o21a_1
*I *2737:B1 I *D sky130_fd_sc_hd__a2bb2o_1
*I *2759:A I *D sky130_fd_sc_hd__nand2_1
*I *3273:X O *D sky130_fd_sc_hd__buf_1
*CAP
1 *2760:A1 0
2 *2737:B1 0
3 *2759:A 8.65882e-05
4 *3273:X 0.000718396
5 *964:20 0.000353554
6 *964:10 0.000985362
7 *964:10 *2736:A 0.000198592
8 *964:10 *3187:A 9.10431e-06
9 *964:10 *979:16 0.000142856
10 *964:10 *995:8 0.000142856
11 *964:10 *1001:8 0
12 *964:20 *3187:A 6.99144e-05
13 *964:20 *1001:8 0
14 *2447:A *964:20 0
15 *2447:B *2759:A 2.28598e-05
16 *2447:B *964:20 1.21289e-05
17 *2737:A2_N *964:20 0.000170955
18 *2737:B2 *2759:A 1.04232e-05
19 *2737:B2 *964:20 5.62995e-05
20 *2760:B1 *964:10 9.90115e-06
21 *2761:B1 *2759:A 2.61099e-05
22 *2761:B1 *964:20 5.13232e-05
23 *2761:B2 *964:20 8.49861e-06
24 *3288:A *964:10 0.000105163
25 *501:40 *2759:A 0.000137983
26 *506:8 *2759:A 4.43256e-05
27 *506:8 *964:20 0.00014285
28 *710:10 *964:20 0
29 *730:12 *964:10 0.000113038
30 *730:12 *964:20 1.02504e-05
31 *881:14 *964:10 2.06178e-05
32 *963:22 *964:10 0
*RES
1 *3273:X *964:10 28.1571 
2 *964:10 *964:20 11.5 
3 *964:20 *2759:A 11.925 
4 *964:20 *2737:B1 9.3 
5 *964:10 *2760:A1 13.8 
*END

*D_NET *965 0.0129303
*CONN
*I *2689:A I *D sky130_fd_sc_hd__nand2_1
*I *2393:A I *D sky130_fd_sc_hd__inv_2
*I *2715:B1 I *D sky130_fd_sc_hd__o2bb2a_1
*I *2703:A I *D sky130_fd_sc_hd__or3_1
*I *2463:A I *D sky130_fd_sc_hd__or2_1
*I *3274:X O *D sky130_fd_sc_hd__dlymetal6s2s_1
*CAP
1 *2689:A 0.000564856
2 *2393:A 0
3 *2715:B1 0
4 *2703:A 3.91014e-05
5 *2463:A 0
6 *3274:X 9.47717e-05
7 *965:41 0.00022367
8 *965:33 0.00261529
9 *965:12 0.00269794
10 *965:6 0.000926849
11 *2703:A *2395:A 0.000186662
12 *965:12 *3336:A 0.000384776
13 *965:12 *1007:22 0.000225314
14 *965:33 *1007:22 0.000524115
15 *965:33 *1031:55 0
16 *965:41 *2395:A 0.000225555
17 *965:41 *1001:8 0
18 *965:41 *1031:55 0.000175892
19 *2450:C *2689:A 5.33005e-05
20 *2453:A *2689:A 0.000193833
21 *2453:A *965:12 0
22 *2461:B *965:33 0
23 *2689:B *2689:A 0.00103051
24 *2715:A2_N *2703:A 1.98839e-05
25 *2717:A1 *965:33 0.000137689
26 *2717:A1 *965:41 7.43578e-06
27 *2735:A2 *965:33 2.95641e-05
28 *2743:C1 *965:33 4.18895e-05
29 *2743:C1 *965:41 0.000218685
30 *2772:A1 *965:33 0.000178847
31 *3106:RESET_B *965:33 2.60291e-05
32 *374:10 *965:12 1.00375e-05
33 *374:10 *965:33 8.49614e-05
34 *374:25 *965:33 5.0725e-05
35 *431:10 *965:12 5.49161e-05
36 *478:35 *965:6 7.32272e-05
37 *478:35 *965:12 7.48091e-05
38 *672:26 *2703:A 0.000229456
39 *675:10 *965:33 9.90367e-05
40 *701:18 *965:33 0.000136951
41 *701:44 *965:33 0.000863454
42 *766:27 *2689:A 0
43 *766:27 *965:12 0.000245335
44 *772:91 *965:33 0.000165161
45 *772:104 *965:33 1.97865e-05
*RES
1 *3274:X *965:6 11.0679 
2 *965:6 *965:12 13.2679 
3 *965:12 *2463:A 13.8 
4 *965:12 *965:33 40.9643 
5 *965:33 *965:41 13.7321 
6 *965:41 *2703:A 11.4786 
7 *965:41 *2715:B1 9.3 
8 *965:33 *2393:A 9.3 
9 *965:6 *2689:A 30.8357 
*END

*D_NET *966 0.000755578
*CONN
*I *2669:A1 I *D sky130_fd_sc_hd__mux2_1
*I *3275:X O *D sky130_fd_sc_hd__clkbuf_1
*CAP
1 *2669:A1 0.000281884
2 *3275:X 0.000281884
3 *2669:A1 *2661:A0 0
4 *2669:A1 *2668:A0 0
5 *2669:A1 *1038:12 8.07313e-05
6 *2668:A1 *2669:A1 0
7 *2669:S *2669:A1 6.09572e-05
8 *3164:A *2669:A1 5.01213e-05
*RES
1 *3275:X *2669:A1 32.4214 
*END

*D_NET *967 0.00123272
*CONN
*I *2766:B2 I *D sky130_fd_sc_hd__a221o_1
*I *3276:X O *D sky130_fd_sc_hd__clkbuf_1
*CAP
1 *2766:B2 0.00020724
2 *3276:X 0.00020724
3 *2766:B2 *3334:A 2.87517e-05
4 *2766:B2 *1009:22 0.000104974
5 PADDR[1] *2766:B2 0.000223592
6 *2766:A2 *2766:B2 5.94869e-05
7 *2766:B1 *2766:B2 1.02504e-05
8 *2766:C1 *2766:B2 4.44519e-05
9 *2774:A1 *2766:B2 6.39829e-05
10 *3358:A *2766:B2 1.38323e-05
11 *115:10 *2766:B2 0.000143188
12 *115:12 *2766:B2 0.000125724
*RES
1 *3276:X *2766:B2 34.3857 
*END

*D_NET *968 0.000915077
*CONN
*I *2674:A0 I *D sky130_fd_sc_hd__mux2_1
*I *3277:X O *D sky130_fd_sc_hd__clkbuf_1
*CAP
1 *2674:A0 0.000271943
2 *3277:X 0.000271943
3 PADDR[0] *2674:A0 2.56694e-05
4 *2461:B *2674:A0 8.00806e-05
5 *880:31 *2674:A0 0.000265441
*RES
1 *3277:X *2674:A0 31.6357 
*END

*D_NET *969 0.00125458
*CONN
*I *2774:B2 I *D sky130_fd_sc_hd__a221o_1
*I *3278:X O *D sky130_fd_sc_hd__clkbuf_1
*CAP
1 *2774:B2 0.000212575
2 *3278:X 0.000212575
3 *2766:A1 *2774:B2 3.04785e-05
4 *2774:A2 *2774:B2 1.46576e-05
5 *2775:B1 *2774:B2 1.39726e-05
6 *3272:A *2774:B2 0
7 *3278:A *2774:B2 9.90367e-05
8 *3358:A *2774:B2 9.66793e-05
9 *794:14 *2774:B2 0.000142856
10 *881:105 *2774:B2 0.000431747
*RES
1 *3278:X *2774:B2 25.2071 
*END

*D_NET *970 0.00830918
*CONN
*I *2675:A0 I *D sky130_fd_sc_hd__mux2_1
*I *3279:X O *D sky130_fd_sc_hd__buf_1
*CAP
1 *2675:A0 0.000333108
2 *3279:X 0.000136134
3 *970:10 0.00355484
4 *970:8 0.00335787
5 *2675:A0 *2678:A0 0.00044366
6 *970:10 *3345:A 0
7 *970:10 *3347:A 0
8 *970:10 *3350:A 0
9 *970:10 *3354:A 0
10 *970:10 *3355:A 0
11 *970:10 *1040:18 0
12 PWDATA[12] *970:10 1.99644e-05
13 PWDATA[13] *970:10 5.7836e-06
14 PWDATA[15] *970:10 3.91668e-05
15 PWDATA[3] *970:10 1.99737e-05
16 PWDATA[4] *970:10 5.7903e-06
17 PWDATA[6] *970:10 3.91575e-05
18 PWDATA[8] *970:10 0
19 rdata[11] *970:8 5.38072e-05
20 *2676:A1 *970:10 0
21 *2823:GATE_N *970:10 0
22 *2827:D *970:10 0
23 *3257:A *970:10 5.97254e-05
24 *3266:A *970:10 2.92126e-05
25 *3267:A *970:10 0.000101535
26 *3268:A *970:10 1.01912e-05
27 *3269:A *970:10 2.34423e-05
28 *3279:A *970:10 2.86754e-05
29 *3286:A *970:10 3.69406e-05
30 *3312:A *970:10 1.01912e-05
*RES
1 *3279:X *970:8 15.5679 
2 *970:8 *970:10 59.3214 
3 *970:10 *2675:A0 18.4429 
*END

*D_NET *971 0.0034824
*CONN
*I *2676:A0 I *D sky130_fd_sc_hd__mux2_1
*I *3280:X O *D sky130_fd_sc_hd__clkbuf_1
*CAP
1 *2676:A0 0.00055082
2 *3280:X 0.00055082
3 *2676:A0 *3338:A 0.000367157
4 *2676:A0 *973:12 0
5 PENABLE *2676:A0 0.000407396
6 PSEL2 *2676:A0 0.000156269
7 *2459:B *2676:A0 5.85558e-05
8 *2460:A *2676:A0 0.000150265
9 *2676:A1 *2676:A0 0.000107432
10 *2689:B *2676:A0 9.90367e-05
11 *3277:A *2676:A0 0.000105054
12 *3280:A *2676:A0 5.20383e-05
13 *880:37 *2676:A0 0.000618622
14 *880:43 *2676:A0 9.69119e-06
15 *880:82 *2676:A0 8.03061e-05
16 *880:102 *2676:A0 0.000168939
*RES
1 *3280:X *2676:A0 47.3679 
*END

*D_NET *972 0.00610406
*CONN
*I *2677:A0 I *D sky130_fd_sc_hd__mux2_1
*I *3281:X O *D sky130_fd_sc_hd__clkbuf_1
*CAP
1 *2677:A0 3.65657e-05
2 *3281:X 0.00145666
3 *972:10 0.00149322
4 *972:10 *3361:A 3.92854e-05
5 *972:10 *1033:20 0.000284556
6 *972:10 *1033:33 0.000103267
7 *972:10 *1033:60 0.000655281
8 *972:10 *1039:14 0
9 *2403:B *972:10 5.59013e-05
10 *2454:B *972:10 0.000151223
11 *2706:B *972:10 8.31411e-05
12 *2772:B1 *972:10 8.452e-05
13 *2839:GATE_N *972:10 0.000195412
14 *3105:CLK *972:10 5.53383e-05
15 *3105:RESET_B *972:10 0.000642413
16 *3106:RESET_B *972:10 4.50033e-05
17 *3107:D *972:10 0.000365667
18 *3278:A *972:10 2.89114e-05
19 *432:8 *972:10 0.000116481
20 *478:14 *972:10 7.6644e-05
21 *794:14 *972:10 0
22 *878:73 *2677:A0 5.71472e-05
23 *953:76 *972:10 7.74281e-05
*RES
1 *3281:X *972:10 49.3714 
2 *972:10 *2677:A0 14.3357 
*END

*D_NET *973 0.00742137
*CONN
*I *2678:A0 I *D sky130_fd_sc_hd__mux2_1
*I *3282:X O *D sky130_fd_sc_hd__clkbuf_1
*CAP
1 *2678:A0 0.000852959
2 *3282:X 0.0013203
3 *973:12 0.00217326
4 PENABLE *2678:A0 4.3564e-05
5 PENABLE *973:12 0.000109442
6 PSEL2 *2678:A0 0.000496369
7 PSEL3 *973:12 0.00045937
8 PWRITE *2678:A0 0.000130985
9 *2460:A *973:12 5.47743e-05
10 *2675:A0 *2678:A0 0.00044366
11 *2676:A0 *973:12 0
12 *2676:A1 *2678:A0 5.47743e-05
13 *2677:S *2678:A0 4.70048e-05
14 *2678:A1 *2678:A0 0.000313235
15 *3263:A *973:12 0.000127676
16 *3266:A *2678:A0 0.000249344
17 *3271:A *973:12 9.0145e-05
18 *3277:A *973:12 0.000101535
19 *3280:A *973:12 0.000174801
20 *3289:A *973:12 0
21 *880:43 *2678:A0 3.18676e-05
22 *880:52 *2678:A0 0.000146313
*RES
1 *3282:X *973:12 41.9696 
2 *973:12 *2678:A0 37.0946 
*END

*D_NET *974 0.00506286
*CONN
*I *2728:A I *D sky130_fd_sc_hd__and3_1
*I *2722:A I *D sky130_fd_sc_hd__xor2_1
*I *2720:A1 I *D sky130_fd_sc_hd__o21ai_1
*I *2727:A1 I *D sky130_fd_sc_hd__a21oi_1
*I *2746:A1 I *D sky130_fd_sc_hd__o21ai_1
*I *3283:X O *D sky130_fd_sc_hd__dlymetal6s2s_1
*CAP
1 *2728:A 0
2 *2722:A 0.000607774
3 *2720:A1 0.0006056
4 *2727:A1 0
5 *2746:A1 0.000113186
6 *3283:X 0.000216533
7 *974:53 0.000607774
8 *974:22 0.000252211
9 *974:14 0.000862006
10 *974:10 0.000333914
11 *2722:A *2728:B 3.07347e-05
12 *974:10 *2727:B1 1.59312e-05
13 *974:10 *976:12 0.000111291
14 *974:14 *2727:B1 0.000116908
15 *974:22 *2727:A2 1.02504e-05
16 *974:22 *3359:A 6.38844e-06
17 *2458:A *2722:A 0.00012773
18 *2720:A2 *2720:A1 2.11419e-05
19 *2737:A2_N *2720:A1 1.94879e-05
20 *2747:A1 *2722:A 6.05161e-06
21 *2749:B1 *2720:A1 0
22 *2749:B1 *974:10 4.46689e-05
23 *2750:A1 *2722:A 5.52238e-05
24 *2750:A2 *2722:A 5.33005e-05
25 *2750:A2 *974:10 0.000133753
26 *2750:A2 *974:14 2.95642e-05
27 *2750:B1 *2722:A 5.52238e-05
28 *2751:B1 *2722:A 2.05612e-05
29 *2751:C1 *2722:A 8.30591e-05
30 *2752:A1 *2746:A1 0
31 *2752:B1 *2746:A1 0
32 *2753:A *2720:A1 0
33 *2755:A1 *974:14 2.06178e-05
34 *3114:A *974:10 0
35 *3329:A *2722:A 5.52302e-05
36 *704:55 *2720:A1 0.00010593
37 *704:55 *974:22 4.06909e-05
38 *720:42 *2746:A1 3.55552e-05
39 *957:16 *974:10 6.39901e-05
40 *957:22 *974:14 0.00011189
41 *957:22 *974:22 9.60337e-06
42 *962:20 *974:10 7.90803e-05
*RES
1 *3283:X *974:10 19.1214 
2 *974:10 *974:14 6.7225 
3 *974:14 *974:22 8.52205 
4 *974:22 *2746:A1 11.5143 
5 *974:22 *2727:A1 9.3 
6 *974:14 *2720:A1 18.831 
7 *974:10 *974:53 4.5 
8 *974:53 *2722:A 19.8714 
9 *974:53 *2728:A 9.3 
*END

*D_NET *975 0.00852467
*CONN
*I *2722:B I *D sky130_fd_sc_hd__xor2_1
*I *2728:B I *D sky130_fd_sc_hd__and3_1
*I *2727:A2 I *D sky130_fd_sc_hd__a21oi_1
*I *3284:X O *D sky130_fd_sc_hd__clkbuf_1
*CAP
1 *2722:B 0
2 *2728:B 0.000266961
3 *2727:A2 5.64312e-05
4 *3284:X 0.00169725
5 *975:24 0.000808049
6 *975:16 0.000723759
7 *975:14 0.00193635
8 *2727:A2 *3359:A 0.00013795
9 *2728:B *2728:C 9.33978e-07
10 *2728:B *3359:A 1.1594e-05
11 *975:14 *987:16 0.00217658
12 *975:14 *988:16 3.92854e-05
13 *975:16 *987:16 9.69119e-06
14 *2458:A *975:16 5.80706e-06
15 *2458:A *975:24 1.41029e-05
16 *2458:B *975:14 7.03295e-05
17 *2722:A *2728:B 3.07347e-05
18 *2742:A *975:16 0
19 *2747:A1 *975:24 4.29471e-05
20 *2750:A2 *2728:B 1.92905e-05
21 *2750:B1 *2728:B 5.30637e-06
22 *2751:B2 *975:24 4.038e-06
23 *2751:C1 *975:24 4.28365e-05
24 *3331:A *975:14 0
25 *3332:A *975:16 0
26 *704:55 *975:16 1.66754e-05
27 *704:55 *975:24 0.000348945
28 *957:22 *2727:A2 4.2771e-05
29 *957:22 *2728:B 5.7903e-06
30 *974:22 *2727:A2 1.02504e-05
*RES
1 *3284:X *975:14 47.3714 
2 *975:14 *975:16 3.46429 
3 *975:16 *975:24 8.75986 
4 *975:24 *2727:A2 15.5946 
5 *975:24 *2728:B 17.2018 
6 *975:16 *2722:B 13.8 
*END

*D_NET *976 0.00233215
*CONN
*I *2728:C I *D sky130_fd_sc_hd__and3_1
*I *2727:B1 I *D sky130_fd_sc_hd__a21oi_1
*I *3285:X O *D sky130_fd_sc_hd__clkbuf_1
*CAP
1 *2728:C 1.98975e-05
2 *2727:B1 0.000246437
3 *3285:X 0.000485645
4 *976:12 0.000751979
5 *2728:B *2728:C 9.33978e-07
6 *2749:B1 *976:12 4.28365e-05
7 *2755:A1 *2727:B1 3.10885e-05
8 *2755:A3 *2727:B1 0.000240214
9 *2755:A3 *976:12 6.95716e-05
10 *2759:B *2727:B1 1.7606e-05
11 *3114:A *976:12 0
12 *3310:A *976:12 8.07313e-05
13 *720:42 *2727:B1 0.000101078
14 *974:10 *2727:B1 1.59312e-05
15 *974:10 *976:12 0.000111291
16 *974:14 *2727:B1 0.000116908
*RES
1 *3285:X *976:12 22.3357 
2 *976:12 *2727:B1 19.3357 
3 *976:12 *2728:C 13.9964 
*END

*D_NET *977 0.00230064
*CONN
*I *2670:A1 I *D sky130_fd_sc_hd__mux2_1
*I *3286:X O *D sky130_fd_sc_hd__clkbuf_1
*CAP
1 *2670:A1 0.000814749
2 *3286:X 0.000814749
3 *2586:B *2670:A1 0.000518638
4 *2649:A *2670:A1 4.27338e-05
5 *2649:B *2670:A1 0
6 *2654:B *2670:A1 7.83659e-05
7 *884:39 *2670:A1 3.14078e-05
*RES
1 *3286:X *2670:A1 38.2071 
*END

*D_NET *978 0.00182676
*CONN
*I *2736:A I *D sky130_fd_sc_hd__xnor2_1
*I *3287:X O *D sky130_fd_sc_hd__clkbuf_1
*CAP
1 *2736:A 0.000406743
2 *3287:X 0.000406743
3 *2736:A *3187:A 0.000146474
4 *2729:B *2736:A 7.43578e-06
5 *2760:B1 *2736:A 5.52238e-05
6 *2802:CLK *2736:A 4.0342e-06
7 *704:55 *2736:A 0.000294303
8 *730:24 *2736:A 0.000307207
9 *964:10 *2736:A 0.000198592
*RES
1 *3287:X *2736:A 37.5107 
*END

*D_NET *979 0.00477817
*CONN
*I *2690:A I *D sky130_fd_sc_hd__nand2_1
*I *2395:A I *D sky130_fd_sc_hd__inv_2
*I *3288:X O *D sky130_fd_sc_hd__buf_1
*CAP
1 *2690:A 0
2 *2395:A 0.000457842
3 *3288:X 0.000876247
4 *979:16 0.00133409
5 *2395:A *2690:B 9.60939e-05
6 *2395:A *1001:8 0
7 *979:16 *2690:B 5.16637e-05
8 *979:16 *995:12 0
9 *2703:A *2395:A 0.000186662
10 *2715:A2_N *2395:A 0.000129515
11 *2719:A1_N *2395:A 7.77751e-05
12 *2721:S *979:16 0.000194698
13 *2731:A *979:16 0
14 *2805:D *979:16 0
15 *3115:A *2395:A 1.55885e-05
16 *472:6 *2395:A 0.000144773
17 *501:25 *2395:A 0.000108917
18 *672:26 *2395:A 2.14757e-05
19 *679:14 *2395:A 0.00035785
20 *701:18 *979:16 0.000202842
21 *704:55 *979:16 0
22 *953:10 *979:16 3.25247e-05
23 *953:12 *979:16 7.76647e-05
24 *953:42 *979:16 4.35421e-05
25 *964:10 *979:16 0.000142856
26 *965:41 *2395:A 0.000225555
*RES
1 *3288:X *979:16 34.4429 
2 *979:16 *2395:A 30.7643 
3 *979:16 *2690:A 9.3 
*END

*D_NET *980 0.00421729
*CONN
*I *2694:A I *D sky130_fd_sc_hd__nand2_1
*I *2687:A I *D sky130_fd_sc_hd__nand2_1
*I *3289:X O *D sky130_fd_sc_hd__buf_1
*CAP
1 *2694:A 0.000112376
2 *2687:A 0.00010934
3 *3289:X 0.00057623
4 *980:10 0.000797946
5 *2687:A *1039:14 0.000217877
6 *980:10 *1039:14 0.000689061
7 *2688:A *2687:A 5.33005e-05
8 *2769:A *980:10 0.000158664
9 *2775:A2 *980:10 8.00806e-05
10 *3252:A *980:10 4.58194e-05
11 *503:36 *2694:A 0.000618483
12 *504:12 *2687:A 0
13 *504:12 *980:10 0
14 *677:8 *2687:A 5.52302e-05
15 *738:14 *2687:A 0.000136242
16 *880:20 *2694:A 0.0005338
17 *888:105 *980:10 6.8646e-06
18 *888:122 *980:10 2.59795e-05
*RES
1 *3289:X *980:10 24.9071 
2 *980:10 *2687:A 17.1929 
3 *980:10 *2694:A 19.675 
*END

*D_NET *981 0.00844941
*CONN
*I *3245:A I *D sky130_fd_sc_hd__clkbuf_4
*I *3244:A I *D sky130_fd_sc_hd__clkbuf_4
*I *3290:X O *D sky130_fd_sc_hd__buf_1
*CAP
1 *3245:A 0.000854226
2 *3244:A 0
3 *3290:X 0.000909338
4 *981:14 0.00176356
5 *3245:A *3187:A 5.33005e-05
6 *3245:A *987:16 1.21258e-05
7 *981:14 *2662:A0 0
8 wready *981:14 5.71472e-05
9 *2458:B *3245:A 0.000603233
10 *2662:A1 *981:14 0.000176196
11 *2750:B1 *3245:A 2.15245e-05
12 *2753:A *3245:A 2.59355e-05
13 *2753:C *3245:A 8.43068e-06
14 *2754:A1 *3245:A 2.77258e-05
15 *2754:A2 *3245:A 6.57032e-05
16 *2754:B1 *3245:A 0.0002398
17 *2755:A3 *3245:A 3.14179e-06
18 *3291:A *981:14 0
19 *3303:A *981:14 0
20 *3330:A *981:14 0.000182153
21 *3332:A *981:14 0.000493107
22 *471:14 *3245:A 0.00105408
23 *730:12 *3245:A 1.87175e-05
24 *801:76 *3245:A 5.52238e-05
25 *801:111 *981:14 5.83304e-05
26 *881:14 *3245:A 9.00354e-05
27 *881:42 *3245:A 5.33334e-05
28 *881:97 *3245:A 0.000239722
29 *962:14 *3245:A 1.5424e-05
30 *962:16 *3245:A 0.000511553
31 *963:22 *3245:A 0.000856336
*RES
1 *3290:X *981:14 36.6929 
2 *981:14 *3244:A 9.3 
3 *981:14 *3245:A 39.0857 
*END

*D_NET *982 0.00128216
*CONN
*I *2394:A I *D sky130_fd_sc_hd__inv_2
*I *3291:X O *D sky130_fd_sc_hd__clkbuf_1
*CAP
1 *2394:A 0.000363662
2 *3291:X 0.000363662
3 *2394:A *2662:A0 0.000399828
4 *3330:A *2394:A 0.000121573
5 *3332:A *2394:A 0
6 *801:111 *2394:A 3.34295e-05
*RES
1 *3291:X *2394:A 33.3679 
*END

*D_NET *983 0.000834785
*CONN
*I *2658:A0 I *D sky130_fd_sc_hd__mux2_1
*I *3292:X O *D sky130_fd_sc_hd__clkbuf_1
*CAP
1 *2658:A0 0.000246919
2 *3292:X 0.000246919
3 *2658:A0 *2665:A0 0.000186662
4 *2658:A0 *1038:12 2.14658e-05
5 *2658:S *2658:A0 7.80851e-06
6 *790:12 *2658:A0 0.00012501
*RES
1 *3292:X *2658:A0 31.725 
*END

*D_NET *984 0.000299412
*CONN
*I *2668:A0 I *D sky130_fd_sc_hd__mux2_1
*I *3293:X O *D sky130_fd_sc_hd__clkbuf_1
*CAP
1 *2668:A0 8.68437e-05
2 *3293:X 8.68437e-05
3 *2668:A1 *2668:A0 0.000125724
4 *2669:A1 *2668:A0 0
5 *610:12 *2668:A0 0
*RES
1 *3293:X *2668:A0 29.5464 
*END

*D_NET *985 0.00138625
*CONN
*I *2669:A0 I *D sky130_fd_sc_hd__mux2_1
*I *3294:X O *D sky130_fd_sc_hd__clkbuf_1
*CAP
1 *2669:A0 0.000395827
2 *3294:X 0.000395827
3 *2669:A0 *2661:A0 0.000335318
4 *2568:B2 *2669:A0 0
5 *2934:GATE_N *2669:A0 8.3722e-05
6 *3062:GATE_N *2669:A0 0.000135028
7 *829:81 *2669:A0 4.05247e-05
*RES
1 *3294:X *2669:A0 35.6 
*END

*D_NET *986 0.00789144
*CONN
*I *2670:A0 I *D sky130_fd_sc_hd__mux2_1
*I *3295:X O *D sky130_fd_sc_hd__clkbuf_1
*CAP
1 *2670:A0 0.00145294
2 *3295:X 0.000914555
3 *986:12 0.00236749
4 *2670:A0 *3367:A 0.000246697
5 *2670:A0 *996:26 0.000115473
6 *986:12 *1038:12 0.00068147
7 rdata[15] *986:12 9.90431e-05
8 rdata[2] *986:12 9.90431e-05
9 rdata[8] *986:12 1.24368e-05
10 rdata[9] *986:12 9.90431e-05
11 *2489:B1 *2670:A0 9.84661e-05
12 *2644:B *2670:A0 0
13 *2670:S *2670:A0 3.67252e-05
14 *2818:D *2670:A0 9.79264e-05
15 *2847:D *2670:A0 0.000200981
16 *2959:GATE_N *2670:A0 0.000394917
17 *3299:A *986:12 5.52302e-05
18 *3305:A *986:12 5.52302e-05
19 *3307:A *986:12 5.52302e-05
20 *3309:A *986:12 0.000144773
21 *3321:A *2670:A0 0.000115149
22 *3327:A *2670:A0 0
23 *426:10 *2670:A0 0
24 *791:16 *986:12 0.000226658
25 *809:35 *2670:A0 0.000139913
26 *872:53 *2670:A0 0.000173804
27 *886:84 *2670:A0 8.23597e-06
28 *930:54 *2670:A0 0
*RES
1 *3295:X *986:12 34.4964 
2 *986:12 *2670:A0 41.8357 
*END

*D_NET *987 0.00465133
*CONN
*I *2671:A0 I *D sky130_fd_sc_hd__mux2_1
*I *3296:X O *D sky130_fd_sc_hd__clkbuf_1
*CAP
1 *2671:A0 0
2 *3296:X 0.000599523
3 *987:16 0.000599523
4 *987:16 *2659:A1 0
5 *987:16 *2662:A0 0.000410735
6 *987:16 *988:16 9.56968e-05
7 *2458:B *987:16 0.000487467
8 *3245:A *987:16 1.21258e-05
9 *3332:A *987:16 0
10 *386:14 *987:16 0.000121909
11 *801:76 *987:16 6.6477e-05
12 *952:10 *987:16 7.15962e-05
13 *975:14 *987:16 0.00217658
14 *975:16 *987:16 9.69119e-06
*RES
1 *3296:X *987:16 47.05 
2 *987:16 *2671:A0 13.8 
*END

*D_NET *988 0.00365197
*CONN
*I *2671:A1 I *D sky130_fd_sc_hd__mux2_1
*I *3297:X O *D sky130_fd_sc_hd__clkbuf_1
*CAP
1 *2671:A1 0
2 *3297:X 0.00100971
3 *988:16 0.00100971
4 *2662:A1 *988:16 0.00132285
5 *3331:A *988:16 0.00014285
6 *801:76 *988:16 3.18676e-05
7 *975:14 *988:16 3.92854e-05
8 *987:16 *988:16 9.56968e-05
*RES
1 *3297:X *988:16 41.5321 
2 *988:16 *2671:A1 9.3 
*END

*D_NET *989 0.00109381
*CONN
*I *2672:A0 I *D sky130_fd_sc_hd__mux2_1
*I *3298:X O *D sky130_fd_sc_hd__clkbuf_1
*CAP
1 *2672:A0 0.000276965
2 *3298:X 0.000276965
3 *2672:A0 *1044:DIODE 5.71472e-05
4 *2672:A0 *2660:A1 0
5 *2672:A0 *1038:12 3.18676e-05
6 *2660:S *2672:A0 0
7 *2672:S *2672:A0 2.44318e-05
8 *2925:GATE_N *2672:A0 0.000144684
9 *384:12 *2672:A0 9.80405e-05
10 *855:20 *2672:A0 0.000183713
*RES
1 *3298:X *2672:A0 33.6714 
*END

*D_NET *990 0.00471435
*CONN
*I *2673:A0 I *D sky130_fd_sc_hd__mux2_1
*I *3299:X O *D sky130_fd_sc_hd__clkbuf_1
*CAP
1 *2673:A0 0
2 *3299:X 0.00101427
3 *990:12 0.00101427
4 *990:12 *2666:A0 5.75803e-05
5 *2543:B2 *990:12 0.000127439
6 *2565:A1 *990:12 2.22043e-05
7 *2565:A2 *990:12 5.55405e-05
8 *2574:B2 *990:12 0
9 *2815:GATE_N *990:12 0
10 *2966:D *990:12 0.000120982
11 *3184:A *990:12 0
12 *791:16 *990:12 5.71472e-05
13 *807:43 *990:12 0.00013651
14 *827:160 *990:12 0
15 *856:38 *990:12 0.000361681
16 *856:47 *990:12 0.000781965
17 *882:20 *990:12 0.000296547
18 *882:28 *990:12 0.000668214
19 *891:34 *990:12 0
*RES
1 *3299:X *990:12 46.5857 
2 *990:12 *2673:A0 9.3 
*END

*D_NET *991 0.00136543
*CONN
*I *2659:A0 I *D sky130_fd_sc_hd__mux2_1
*I *3300:X O *D sky130_fd_sc_hd__clkbuf_1
*CAP
1 *2659:A0 0.000539647
2 *3300:X 0.000539647
3 *2659:A0 *2662:A0 0
4 *2662:A1 *2659:A0 0
5 *2662:S *2659:A0 0
6 *3101:CLK *2659:A0 1.39726e-05
7 *3101:D *2659:A0 3.18676e-05
8 *3332:A *2659:A0 7.77751e-05
9 *383:8 *2659:A0 3.40043e-05
10 *801:76 *2659:A0 5.52238e-05
11 *883:133 *2659:A0 7.32955e-05
*RES
1 *3300:X *2659:A0 36.5464 
*END

*D_NET *992 0.000660467
*CONN
*I *2660:A0 I *D sky130_fd_sc_hd__mux2_1
*I *3301:X O *D sky130_fd_sc_hd__clkbuf_1
*CAP
1 *2660:A0 0.000280712
2 *3301:X 0.000280712
3 *2660:A0 *2660:A1 0
4 *2660:S *2660:A0 0
5 *882:69 *2660:A0 9.90431e-05
*RES
1 *3301:X *2660:A0 32.5464 
*END

*D_NET *993 0.00203667
*CONN
*I *2661:A0 I *D sky130_fd_sc_hd__mux2_1
*I *3302:X O *D sky130_fd_sc_hd__clkbuf_1
*CAP
1 *2661:A0 0.000386705
2 *3302:X 0.000386705
3 *2661:A0 *1038:12 0.000105163
4 *2669:A0 *2661:A0 0.000335318
5 *2669:A1 *2661:A0 0
6 *2934:D *2661:A0 0.000165278
7 *3062:GATE_N *2661:A0 0.00026264
8 *829:81 *2661:A0 0.000394866
*RES
1 *3302:X *2661:A0 38.4929 
*END

*D_NET *994 0.00275155
*CONN
*I *2662:A0 I *D sky130_fd_sc_hd__mux2_1
*I *3303:X O *D sky130_fd_sc_hd__clkbuf_1
*CAP
1 *2662:A0 0.000454191
2 *3303:X 0.000454191
3 *2394:A *2662:A0 0.000399828
4 *2659:A0 *2662:A0 0
5 *3332:A *2662:A0 0.000618905
6 *801:76 *2662:A0 0.000413701
7 *981:14 *2662:A0 0
8 *987:16 *2662:A0 0.000410735
*RES
1 *3303:X *2662:A0 42.8321 
*END

*D_NET *995 0.0124233
*CONN
*I *2663:A0 I *D sky130_fd_sc_hd__mux2_1
*I *3304:X O *D sky130_fd_sc_hd__buf_1
*CAP
1 *2663:A0 0.00141747
2 *3304:X 9.26863e-05
3 *995:12 0.00340623
4 *995:8 0.00208144
5 *995:12 *2690:B 0
6 *995:12 *2704:A1 8.49755e-06
7 *995:12 *2714:A1 0.000217087
8 *995:12 *1031:10 8.34876e-05
9 *995:12 *1031:35 3.11502e-05
10 *2441:C *995:12 0.000137336
11 *2487:A *2663:A0 4.02943e-05
12 *2519:B1 *995:12 4.66203e-05
13 *2530:B2 *2663:A0 0.000764915
14 *2646:A *2663:A0 9.71197e-05
15 *2714:A2 *995:12 2.46749e-05
16 *2717:A1 *995:12 9.47299e-05
17 *2718:C1 *995:12 0.000125731
18 *2719:B2 *995:12 0.000162365
19 *2721:A0 *995:12 3.5626e-05
20 *2801:D *995:12 0.000263508
21 *2801:RESET_B *995:12 0.000114131
22 *3116:A *995:12 0.000222156
23 *447:10 *995:12 0
24 *447:22 *995:12 0.000233651
25 *690:26 *995:12 0.000118981
26 *770:8 *995:12 0.000149911
27 *813:30 *2663:A0 1.4363e-05
28 *823:14 *2663:A0 8.42979e-05
29 *830:16 *995:12 0.000170301
30 *840:130 *2663:A0 0.000203614
31 *841:48 *995:12 0
32 *881:46 *995:12 0.000170961
33 *881:48 *995:12 3.88892e-05
34 *883:53 *2663:A0 0.000270777
35 *897:109 *995:12 0
36 *917:42 *995:12 0.000646942
37 *917:44 *995:12 2.04825e-05
38 *953:10 *995:12 4.66203e-05
39 *953:12 *995:12 0.000245935
40 *953:18 *995:12 0.000397412
41 *964:10 *995:8 0.000142856
42 *979:16 *995:12 0
*RES
1 *3304:X *995:8 15.1571 
2 *995:8 *995:12 48.6154 
3 *995:12 *2663:A0 22.9943 
*END

*D_NET *996 0.0104362
*CONN
*I *2664:A0 I *D sky130_fd_sc_hd__mux2_1
*I *3305:X O *D sky130_fd_sc_hd__clkbuf_1
*CAP
1 *2664:A0 0
2 *3305:X 0.00340144
3 *996:26 0.00340144
4 *996:26 *999:18 0
5 *2607:B2 *996:26 3.08606e-05
6 *2648:B *996:26 6.89111e-05
7 *2664:S *996:26 1.99099e-05
8 *2670:A0 *996:26 0.000115473
9 *2959:GATE_N *996:26 0.000142572
10 *3159:A *996:26 9.60337e-06
11 *809:35 *996:26 0.000241397
12 *813:30 *996:26 0.00300463
13 *883:53 *996:26 0
*RES
1 *3305:X *996:26 44.2779 
2 *996:26 *2664:A0 9.3 
*END

*D_NET *997 0.00167426
*CONN
*I *2665:A0 I *D sky130_fd_sc_hd__mux2_1
*I *3306:X O *D sky130_fd_sc_hd__clkbuf_1
*CAP
1 *2665:A0 0.000351943
2 *3306:X 0.000351943
3 *2665:A0 *1038:12 0.000492333
4 *2658:A0 *2665:A0 0.000186662
5 *2665:A1 *2665:A0 0.000282127
6 *3053:GATE_N *2665:A0 9.25014e-06
7 *790:12 *2665:A0 0
8 *882:124 *2665:A0 0
*RES
1 *3306:X *2665:A0 36.0107 
*END

*D_NET *998 0.000977211
*CONN
*I *2666:A0 I *D sky130_fd_sc_hd__mux2_1
*I *3307:X O *D sky130_fd_sc_hd__clkbuf_1
*CAP
1 *2666:A0 0.000316917
2 *3307:X 0.000316917
3 *791:16 *2666:A0 0.000232399
4 *856:38 *2666:A0 5.33978e-05
5 *990:12 *2666:A0 5.75803e-05
*RES
1 *3307:X *2666:A0 33.2429 
*END

*D_NET *999 0.0144803
*CONN
*I *2672:A1 I *D sky130_fd_sc_hd__mux2_1
*I *1044:DIODE I *D sky130_fd_sc_hd__diode_2
*I *3308:X O *D sky130_fd_sc_hd__buf_1
*CAP
1 *2672:A1 0
2 *1044:DIODE 6.60189e-05
3 *3308:X 0.00492578
4 *999:18 0.0049918
5 *2475:B2 *999:18 0
6 *2568:A2 *999:18 0.000152307
7 *2672:A0 *1044:DIODE 5.71472e-05
8 *2672:S *1044:DIODE 0.000140933
9 *2672:S *999:18 6.91215e-06
10 *2806:D *999:18 0.000536941
11 *2814:D *999:18 0.000233723
12 *2822:GATE_N *999:18 5.05109e-05
13 *2856:GATE_N *999:18 6.60765e-05
14 *3169:A *999:18 0.000545867
15 *3184:A *999:18 0.00102102
16 *381:10 *1044:DIODE 2.27416e-05
17 *384:12 *999:18 7.69776e-06
18 *431:57 *999:18 0.000141375
19 *431:61 *999:18 0.000246057
20 *813:30 *999:18 0.000376631
21 *855:20 *1044:DIODE 0.000117621
22 *871:57 *999:18 0
23 *878:107 *999:18 1.20653e-05
24 *882:49 *999:18 0.000413375
25 *882:53 *999:18 0.000347667
26 *996:26 *999:18 0
*RES
1 *3308:X *999:18 43.2812 
2 *999:18 *1044:DIODE 11.8893 
3 *999:18 *2672:A1 9.3 
*END

*D_NET *1000 0.00109514
*CONN
*I *2667:A0 I *D sky130_fd_sc_hd__mux2_1
*I *3309:X O *D sky130_fd_sc_hd__clkbuf_1
*CAP
1 *2667:A0 0.000231275
2 *3309:X 0.000231275
3 *2845:D *2667:A0 2.8266e-06
4 *2845:GATE_N *2667:A0 1.76039e-05
5 *3182:A *2667:A0 3.25247e-05
6 *3183:A *2667:A0 7.80714e-06
7 *376:8 *2667:A0 0.000117543
8 *610:16 *2667:A0 4.70078e-05
9 *791:16 *2667:A0 5.71472e-05
10 *856:38 *2667:A0 0.00035013
*RES
1 *3309:X *2667:A0 33.4929 
*END

*D_NET *1001 0.00430247
*CONN
*I *2702:A I *D sky130_fd_sc_hd__or4_1
*I *2705:A1 I *D sky130_fd_sc_hd__o31ai_1
*I *3310:X O *D sky130_fd_sc_hd__clkbuf_1
*CAP
1 *2702:A 0
2 *2705:A1 0.000340033
3 *3310:X 0.000982983
4 *1001:8 0.00132302
5 *2395:A *1001:8 0
6 *2447:B *1001:8 8.00806e-05
7 *2698:B2 *2705:A1 1.3701e-05
8 *2702:B *1001:8 6.12163e-05
9 *2702:D *2705:A1 0.000158327
10 *2712:C *1001:8 0
11 *2729:A *1001:8 0.000284927
12 *2761:B1 *1001:8 0
13 *2777:B1 *1001:8 0
14 *3114:A *1001:8 0.000389205
15 *501:36 *1001:8 5.0725e-05
16 *672:34 *1001:8 7.32215e-05
17 *691:8 *2705:A1 4.35336e-05
18 *710:10 *1001:8 0.00028664
19 *716:12 *1001:8 1.08359e-05
20 *929:38 *2705:A1 5.47837e-05
21 *949:74 *2705:A1 9.54798e-06
22 *949:74 *1001:8 6.76116e-05
23 *949:80 *2705:A1 5.42764e-05
24 *950:37 *2705:A1 1.49712e-05
25 *950:37 *1001:8 2.83284e-06
26 *963:22 *1001:8 0
27 *964:10 *1001:8 0
28 *964:20 *1001:8 0
29 *965:41 *1001:8 0
*RES
1 *3310:X *1001:8 35.175 
2 *1001:8 *2705:A1 19.3357 
3 *1001:8 *2702:A 13.8 
*END

*D_NET *1002 0.0159502
*CONN
*I *2714:A1 I *D sky130_fd_sc_hd__a21o_1
*I *2704:A1 I *D sky130_fd_sc_hd__o311a_1
*I *2699:A1 I *D sky130_fd_sc_hd__o311a_1
*I *3311:X O *D sky130_fd_sc_hd__buf_1
*CAP
1 *2714:A1 0.000249306
2 *2704:A1 3.29014e-05
3 *2699:A1 2.66443e-05
4 *3311:X 0.0042499
5 *1002:27 0.000541578
6 *1002:12 0.00453592
7 *2691:B *1002:27 9.03213e-05
8 *2697:B *2714:A1 0
9 *2699:B1 *2699:A1 4.1331e-06
10 *2699:B1 *1002:27 0.000660915
11 *2712:A *1002:12 0.000166125
12 *2713:A3 *2704:A1 7.35213e-06
13 *2714:A2 *2714:A1 5.05056e-05
14 *2714:B1 *2714:A1 5.33005e-05
15 *475:10 *2699:A1 4.32309e-05
16 *502:44 *2714:A1 4.08555e-06
17 *502:59 *2714:A1 4.60232e-06
18 *508:14 *2714:A1 9.34707e-05
19 *510:14 *1002:12 0.000517091
20 *510:14 *1002:27 0.000845719
21 *510:16 *1002:12 0.000431838
22 *510:20 *1002:12 0.00256802
23 *679:14 *2704:A1 3.47641e-06
24 *868:39 *1002:12 0.000251568
25 *868:39 *1002:27 7.69372e-05
26 *868:45 *1002:12 0.000215691
27 *949:80 *2699:A1 0
28 *995:12 *2704:A1 8.49755e-06
29 *995:12 *2714:A1 0.000217087
*RES
1 *3311:X *1002:12 49.5 
2 *1002:12 *2699:A1 17.7904 
3 *1002:12 *1002:27 4.82627 
4 *1002:27 *2704:A1 14.3804 
5 *1002:27 *2714:A1 18.2911 
*END

*D_NET *1003 0.000338436
*CONN
*I *3333:A I *D sky130_fd_sc_hd__buf_2
*I *2459:X O *D sky130_fd_sc_hd__and2_1
*CAP
1 *3333:A 4.42083e-05
2 *2459:X 4.42083e-05
3 *3333:A *1009:22 0.00012501
4 *880:37 *3333:A 3.34295e-05
5 *880:102 *3333:A 9.15804e-05
*RES
1 *2459:X *3333:A 29.2429 
*END

*D_NET *1004 0.00140666
*CONN
*I *3334:A I *D sky130_fd_sc_hd__buf_2
*I *2460:X O *D sky130_fd_sc_hd__and2_1
*CAP
1 *3334:A 0.000301624
2 *2460:X 0.000301624
3 *3334:A *1009:22 0.000140977
4 *2460:B *3334:A 2.27416e-05
5 *2766:B2 *3334:A 2.87517e-05
6 *2766:C1 *3334:A 0.000150263
7 *2774:A1 *3334:A 2.59355e-05
8 *3263:A *3334:A 5.03801e-05
9 *3276:A *3334:A 2.06112e-05
10 *3289:A *3334:A 0.000363754
*RES
1 *2460:X *3334:A 35.475 
*END

*D_NET *1005 0.000373697
*CONN
*I *3335:A I *D sky130_fd_sc_hd__buf_2
*I *2461:X O *D sky130_fd_sc_hd__and2_1
*CAP
1 *3335:A 9.82488e-05
2 *2461:X 9.82488e-05
3 *3335:A *1009:22 8.15843e-05
4 *505:18 *3335:A 8.15843e-05
5 *880:31 *3335:A 1.40306e-05
*RES
1 *2461:X *3335:A 30.0821 
*END

*D_NET *1006 0.00287535
*CONN
*I *3336:A I *D sky130_fd_sc_hd__buf_2
*I *2454:X O *D sky130_fd_sc_hd__or2_1
*CAP
1 *3336:A 0.000891748
2 *2454:X 0.000891748
3 *3336:A *1009:22 0
4 *2448:B *3336:A 8.71059e-06
5 *2449:B1 *3336:A 6.8646e-06
6 *2449:C1 *3336:A 6.42338e-05
7 *2453:A *3336:A 7.6644e-05
8 *2838:D *3336:A 0.000125731
9 *374:10 *3336:A 1.17968e-05
10 *478:35 *3336:A 0.000413094
11 *965:12 *3336:A 0.000384776
*RES
1 *2454:X *3336:A 43.35 
*END

*D_NET *1007 0.00496328
*CONN
*I *3337:A I *D sky130_fd_sc_hd__buf_2
*I *2449:Y O *D sky130_fd_sc_hd__a211oi_1
*CAP
1 *3337:A 0
2 *2449:Y 0.00114653
3 *1007:22 0.00114653
4 PADDR[1] *1007:22 0
5 PSEL1 *1007:22 2.89016e-05
6 *2461:B *1007:22 0
7 *2766:A1 *1007:22 3.9883e-05
8 *2766:A2 *1007:22 0
9 *2766:B1 *1007:22 0
10 *2767:A1 *1007:22 0.000127886
11 *2767:S *1007:22 0.000218026
12 *2773:B *1007:22 0.000874493
13 *2773:D *1007:22 2.04866e-05
14 *2774:A1 *1007:22 0
15 *2774:B1 *1007:22 5.63007e-05
16 *2774:C1 *1007:22 0.000141849
17 *2775:A1 *1007:22 5.99947e-05
18 *2838:D *1007:22 6.86792e-05
19 *3189:A *1007:22 0
20 *3282:A *1007:22 9.25014e-06
21 *116:17 *1007:22 8.06331e-05
22 *116:37 *1007:22 5.84075e-05
23 *431:10 *1007:22 8.07879e-05
24 *505:18 *1007:22 0
25 *505:44 *1007:22 0
26 *794:14 *1007:22 0
27 *962:6 *1007:22 5.52238e-05
28 *965:12 *1007:22 0.000225314
29 *965:33 *1007:22 0.000524115
*RES
1 *2449:Y *1007:22 47.3536 
2 *1007:22 *3337:A 9.3 
*END

*D_NET *1008 0.00184103
*CONN
*I *3338:A I *D sky130_fd_sc_hd__buf_2
*I *2450:X O *D sky130_fd_sc_hd__and3b_1
*CAP
1 *3338:A 0.000433063
2 *2450:X 0.000433063
3 *2450:B *3338:A 0.000268396
4 *2676:A0 *3338:A 0.000367157
5 *2689:B *3338:A 1.54142e-05
6 *3274:A *3338:A 0.000115096
7 *880:37 *3338:A 0.000111717
8 *880:82 *3338:A 9.71197e-05
*RES
1 *2450:X *3338:A 36.3143 
*END

*D_NET *1009 0.0036631
*CONN
*I *3339:A I *D sky130_fd_sc_hd__buf_2
*I *2451:X O *D sky130_fd_sc_hd__and3b_1
*CAP
1 *3339:A 0
2 *2451:X 0.000753755
3 *1009:22 0.000753755
4 PADDR[0] *1009:22 0.00034744
5 PADDR[2] *1009:22 5.89448e-05
6 *2448:B *1009:22 0.000104236
7 *2449:A1 *1009:22 0.000246057
8 *2459:B *1009:22 0.000341632
9 *2460:A *1009:22 0
10 *2674:A1 *1009:22 7.16858e-05
11 *2766:B2 *1009:22 0.000104974
12 *2773:A_N *1009:22 2.89114e-05
13 *3263:A *1009:22 0
14 *3276:A *1009:22 2.21972e-05
15 *3333:A *1009:22 0.00012501
16 *3334:A *1009:22 0.000140977
17 *3335:A *1009:22 8.15843e-05
18 *3336:A *1009:22 0
19 *115:12 *1009:22 2.26424e-05
20 *115:18 *1009:22 0.000143288
21 *374:10 *1009:22 0
22 *478:35 *1009:22 5.58941e-05
23 *505:18 *1009:22 7.73607e-05
24 *507:12 *1009:22 1.02504e-05
25 *880:37 *1009:22 0.000153364
26 *880:102 *1009:22 1.91414e-05
*RES
1 *2451:X *1009:22 40.8536 
2 *1009:22 *3339:A 9.3 
*END

*D_NET *1010 0.00519785
*CONN
*I *2673:A1 I *D sky130_fd_sc_hd__mux2_1
*I *3312:X O *D sky130_fd_sc_hd__clkbuf_1
*CAP
1 *2673:A1 0.00179363
2 *3312:X 0.00179363
3 *2673:A1 *3347:A 1.72894e-05
4 *2553:A *2673:A1 5.33005e-05
5 *2553:B *2673:A1 0.000350311
6 *2577:A1 *2673:A1 6.91438e-06
7 *2585:A1 *2673:A1 9.90431e-05
8 *2673:S *2673:A1 2.24763e-05
9 *2829:D *2673:A1 2.55315e-05
10 *2837:GATE_N *2673:A1 5.52302e-05
11 *2855:D *2673:A1 0.000448717
12 *822:36 *2673:A1 4.27437e-05
13 *854:59 *2673:A1 4.47339e-05
14 *878:93 *2673:A1 9.41642e-05
15 *911:41 *2673:A1 0.000350124
*RES
1 *3312:X *2673:A1 47.3679 
*END

*D_NET *1011 0.000565442
*CONN
*I *3340:A I *D sky130_fd_sc_hd__buf_2
*I *2452:X O *D sky130_fd_sc_hd__and3_1
*CAP
1 *3340:A 0.000125049
2 *2452:X 0.000125049
3 *2675:A1 *3340:A 9.71197e-05
4 *2676:A1 *3340:A 0.00015304
5 *880:43 *3340:A 6.5185e-05
6 *935:14 *3340:A 0
*RES
1 *2452:X *3340:A 30.4929 
*END

*D_NET *1012 0.0020589
*CONN
*I *3341:A I *D sky130_fd_sc_hd__buf_2
*I *2822:Q O *D sky130_fd_sc_hd__dlxtn_1
*CAP
1 *3341:A 0.00058755
2 *2822:Q 0.00058755
3 *3341:A *3367:A 0.000142856
4 rdata[14] *3341:A 5.52238e-05
5 *2653:B *3341:A 8.46829e-05
6 *2814:GATE_N *3341:A 9.22103e-06
7 *2817:D *3341:A 9.60875e-05
8 *3327:A *3341:A 9.58181e-05
9 *631:38 *3341:A 0.000279682
10 *846:28 *3341:A 0.000120228
*RES
1 *2822:Q *3341:A 28.3321 
*END

*D_NET *1013 0.000257927
*CONN
*I *3342:A I *D sky130_fd_sc_hd__buf_2
*I *2832:Q O *D sky130_fd_sc_hd__dlxtn_1
*CAP
1 *3342:A 6.62177e-05
2 *2832:Q 6.62177e-05
3 *3342:A *1040:18 8.39e-05
4 PWDATA[10] *3342:A 4.15914e-05
5 *884:47 *3342:A 0
*RES
1 *2832:Q *3342:A 29.5464 
*END

*D_NET *1014 0.000395638
*CONN
*I *3343:A I *D sky130_fd_sc_hd__buf_2
*I *2833:Q O *D sky130_fd_sc_hd__dlxtn_1
*CAP
1 *3343:A 4.8263e-05
2 *2833:Q 4.8263e-05
3 *3343:A *3362:A 0.000149556
4 *3343:A *3363:A 0.000149556
*RES
1 *2833:Q *3343:A 29.5464 
*END

*D_NET *1015 0.00014024
*CONN
*I *3344:A I *D sky130_fd_sc_hd__buf_2
*I *2834:Q O *D sky130_fd_sc_hd__dlxtn_1
*CAP
1 *3344:A 7.01202e-05
2 *2834:Q 7.01202e-05
*RES
1 *2834:Q *3344:A 19.8679 
*END

*D_NET *1016 0.00045493
*CONN
*I *3345:A I *D sky130_fd_sc_hd__buf_2
*I *2835:Q O *D sky130_fd_sc_hd__dlxtn_1
*CAP
1 *3345:A 0.000204657
2 *2835:Q 0.000204657
3 PWDATA[13] *3345:A 1.21859e-05
4 *2823:GATE_N *3345:A 3.34295e-05
5 *2827:D *3345:A 0
6 *970:10 *3345:A 0
*RES
1 *2835:Q *3345:A 30.4929 
*END

*D_NET *1017 0.000309748
*CONN
*I *3346:A I *D sky130_fd_sc_hd__buf_2
*I *2836:Q O *D sky130_fd_sc_hd__dlxtn_1
*CAP
1 *3346:A 5.66974e-05
2 *2836:Q 5.66974e-05
3 *3346:A *3350:A 0.000154762
4 PWDATA[14] *3346:A 4.15914e-05
5 *878:85 *3346:A 0
*RES
1 *2836:Q *3346:A 29.5464 
*END

*D_NET *1018 0.000650376
*CONN
*I *3347:A I *D sky130_fd_sc_hd__buf_2
*I *2837:Q O *D sky130_fd_sc_hd__dlxtn_1
*CAP
1 *3347:A 0.000220236
2 *2837:Q 0.000220236
3 *3347:A *3354:A 0.000129868
4 PWDATA[15] *3347:A 6.27457e-05
5 *2673:A1 *3347:A 1.72894e-05
6 *2837:D *3347:A 0
7 *878:85 *3347:A 0
8 *970:10 *3347:A 0
*RES
1 *2837:Q *3347:A 32.2071 
*END

*D_NET *1019 0.000560201
*CONN
*I *3348:A I *D sky130_fd_sc_hd__buf_2
*I *2823:Q O *D sky130_fd_sc_hd__dlxtn_1
*CAP
1 *3348:A 0.000117791
2 *2823:Q 0.000117791
3 *3348:A *1024:12 7.83587e-05
4 *2823:D *3348:A 9.80173e-05
5 *431:16 *3348:A 0.000123295
6 *885:118 *3348:A 2.49484e-05
*RES
1 *2823:Q *3348:A 30.1893 
*END

*D_NET *1020 0.000463226
*CONN
*I *3349:A I *D sky130_fd_sc_hd__buf_2
*I *2824:Q O *D sky130_fd_sc_hd__dlxtn_1
*CAP
1 *3349:A 8.55312e-05
2 *2824:Q 8.55312e-05
3 *3349:A *3362:A 8.39e-05
4 *3349:A *1040:18 0.00015304
5 *2822:D *3349:A 5.52238e-05
*RES
1 *2824:Q *3349:A 30.0821 
*END

*D_NET *1021 0.000574907
*CONN
*I *2659:A1 I *D sky130_fd_sc_hd__mux2_1
*I *3313:X O *D sky130_fd_sc_hd__clkbuf_1
*CAP
1 *2659:A1 0.000239043
2 *3313:X 0.000239043
3 *2662:A1 *2659:A1 5.52302e-05
4 *2662:S *2659:A1 0
5 *386:14 *2659:A1 0
6 *801:76 *2659:A1 4.15914e-05
7 *987:16 *2659:A1 0
*RES
1 *3313:X *2659:A1 31.6 
*END

*D_NET *1022 0.000926
*CONN
*I *3350:A I *D sky130_fd_sc_hd__buf_2
*I *2825:Q O *D sky130_fd_sc_hd__dlxtn_1
*CAP
1 *3350:A 0.00036272
2 *2825:Q 0.00036272
3 PWDATA[14] *3350:A 1.12577e-05
4 PWDATA[3] *3350:A 3.454e-05
5 *3346:A *3350:A 0.000154762
6 *970:10 *3350:A 0
*RES
1 *2825:Q *3350:A 34.6357 
*END

*D_NET *1023 0.00014024
*CONN
*I *3351:A I *D sky130_fd_sc_hd__buf_2
*I *2826:Q O *D sky130_fd_sc_hd__dlxtn_1
*CAP
1 *3351:A 7.01202e-05
2 *2826:Q 7.01202e-05
*RES
1 *2826:Q *3351:A 19.8679 
*END

*D_NET *1024 0.00914865
*CONN
*I *3352:A I *D sky130_fd_sc_hd__buf_2
*I *2827:Q O *D sky130_fd_sc_hd__dlxtn_1
*CAP
1 *3352:A 0
2 *2827:Q 0.000249076
3 *1024:18 0.00141602
4 *1024:12 0.00166509
5 PWDATA[1] *1024:12 9.41642e-05
6 PWDATA[5] *1024:18 2.59355e-05
7 *2562:A2 *1024:18 0
8 *2630:B *1024:18 2.21972e-05
9 *2641:A *1024:18 0.000773601
10 *2650:B *1024:18 0
11 *2656:B *1024:18 0.000107119
12 *2809:D *1024:18 0.00012501
13 *2809:GATE_N *1024:18 0.000313458
14 *2814:D *1024:18 0.000123067
15 *2824:D *1024:18 0.000136951
16 *2829:D *1024:18 7.252e-05
17 *2833:D *1024:18 1.58163e-05
18 *3322:A *1024:18 0
19 *3348:A *1024:12 7.83587e-05
20 *431:16 *1024:12 0.000237546
21 *431:16 *1024:18 7.39637e-05
22 *431:29 *1024:18 0
23 *431:43 *1024:18 7.76647e-05
24 *431:49 *1024:18 0
25 *521:26 *1024:18 0.000200413
26 *661:12 *1024:18 2.96842e-05
27 *877:130 *1024:18 0.000217636
28 *878:107 *1024:18 0.000125702
29 *884:16 *1024:18 4.66234e-05
30 *884:20 *1024:18 0.000168939
31 *885:118 *1024:12 0.000483704
32 *885:118 *1024:18 0.00020455
33 *885:129 *1024:18 0.000550724
34 *886:23 *1024:18 0.000714811
35 *886:27 *1024:18 1.91414e-05
36 *886:31 *1024:18 3.45894e-05
37 *886:39 *1024:18 0.000521679
38 *886:41 *1024:18 0.000222892
*RES
1 *2827:Q *1024:12 21.7821 
2 *1024:12 *1024:18 47.5714 
3 *1024:18 *3352:A 9.3 
*END

*D_NET *1025 0.00014024
*CONN
*I *3353:A I *D sky130_fd_sc_hd__buf_2
*I *2828:Q O *D sky130_fd_sc_hd__dlxtn_1
*CAP
1 *3353:A 7.01202e-05
2 *2828:Q 7.01202e-05
*RES
1 *2828:Q *3353:A 19.8679 
*END

*D_NET *1026 0.000568336
*CONN
*I *3354:A I *D sky130_fd_sc_hd__buf_2
*I *2829:Q O *D sky130_fd_sc_hd__dlxtn_1
*CAP
1 *3354:A 0.00020347
2 *2829:Q 0.00020347
3 PWDATA[7] *3354:A 3.15282e-05
4 *3257:A *3354:A 0
5 *3347:A *3354:A 0.000129868
6 *878:85 *3354:A 0
7 *970:10 *3354:A 0
*RES
1 *2829:Q *3354:A 31.975 
*END

*D_NET *1027 0.000243524
*CONN
*I *3355:A I *D sky130_fd_sc_hd__buf_2
*I *2830:Q O *D sky130_fd_sc_hd__dlxtn_1
*CAP
1 *3355:A 9.62317e-05
2 *2830:Q 9.62317e-05
3 PWDATA[8] *3355:A 5.10602e-05
4 *878:85 *3355:A 0
5 *970:10 *3355:A 0
*RES
1 *2830:Q *3355:A 29.5464 
*END

*D_NET *1028 0.000286285
*CONN
*I *3356:A I *D sky130_fd_sc_hd__buf_2
*I *2831:Q O *D sky130_fd_sc_hd__dlxtn_1
*CAP
1 *3356:A 8.11101e-05
2 *2831:Q 8.11101e-05
3 *3356:A *3363:A 7.83587e-05
4 *3356:A *1040:18 3.55152e-05
5 PWDATA[9] *3356:A 1.01912e-05
6 *884:47 *3356:A 0
*RES
1 *2831:Q *3356:A 29.5464 
*END

*D_NET *1029 0.000439668
*CONN
*I *3357:A I *D sky130_fd_sc_hd__buf_2
*I *2453:X O *D sky130_fd_sc_hd__and2_1
*CAP
1 *3357:A 0.000139824
2 *2453:X 0.000139824
3 PSEL2 *3357:A 1.91512e-05
4 *2676:A1 *3357:A 7.6644e-05
5 *880:43 *3357:A 6.42242e-05
*RES
1 *2453:X *3357:A 30.1893 
*END

*D_NET *1030 0.00240173
*CONN
*I *3187:A I *D sky130_fd_sc_hd__clkbuf_2
*I *2442:Y O *D sky130_fd_sc_hd__inv_2
*CAP
1 *3187:A 0.000574675
2 *2442:Y 0.000574675
3 *2447:A *3187:A 0
4 *2719:A1_N *3187:A 0.00043698
5 *2720:A2 *3187:A 0.000177948
6 *2720:B1 *3187:A 0.000154762
7 *2736:A *3187:A 0.000146474
8 *2802:D *3187:A 6.65302e-05
9 *3245:A *3187:A 5.33005e-05
10 *881:14 *3187:A 5.33005e-05
11 *881:46 *3187:A 7.12919e-05
12 *881:48 *3187:A 1.27784e-05
13 *964:10 *3187:A 9.10431e-06
14 *964:20 *3187:A 6.99144e-05
*RES
1 *2442:Y *3187:A 40.475 
*END

*D_NET *1031 0.0102388
*CONN
*I *2715:A1_N I *D sky130_fd_sc_hd__o2bb2a_1
*I *2690:B I *D sky130_fd_sc_hd__nand2_1
*I *2743:B2 I *D sky130_fd_sc_hd__o221a_2
*I *3359:A I *D sky130_fd_sc_hd__buf_2
*I *2717:A3 I *D sky130_fd_sc_hd__o32a_1
*I *2679:X O *D sky130_fd_sc_hd__and4bb_1
*CAP
1 *2715:A1_N 0
2 *2690:B 0.000139645
3 *2743:B2 0
4 *3359:A 0.000712032
5 *2717:A3 0.000292664
6 *2679:X 0.000395493
7 *1031:55 0.00128997
8 *1031:41 0.000848263
9 *1031:35 0.000215236
10 *1031:10 0.000772715
11 *2395:A *2690:B 9.60939e-05
12 *2458:B *3359:A 3.57844e-05
13 *2698:A1 *1031:55 3.23395e-05
14 *2710:A *1031:10 0.000135933
15 *2715:A2_N *1031:35 5.58941e-05
16 *2715:A2_N *1031:41 7.90803e-05
17 *2717:A1 *2690:B 0.000100823
18 *2717:A2 *2717:A3 0.000111956
19 *2719:A1_N *3359:A 4.66189e-05
20 *2727:A2 *3359:A 0.00013795
21 *2728:B *3359:A 1.1594e-05
22 *2741:A *3359:A 0.000175512
23 *2743:B1 *3359:A 0.000250201
24 *2743:B1 *1031:55 1.28809e-05
25 *2743:C1 *1031:41 5.74562e-05
26 *2743:C1 *1031:55 0.000847403
27 *2750:B1 *3359:A 1.95035e-05
28 *2778:A2 *2717:A3 0.00056243
29 *3115:A *1031:35 1.46576e-05
30 *3115:A *1031:41 8.14299e-05
31 *3116:A *1031:41 6.8646e-06
32 *3329:A *3359:A 0.00034321
33 *471:14 *3359:A 0.000530936
34 *501:8 *1031:10 3.21204e-05
35 *501:8 *1031:35 5.16014e-05
36 *501:8 *1031:41 5.58941e-05
37 *501:25 *2690:B 0.000114759
38 *501:25 *1031:41 0.000191403
39 *672:26 *1031:35 2.70944e-05
40 *672:26 *1031:41 7.95065e-05
41 *679:14 *2690:B 9.60939e-05
42 *679:14 *1031:10 1.53632e-05
43 *690:26 *1031:10 8.50152e-05
44 *718:10 *3359:A 3.34295e-05
45 *718:36 *3359:A 0.000103267
46 *770:8 *1031:35 0.000148189
47 *868:35 *2717:A3 1.94945e-05
48 *885:50 *2717:A3 0.00034488
49 *947:51 *2717:A3 4.19624e-06
50 *947:61 *2717:A3 7.02923e-05
51 *957:22 *3359:A 5.01876e-06
52 *965:33 *1031:55 0
53 *965:41 *1031:55 0.000175892
54 *974:22 *3359:A 6.38844e-06
55 *979:16 *2690:B 5.16637e-05
56 *995:12 *2690:B 0
57 *995:12 *1031:10 8.34876e-05
58 *995:12 *1031:35 3.11502e-05
*RES
1 *2679:X *1031:10 19.8089 
2 *1031:10 *2717:A3 23.1836 
3 *1031:10 *1031:35 7.47768 
4 *1031:35 *1031:41 8.45982 
5 *1031:41 *1031:55 17.25 
6 *1031:55 *3359:A 36.2464 
7 *1031:55 *2743:B2 9.3 
8 *1031:41 *2690:B 17.6393 
9 *1031:35 *2715:A1_N 9.3 
*END

*D_NET *1032 0.000304441
*CONN
*I *2660:A1 I *D sky130_fd_sc_hd__mux2_1
*I *3314:X O *D sky130_fd_sc_hd__clkbuf_1
*CAP
1 *2660:A1 0.000131162
2 *3314:X 0.000131162
3 *2660:A1 *1038:12 3.18676e-05
4 *2660:A0 *2660:A1 0
5 *2660:S *2660:A1 1.02504e-05
6 *2672:A0 *2660:A1 0
*RES
1 *3314:X *2660:A1 29.7786 
*END

*D_NET *1033 0.0107555
*CONN
*I *2839:D I *D sky130_fd_sc_hd__dlxtn_1
*I *3360:A I *D sky130_fd_sc_hd__buf_2
*I *3112:A I *D sky130_fd_sc_hd__clkbuf_1
*I *2463:B I *D sky130_fd_sc_hd__or2_1
*I *2687:B I *D sky130_fd_sc_hd__nand2_1
*I *2462:X O *D sky130_fd_sc_hd__and3b_1
*CAP
1 *2839:D 0.000124511
2 *3360:A 0.000514516
3 *3112:A 0
4 *2463:B 0.000372878
5 *2687:B 0.000269969
6 *2462:X 0.000641979
7 *1033:60 0.0010817
8 *1033:33 0.000995242
9 *1033:20 0.000485544
10 *1033:14 0.000926889
11 *3360:A *3361:A 0.000142856
12 *3360:A *1039:14 0.000441955
13 *1033:33 *1039:14 1.69115e-05
14 *1033:60 *1039:14 0.000357738
15 bvalid *3360:A 9.60875e-05
16 rdata[13] *3360:A 0.000186669
17 *2402:A *1033:14 2.89114e-05
18 *2403:A *2839:D 3.99614e-06
19 *2403:A *1033:14 0.000123542
20 *2688:A *2687:B 1.55885e-05
21 *2688:B *2463:B 1.24368e-05
22 *2688:B *2687:B 1.98839e-05
23 *2706:B *1033:20 0.000286986
24 *2706:B *1033:33 4.49293e-05
25 *2710:D_N *1033:14 4.94362e-05
26 *2725:B1 *3360:A 0
27 *2775:A2 *1033:60 0.000136951
28 *3105:CLK *1033:60 0.000407453
29 *3106:D *1033:60 0.000125724
30 *3107:D *1033:60 0.000367375
31 *3189:A *2839:D 0.000154225
32 *3189:A *1033:14 2.59355e-05
33 *3241:A *1033:14 1.99099e-05
34 *3251:A *3360:A 0
35 *3262:A *1033:60 5.00863e-05
36 *3278:A *3360:A 0
37 *3324:A *3360:A 0
38 *478:8 *1033:14 1.02821e-05
39 *511:16 *1033:14 0.000361075
40 *677:8 *2687:B 0.000222666
41 *678:10 *1033:14 0.000128154
42 *738:14 *1033:14 0
43 *772:104 *1033:60 0.00014734
44 *774:55 *1033:14 6.09572e-05
45 *776:31 *1033:14 0
46 *788:14 *3360:A 0
47 *788:14 *1033:60 0
48 *881:97 *3360:A 0
49 *883:10 *2463:B 3.14163e-05
50 *962:6 *3360:A 0.000221667
51 *972:10 *1033:20 0.000284556
52 *972:10 *1033:33 0.000103267
53 *972:10 *1033:60 0.000655281
*RES
1 *2462:X *1033:14 29.9071 
2 *1033:14 *1033:20 8.69643 
3 *1033:20 *2687:B 17.5321 
4 *1033:20 *1033:33 1.33929 
5 *1033:33 *2463:B 19.7107 
6 *1033:33 *1033:60 27.9643 
7 *1033:60 *3112:A 13.8 
8 *1033:60 *3360:A 25.3893 
9 *1033:14 *2839:D 12.0321 
*END

*D_NET *1034 0.00105578
*CONN
*I *3361:A I *D sky130_fd_sc_hd__buf_2
*I *3112:X O *D sky130_fd_sc_hd__clkbuf_1
*CAP
1 *3361:A 0.000247773
2 *3112:X 0.000247773
3 *3361:A *1039:14 0.000178092
4 *2766:A1 *3361:A 5.71472e-05
5 *3278:A *3361:A 0
6 *3360:A *3361:A 0.000142856
7 *794:14 *3361:A 0
8 *962:6 *3361:A 0.000142856
9 *972:10 *3361:A 3.92854e-05
*RES
1 *3112:X *3361:A 33.8679 
*END

*D_NET *1035 0.00198272
*CONN
*I *3362:A I *D sky130_fd_sc_hd__buf_2
*I *2806:Q O *D sky130_fd_sc_hd__dlxtn_1
*CAP
1 *3362:A 0.00050657
2 *2806:Q 0.00050657
3 *3362:A *3363:A 0.000131338
4 *3362:A *3364:A 2.91074e-05
5 *3362:A *1040:18 0.000102198
6 PWDATA[0] *3362:A 9.65217e-05
7 PWDATA[11] *3362:A 6.57026e-05
8 rdata[14] *3362:A 5.71472e-05
9 *2476:B *3362:A 0.000150718
10 *2822:D *3362:A 9.56968e-05
11 *3343:A *3362:A 0.000149556
12 *3349:A *3362:A 8.39e-05
13 *431:57 *3362:A 0
14 *813:30 *3362:A 7.69776e-06
15 *884:47 *3362:A 0
*RES
1 *2806:Q *3362:A 40.4393 
*END

*D_NET *1036 0.00162128
*CONN
*I *3363:A I *D sky130_fd_sc_hd__buf_2
*I *2816:Q O *D sky130_fd_sc_hd__dlxtn_1
*CAP
1 *3363:A 0.000364258
2 *2816:Q 0.000364258
3 *3363:A *1040:18 0.000533509
4 *3343:A *3363:A 0.000149556
5 *3356:A *3363:A 7.83587e-05
6 *3362:A *3363:A 0.000131338
7 *884:47 *3363:A 0
*RES
1 *2816:Q *3363:A 36.5821 
*END

*D_NET *1037 0.00247199
*CONN
*I *3364:A I *D sky130_fd_sc_hd__buf_2
*I *2817:Q O *D sky130_fd_sc_hd__dlxtn_1
*CAP
1 *3364:A 0.000403495
2 *2817:Q 0.000403495
3 PWDATA[0] *3364:A 0.000148867
4 rdata[10] *3364:A 0.000662099
5 *2476:B *3364:A 0.000362048
6 *2822:D *3364:A 0.000179656
7 *2824:D *3364:A 1.17968e-05
8 *3308:A *3364:A 8.77022e-05
9 *3362:A *3364:A 2.91074e-05
10 *791:8 *3364:A 0.000183726
*RES
1 *2817:Q *3364:A 41.3321 
*END

*D_NET *1038 0.0100844
*CONN
*I *3365:A I *D sky130_fd_sc_hd__buf_2
*I *2818:Q O *D sky130_fd_sc_hd__dlxtn_1
*CAP
1 *3365:A 2.23854e-05
2 *2818:Q 9.4926e-05
3 *1038:12 0.00145849
4 *1038:10 0.00153103
5 *1038:10 *3368:A 3.71566e-05
6 *2658:A0 *1038:12 2.14658e-05
7 *2660:A1 *1038:12 3.18676e-05
8 *2661:A0 *1038:12 0.000105163
9 *2665:A0 *1038:12 0.000492333
10 *2665:A1 *1038:12 6.78942e-05
11 *2668:A1 *1038:12 0.000363837
12 *2669:A1 *1038:12 8.07313e-05
13 *2672:A0 *1038:12 3.18676e-05
14 *3258:A *1038:12 5.52302e-05
15 *3260:A *1038:12 5.52302e-05
16 *3264:A *1038:12 5.52302e-05
17 *3275:A *1038:12 5.52302e-05
18 *3292:A *1038:12 0.000139907
19 *3293:A *1038:12 5.52302e-05
20 *3294:A *1038:12 0.000142856
21 *3295:A *1038:12 0.000271352
22 *3298:A *1038:12 0.000142856
23 *3299:A *1038:12 5.52302e-05
24 *3301:A *1038:12 5.52302e-05
25 *3302:A *1038:12 5.52302e-05
26 *3305:A *1038:12 5.52302e-05
27 *3306:A *1038:12 5.52302e-05
28 *3307:A *1038:12 5.52302e-05
29 *3309:A *1038:12 0.000186669
30 *3314:A *1038:12 5.52302e-05
31 *3328:A *1038:10 0
32 *790:12 *1038:12 0.00123361
33 *791:16 *1038:12 0.00228379
34 *986:12 *1038:12 0.00068147
*RES
1 *2818:Q *1038:10 19.9429 
2 *1038:10 *1038:12 53.5179 
3 *1038:12 *3365:A 9.72857 
*END

*D_NET *1039 0.00719375
*CONN
*I *3366:A I *D sky130_fd_sc_hd__buf_2
*I *2819:Q O *D sky130_fd_sc_hd__dlxtn_1
*CAP
1 *3366:A 0
2 *2819:Q 0.000130153
3 *1039:14 0.00119995
4 *1039:8 0.00133011
5 *2487:A *1039:14 0.000557537
6 *2687:A *1039:14 0.000217877
7 *2706:B *1039:14 0.000311667
8 *2775:A2 *1039:14 0.000125674
9 *3105:CLK *1039:14 0.000565051
10 *3106:D *1039:14 6.65302e-05
11 *3191:A *1039:14 0.000544556
12 *3360:A *1039:14 0.000441955
13 *3361:A *1039:14 0.000178092
14 *738:14 *1039:14 7.56271e-05
15 *772:104 *1039:14 0.00014734
16 *788:14 *1039:14 0
17 *878:73 *1039:8 0.000182694
18 *962:6 *1039:14 5.52302e-05
19 *972:10 *1039:14 0
20 *980:10 *1039:14 0.000689061
21 *1033:33 *1039:14 1.69115e-05
22 *1033:60 *1039:14 0.000357738
*RES
1 *2819:Q *1039:8 15.5679 
2 *1039:8 *1039:14 43.4107 
3 *1039:14 *3366:A 9.3 
*END

*D_NET *1040 0.00724938
*CONN
*I *3367:A I *D sky130_fd_sc_hd__buf_2
*I *2820:Q O *D sky130_fd_sc_hd__dlxtn_1
*CAP
1 *3367:A 0.000612672
2 *2820:Q 0.00166644
3 *1040:18 0.00227912
4 PWDATA[0] *1040:18 0
5 PWDATA[10] *1040:18 0
6 PWDATA[12] *1040:18 6.76337e-05
7 PWDATA[2] *1040:18 4.75911e-05
8 rdata[11] *1040:18 0
9 rdata[14] *3367:A 4.15914e-05
10 rdata[14] *1040:18 0.000171341
11 rdata[3] *3367:A 0.000139907
12 *2670:A0 *3367:A 0.000246697
13 *2806:D *3367:A 2.44318e-05
14 *2806:D *1040:18 3.14078e-05
15 *2806:GATE_N *3367:A 8.66063e-05
16 *2834:D *1040:18 0
17 *3279:A *1040:18 5.94788e-05
18 *3286:A *1040:18 3.71247e-05
19 *3325:A *3367:A 9.41642e-05
20 *3327:A *3367:A 4.47937e-05
21 *3341:A *3367:A 0.000142856
22 *3342:A *1040:18 8.39e-05
23 *3349:A *1040:18 0.00015304
24 *3356:A *1040:18 3.55152e-05
25 *3362:A *1040:18 0.000102198
26 *3363:A *1040:18 0.000533509
27 *426:10 *3367:A 0
28 *813:30 *1040:18 1.90936e-05
29 *846:28 *3367:A 0.000142856
30 *877:43 *3367:A 1.92905e-05
31 *877:58 *3367:A 0.000182401
32 *877:64 *3367:A 0.00018372
33 *884:47 *1040:18 0
34 *970:10 *1040:18 0
*RES
1 *2820:Q *1040:18 49.5679 
2 *1040:18 *3367:A 32.1214 
*END

*D_NET *1041 0.000967289
*CONN
*I *3368:A I *D sky130_fd_sc_hd__buf_2
*I *2821:Q O *D sky130_fd_sc_hd__dlxtn_1
*CAP
1 *3368:A 0.000371732
2 *2821:Q 0.000371732
3 *2818:D *3368:A 0
4 *3321:A *3368:A 0
5 *3328:A *3368:A 0
6 *846:28 *3368:A 0.000186669
7 *1038:10 *3368:A 3.71566e-05
*RES
1 *2821:Q *3368:A 33.7429 
*END

*D_NET *1042 0.0125101
*CONN
*I *3369:A I *D sky130_fd_sc_hd__buf_2
*I *2807:Q O *D sky130_fd_sc_hd__dlxtn_1
*CAP
1 *3369:A 0.00356214
2 *2807:Q 0.00356214
3 rdata[1] *3369:A 5.92267e-05
4 *2486:B1 *3369:A 2.11419e-05
5 *2536:A2 *3369:A 0.000189215
6 *2538:B1 *3369:A 2.04736e-05
7 *2637:A2 *3369:A 0.000231025
8 *2910:D *3369:A 1.01912e-05
9 *2926:GATE_N *3369:A 0.000996814
10 *3027:GATE_N *3369:A 0.00268914
11 *580:22 *3369:A 1.31686e-05
12 *836:20 *3369:A 0.000165545
13 *859:30 *3369:A 0.000320888
14 *859:44 *3369:A 0.000415851
15 *923:53 *3369:A 0.000253125
*RES
1 *2807:Q *3369:A 48.2591 
*END
