*SPEF "ieee 1481-1999"
*DESIGN "bridge"
*DATE "10:07:24 Thursday May 07, 2026"
*VENDOR "The OpenROAD Project"
*PROGRAM "OpenROAD"
*VERSION "edf00dff99f6c40d67a30c0e22a8191c5d2ed9d6"
*DESIGN_FLOW "NAME_SCOPE LOCAL" "PIN_CAP NONE"
*DIVIDER /
*DELIMITER :
*BUS_DELIMITER []
*T_UNIT 1 NS
*C_UNIT 1 PF
*R_UNIT 1 OHM
*L_UNIT 1 HENRY

*NAME_MAP
*1 PADDR[0]
*2 PADDR[1]
*3 PADDR[2]
*4 PENABLE
*5 PRDATA[0]
*6 PRDATA[10]
*7 PRDATA[11]
*8 PRDATA[12]
*9 PRDATA[13]
*10 PRDATA[14]
*11 PRDATA[15]
*12 PRDATA[1]
*13 PRDATA[2]
*14 PRDATA[3]
*15 PRDATA[4]
*16 PRDATA[5]
*17 PRDATA[6]
*18 PRDATA[7]
*19 PRDATA[8]
*20 PRDATA[9]
*21 PREADY
*22 net57
*23 net58
*24 net59
*25 net60
*26 net61
*27 net71
*28 net72
*29 net73
*30 net74
*31 net75
*32 net76
*33 net62
*34 net63
*35 net64
*36 net65
*37 net66
*38 net67
*39 net68
*40 net69
*41 net70
*42 PWRITE
*45 araddr[0]
*46 araddr[1]
*47 araddr[2]
*48 araddr[3]
*49 araddr[4]
*50 arburst[0]
*51 arburst[1]
*52 arlen[0]
*53 arlen[1]
*54 arlen[2]
*55 arlen[3]
*56 arready
*57 arvalid
*58 awaddr[0]
*59 awaddr[1]
*60 awaddr[2]
*61 awaddr[3]
*62 awaddr[4]
*63 awburst[0]
*64 awburst[1]
*65 awlen[0]
*66 awlen[1]
*67 awlen[2]
*68 awlen[3]
*69 awready
*70 awvalid
*71 bready
*72 bresp
*73 bvalid
*74 clk
*75 net77
*76 net87
*77 net88
*78 net89
*79 net90
*80 net91
*81 net92
*82 net78
*83 net79
*84 net80
*85 net81
*86 net82
*87 net83
*88 net84
*89 net85
*90 net86
*91 res_n
*92 rlast
*93 rready
*94 rresp
*95 rvalid
*96 wdata[0]
*97 wdata[10]
*98 wdata[11]
*99 wdata[12]
*100 wdata[13]
*101 wdata[14]
*102 wdata[15]
*103 wdata[1]
*104 wdata[2]
*105 wdata[3]
*106 wdata[4]
*107 wdata[5]
*108 wdata[6]
*109 wdata[7]
*110 wdata[8]
*111 wdata[9]
*112 wlast
*113 wready
*114 wvalid
*115 DADDR\[0\]
*116 DADDR\[1\]
*117 DADDR\[2\]
*118 DWREQ
*119 _000_
*120 _001_
*121 _002_
*122 _003_
*123 _004_
*124 _005_
*125 _006_
*126 _007_
*127 _008_
*128 _009_
*129 _010_
*130 _011_
*131 _012_
*132 _013_
*133 _014_
*134 _015_
*135 _016_
*136 _017_
*137 _018_
*138 _019_
*139 _020_
*140 _021_
*141 _022_
*142 _023_
*143 _024_
*144 _025_
*145 _026_
*146 _027_
*147 _028_
*148 _029_
*149 _030_
*150 _031_
*151 _032_
*152 _033_
*153 _034_
*154 _035_
*155 _036_
*156 _037_
*157 _038_
*158 _039_
*159 _040_
*160 _041_
*161 _042_
*162 _043_
*163 _044_
*164 _045_
*165 _046_
*166 _047_
*167 _048_
*168 _049_
*169 _050_
*170 _051_
*171 _052_
*172 _053_
*173 _054_
*174 _055_
*175 _056_
*176 _057_
*177 _058_
*178 _059_
*179 _060_
*180 _061_
*181 _062_
*182 _063_
*183 _064_
*184 _065_
*185 _066_
*186 _067_
*187 _068_
*188 _069_
*189 _070_
*190 _071_
*191 _072_
*192 _073_
*193 _074_
*194 _075_
*195 _076_
*196 _077_
*197 _078_
*198 _079_
*199 _080_
*200 _081_
*201 _082_
*202 _083_
*203 _084_
*204 _085_
*205 _086_
*206 _087_
*207 _088_
*208 _089_
*209 _090_
*210 _091_
*211 _092_
*212 _093_
*213 _094_
*214 _095_
*215 _096_
*216 _097_
*217 _098_
*218 _099_
*219 _100_
*220 _101_
*221 _102_
*222 _103_
*223 _104_
*224 _105_
*225 _106_
*226 _107_
*227 _108_
*228 _109_
*229 _110_
*230 _111_
*231 _112_
*232 _113_
*233 _114_
*234 _115_
*235 _116_
*236 _117_
*237 _118_
*238 _119_
*239 _120_
*240 _121_
*241 _122_
*242 _123_
*243 _124_
*244 _125_
*245 araddr_pipe\[0\]
*246 araddr_pipe\[1\]
*247 araddr_pipe\[2\]
*248 arburst_pipe\[0\]
*249 arburst_pipe\[1\]
*250 arlen_pipe\[0\]
*251 arlen_pipe\[1\]
*252 arlen_pipe\[2\]
*253 arlen_pipe\[3\]
*254 arvalid_pipe
*255 awaddr_pipe\[0\]
*256 awaddr_pipe\[1\]
*257 awaddr_pipe\[2\]
*258 awburst_pipe\[0\]
*259 awburst_pipe\[1\]
*260 awlen_pipe\[0\]
*261 awlen_pipe\[1\]
*262 awlen_pipe\[2\]
*263 awlen_pipe\[3\]
*264 awvalid_pipe
*265 burst\[0\]
*266 burst\[1\]
*267 clknet_0_clk
*268 clknet_2_0__leaf_clk
*269 clknet_2_1__leaf_clk
*270 clknet_2_2__leaf_clk
*271 clknet_2_3__leaf_clk
*272 current_state\[0\]
*273 current_state\[1\]
*274 current_state\[2\]
*275 current_state\[3\]
*276 last
*277 lenM\[0\]
*278 lenM\[1\]
*279 lenM\[2\]
*280 lenM\[3\]
*281 lenS\[0\]
*282 lenS\[1\]
*283 lenS\[2\]
*284 lenS\[3\]
*285 net1
*286 net10
*287 net11
*288 net12
*289 net13
*290 net14
*291 net15
*292 net16
*293 net17
*294 net18
*295 net19
*296 net2
*297 net20
*298 net21
*299 net22
*300 net23
*301 net24
*302 net25
*303 net26
*304 net27
*305 net28
*306 net29
*307 net3
*308 net30
*309 net31
*310 net32
*311 net33
*312 net34
*313 net35
*314 net36
*315 net37
*316 net38
*317 net39
*318 net4
*319 net40
*320 net41
*321 net42
*322 net43
*323 net44
*324 net45
*325 net46
*326 net47
*327 net48
*328 net49
*329 net5
*330 net50
*331 net51
*332 net52
*333 net53
*334 net54
*335 net55
*336 net56
*337 net6
*338 net7
*339 net8
*340 net9
*341 net93
*342 net94
*343 net95
*344 net96
*345 net97
*346 net98
*347 wvalid_pipe
*348 FILLER_0_104
*349 FILLER_0_113
*350 FILLER_0_121
*351 FILLER_0_125
*352 FILLER_0_132
*353 FILLER_0_141
*354 FILLER_0_15
*355 FILLER_0_153
*356 FILLER_0_165
*357 FILLER_0_27
*358 FILLER_0_29
*359 FILLER_0_3
*360 FILLER_0_34
*361 FILLER_0_46
*362 FILLER_0_57
*363 FILLER_0_62
*364 FILLER_0_70
*365 FILLER_0_76
*366 FILLER_0_85
*367 FILLER_0_91
*368 FILLER_0_98
*369 FILLER_10_109
*370 FILLER_10_113
*371 FILLER_10_118
*372 FILLER_10_12
*373 FILLER_10_144
*374 FILLER_10_150
*375 FILLER_10_157
*376 FILLER_10_169
*377 FILLER_10_17
*378 FILLER_10_25
*379 FILLER_10_29
*380 FILLER_10_6
*381 FILLER_10_72
*382 FILLER_10_78
*383 FILLER_10_85
*384 FILLER_10_97
*385 FILLER_11_106
*386 FILLER_11_116
*387 FILLER_11_128
*388 FILLER_11_134
*389 FILLER_11_162
*390 FILLER_11_169
*391 FILLER_11_173
*392 FILLER_11_23
*393 FILLER_11_35
*394 FILLER_11_51
*395 FILLER_11_55
*396 FILLER_11_57
*397 FILLER_11_62
*398 FILLER_11_70
*399 FILLER_11_85
*400 FILLER_12_112
*401 FILLER_12_133
*402 FILLER_12_14
*403 FILLER_12_161
*404 FILLER_12_168
*405 FILLER_12_26
*406 FILLER_12_52
*407 FILLER_12_60
*408 FILLER_12_64
*409 FILLER_12_70
*410 FILLER_12_79
*411 FILLER_12_83
*412 FILLER_12_85
*413 FILLER_12_89
*414 FILLER_12_94
*415 FILLER_13_102
*416 FILLER_13_113
*417 FILLER_13_122
*418 FILLER_13_126
*419 FILLER_13_139
*420 FILLER_13_151
*421 FILLER_13_169
*422 FILLER_13_177
*423 FILLER_13_24
*424 FILLER_13_28
*425 FILLER_13_3
*426 FILLER_13_52
*427 FILLER_13_57
*428 FILLER_13_66
*429 FILLER_13_72
*430 FILLER_14_105
*431 FILLER_14_111
*432 FILLER_14_116
*433 FILLER_14_125
*434 FILLER_14_137
*435 FILLER_14_157
*436 FILLER_14_166
*437 FILLER_14_170
*438 FILLER_14_23
*439 FILLER_14_27
*440 FILLER_14_35
*441 FILLER_14_45
*442 FILLER_14_51
*443 FILLER_14_57
*444 FILLER_14_69
*445 FILLER_14_81
*446 FILLER_15_106
*447 FILLER_15_110
*448 FILLER_15_119
*449 FILLER_15_131
*450 FILLER_15_14
*451 FILLER_15_143
*452 FILLER_15_151
*453 FILLER_15_166
*454 FILLER_15_174
*455 FILLER_15_37
*456 FILLER_15_49
*457 FILLER_15_55
*458 FILLER_15_57
*459 FILLER_15_6
*460 FILLER_15_65
*461 FILLER_15_70
*462 FILLER_15_82
*463 FILLER_15_90
*464 FILLER_16_139
*465 FILLER_16_151
*466 FILLER_16_163
*467 FILLER_16_171
*468 FILLER_16_18
*469 FILLER_16_26
*470 FILLER_16_29
*471 FILLER_16_37
*472 FILLER_16_57
*473 FILLER_16_6
*474 FILLER_16_79
*475 FILLER_16_83
*476 FILLER_16_85
*477 FILLER_16_97
*478 FILLER_17_104
*479 FILLER_17_113
*480 FILLER_17_125
*481 FILLER_17_138
*482 FILLER_17_150
*483 FILLER_17_169
*484 FILLER_17_18
*485 FILLER_17_30
*486 FILLER_17_6
*487 FILLER_17_62
*488 FILLER_17_68
*489 FILLER_17_92
*490 FILLER_18_118
*491 FILLER_18_145
*492 FILLER_18_151
*493 FILLER_18_167
*494 FILLER_18_175
*495 FILLER_18_23
*496 FILLER_18_27
*497 FILLER_18_36
*498 FILLER_18_49
*499 FILLER_18_55
*500 FILLER_18_67
*501 FILLER_18_79
*502 FILLER_18_83
*503 FILLER_18_94
*504 FILLER_19_111
*505 FILLER_19_113
*506 FILLER_19_146
*507 FILLER_19_156
*508 FILLER_19_169
*509 FILLER_19_18
*510 FILLER_19_30
*511 FILLER_19_42
*512 FILLER_19_54
*513 FILLER_19_6
*514 FILLER_19_65
*515 FILLER_19_77
*516 FILLER_19_96
*517 FILLER_1_102
*518 FILLER_1_110
*519 FILLER_1_113
*520 FILLER_1_121
*521 FILLER_1_142
*522 FILLER_1_15
*523 FILLER_1_154
*524 FILLER_1_166
*525 FILLER_1_169
*526 FILLER_1_27
*527 FILLER_1_3
*528 FILLER_1_48
*529 FILLER_1_57
*530 FILLER_1_69
*531 FILLER_1_90
*532 FILLER_20_106
*533 FILLER_20_138
*534 FILLER_20_141
*535 FILLER_20_158
*536 FILLER_20_170
*537 FILLER_20_174
*538 FILLER_20_42
*539 FILLER_20_65
*540 FILLER_20_7
*541 FILLER_20_77
*542 FILLER_20_83
*543 FILLER_20_85
*544 FILLER_21_102
*545 FILLER_21_110
*546 FILLER_21_113
*547 FILLER_21_122
*548 FILLER_21_134
*549 FILLER_21_146
*550 FILLER_21_151
*551 FILLER_21_163
*552 FILLER_21_167
*553 FILLER_21_169
*554 FILLER_21_173
*555 FILLER_21_23
*556 FILLER_21_35
*557 FILLER_21_47
*558 FILLER_21_55
*559 FILLER_21_57
*560 FILLER_21_65
*561 FILLER_21_82
*562 FILLER_21_94
*563 FILLER_22_111
*564 FILLER_22_119
*565 FILLER_22_141
*566 FILLER_22_153
*567 FILLER_22_165
*568 FILLER_22_177
*569 FILLER_22_21
*570 FILLER_22_27
*571 FILLER_22_29
*572 FILLER_22_41
*573 FILLER_22_53
*574 FILLER_22_59
*575 FILLER_22_68
*576 FILLER_22_80
*577 FILLER_22_85
*578 FILLER_22_9
*579 FILLER_22_99
*580 FILLER_23_106
*581 FILLER_23_113
*582 FILLER_23_125
*583 FILLER_23_146
*584 FILLER_23_158
*585 FILLER_23_166
*586 FILLER_23_169
*587 FILLER_23_177
*588 FILLER_23_23
*589 FILLER_23_31
*590 FILLER_23_52
*591 FILLER_23_66
*592 FILLER_23_78
*593 FILLER_23_90
*594 FILLER_24_101
*595 FILLER_24_133
*596 FILLER_24_139
*597 FILLER_24_141
*598 FILLER_24_153
*599 FILLER_24_165
*600 FILLER_24_177
*601 FILLER_24_23
*602 FILLER_24_27
*603 FILLER_24_29
*604 FILLER_24_41
*605 FILLER_24_49
*606 FILLER_24_71
*607 FILLER_24_83
*608 FILLER_24_85
*609 FILLER_24_97
*610 FILLER_25_111
*611 FILLER_25_113
*612 FILLER_25_125
*613 FILLER_25_137
*614 FILLER_25_149
*615 FILLER_25_161
*616 FILLER_25_167
*617 FILLER_25_169
*618 FILLER_25_17
*619 FILLER_25_39
*620 FILLER_25_51
*621 FILLER_25_55
*622 FILLER_25_57
*623 FILLER_25_69
*624 FILLER_25_75
*625 FILLER_25_9
*626 FILLER_25_97
*627 FILLER_26_109
*628 FILLER_26_121
*629 FILLER_26_133
*630 FILLER_26_139
*631 FILLER_26_141
*632 FILLER_26_153
*633 FILLER_26_165
*634 FILLER_26_173
*635 FILLER_26_18
*636 FILLER_26_26
*637 FILLER_26_29
*638 FILLER_26_41
*639 FILLER_26_53
*640 FILLER_26_6
*641 FILLER_26_65
*642 FILLER_26_77
*643 FILLER_26_83
*644 FILLER_26_85
*645 FILLER_26_97
*646 FILLER_27_105
*647 FILLER_27_111
*648 FILLER_27_113
*649 FILLER_27_125
*650 FILLER_27_137
*651 FILLER_27_149
*652 FILLER_27_161
*653 FILLER_27_167
*654 FILLER_27_169
*655 FILLER_27_18
*656 FILLER_27_30
*657 FILLER_27_42
*658 FILLER_27_54
*659 FILLER_27_57
*660 FILLER_27_6
*661 FILLER_27_69
*662 FILLER_27_81
*663 FILLER_27_93
*664 FILLER_28_109
*665 FILLER_28_115
*666 FILLER_28_123
*667 FILLER_28_135
*668 FILLER_28_139
*669 FILLER_28_141
*670 FILLER_28_15
*671 FILLER_28_153
*672 FILLER_28_165
*673 FILLER_28_27
*674 FILLER_28_29
*675 FILLER_28_3
*676 FILLER_28_41
*677 FILLER_28_53
*678 FILLER_28_65
*679 FILLER_28_77
*680 FILLER_28_83
*681 FILLER_28_85
*682 FILLER_28_97
*683 FILLER_29_104
*684 FILLER_29_111
*685 FILLER_29_113
*686 FILLER_29_119
*687 FILLER_29_12
*688 FILLER_29_126
*689 FILLER_29_132
*690 FILLER_29_139
*691 FILLER_29_141
*692 FILLER_29_146
*693 FILLER_29_153
*694 FILLER_29_160
*695 FILLER_29_167
*696 FILLER_29_169
*697 FILLER_29_174
*698 FILLER_29_24
*699 FILLER_29_29
*700 FILLER_29_41
*701 FILLER_29_53
*702 FILLER_29_57
*703 FILLER_29_69
*704 FILLER_29_77
*705 FILLER_29_83
*706 FILLER_29_85
*707 FILLER_29_90
*708 FILLER_29_97
*709 FILLER_2_138
*710 FILLER_2_15
*711 FILLER_2_161
*712 FILLER_2_173
*713 FILLER_2_27
*714 FILLER_2_29
*715 FILLER_2_3
*716 FILLER_2_41
*717 FILLER_2_51
*718 FILLER_2_73
*719 FILLER_2_82
*720 FILLER_2_85
*721 FILLER_2_91
*722 FILLER_2_97
*723 FILLER_3_110
*724 FILLER_3_113
*725 FILLER_3_121
*726 FILLER_3_140
*727 FILLER_3_152
*728 FILLER_3_164
*729 FILLER_3_169
*730 FILLER_3_177
*731 FILLER_3_23
*732 FILLER_3_35
*733 FILLER_3_57
*734 FILLER_3_63
*735 FILLER_3_71
*736 FILLER_3_87
*737 FILLER_4_108
*738 FILLER_4_120
*739 FILLER_4_138
*740 FILLER_4_141
*741 FILLER_4_153
*742 FILLER_4_165
*743 FILLER_4_173
*744 FILLER_4_18
*745 FILLER_4_26
*746 FILLER_4_29
*747 FILLER_4_41
*748 FILLER_4_56
*749 FILLER_4_6
*750 FILLER_4_66
*751 FILLER_4_85
*752 FILLER_5_105
*753 FILLER_5_111
*754 FILLER_5_113
*755 FILLER_5_121
*756 FILLER_5_142
*757 FILLER_5_15
*758 FILLER_5_154
*759 FILLER_5_166
*760 FILLER_5_169
*761 FILLER_5_27
*762 FILLER_5_3
*763 FILLER_5_39
*764 FILLER_5_51
*765 FILLER_5_55
*766 FILLER_5_57
*767 FILLER_5_69
*768 FILLER_5_81
*769 FILLER_5_93
*770 FILLER_6_101
*771 FILLER_6_149
*772 FILLER_6_161
*773 FILLER_6_173
*774 FILLER_6_18
*775 FILLER_6_26
*776 FILLER_6_29
*777 FILLER_6_41
*778 FILLER_6_6
*779 FILLER_6_70
*780 FILLER_6_77
*781 FILLER_6_83
*782 FILLER_6_85
*783 FILLER_6_97
*784 FILLER_7_110
*785 FILLER_7_119
*786 FILLER_7_123
*787 FILLER_7_132
*788 FILLER_7_144
*789 FILLER_7_156
*790 FILLER_7_169
*791 FILLER_7_38
*792 FILLER_7_52
*793 FILLER_7_6
*794 FILLER_7_66
*795 FILLER_8_101
*796 FILLER_8_111
*797 FILLER_8_131
*798 FILLER_8_139
*799 FILLER_8_141
*800 FILLER_8_153
*801 FILLER_8_165
*802 FILLER_8_177
*803 FILLER_8_23
*804 FILLER_8_27
*805 FILLER_8_29
*806 FILLER_8_41
*807 FILLER_8_53
*808 FILLER_8_65
*809 FILLER_8_77
*810 FILLER_8_83
*811 FILLER_8_85
*812 FILLER_8_97
*813 FILLER_9_109
*814 FILLER_9_113
*815 FILLER_9_134
*816 FILLER_9_160
*817 FILLER_9_169
*818 FILLER_9_18
*819 FILLER_9_26
*820 FILLER_9_49
*821 FILLER_9_55
*822 FILLER_9_6
*823 FILLER_9_73
*824 FILLER_9_85
*825 FILLER_9_91
*826 PHY_EDGE_ROW_0_Left_30
*827 PHY_EDGE_ROW_0_Right_0
*828 PHY_EDGE_ROW_10_Left_40
*829 PHY_EDGE_ROW_10_Right_10
*830 PHY_EDGE_ROW_11_Left_41
*831 PHY_EDGE_ROW_11_Right_11
*832 PHY_EDGE_ROW_12_Left_42
*833 PHY_EDGE_ROW_12_Right_12
*834 PHY_EDGE_ROW_13_Left_43
*835 PHY_EDGE_ROW_13_Right_13
*836 PHY_EDGE_ROW_14_Left_44
*837 PHY_EDGE_ROW_14_Right_14
*838 PHY_EDGE_ROW_15_Left_45
*839 PHY_EDGE_ROW_15_Right_15
*840 PHY_EDGE_ROW_16_Left_46
*841 PHY_EDGE_ROW_16_Right_16
*842 PHY_EDGE_ROW_17_Left_47
*843 PHY_EDGE_ROW_17_Right_17
*844 PHY_EDGE_ROW_18_Left_48
*845 PHY_EDGE_ROW_18_Right_18
*846 PHY_EDGE_ROW_19_Left_49
*847 PHY_EDGE_ROW_19_Right_19
*848 PHY_EDGE_ROW_1_Left_31
*849 PHY_EDGE_ROW_1_Right_1
*850 PHY_EDGE_ROW_20_Left_50
*851 PHY_EDGE_ROW_20_Right_20
*852 PHY_EDGE_ROW_21_Left_51
*853 PHY_EDGE_ROW_21_Right_21
*854 PHY_EDGE_ROW_22_Left_52
*855 PHY_EDGE_ROW_22_Right_22
*856 PHY_EDGE_ROW_23_Left_53
*857 PHY_EDGE_ROW_23_Right_23
*858 PHY_EDGE_ROW_24_Left_54
*859 PHY_EDGE_ROW_24_Right_24
*860 PHY_EDGE_ROW_25_Left_55
*861 PHY_EDGE_ROW_25_Right_25
*862 PHY_EDGE_ROW_26_Left_56
*863 PHY_EDGE_ROW_26_Right_26
*864 PHY_EDGE_ROW_27_Left_57
*865 PHY_EDGE_ROW_27_Right_27
*866 PHY_EDGE_ROW_28_Left_58
*867 PHY_EDGE_ROW_28_Right_28
*868 PHY_EDGE_ROW_29_Left_59
*869 PHY_EDGE_ROW_29_Right_29
*870 PHY_EDGE_ROW_2_Left_32
*871 PHY_EDGE_ROW_2_Right_2
*872 PHY_EDGE_ROW_3_Left_33
*873 PHY_EDGE_ROW_3_Right_3
*874 PHY_EDGE_ROW_4_Left_34
*875 PHY_EDGE_ROW_4_Right_4
*876 PHY_EDGE_ROW_5_Left_35
*877 PHY_EDGE_ROW_5_Right_5
*878 PHY_EDGE_ROW_6_Left_36
*879 PHY_EDGE_ROW_6_Right_6
*880 PHY_EDGE_ROW_7_Left_37
*881 PHY_EDGE_ROW_7_Right_7
*882 PHY_EDGE_ROW_8_Left_38
*883 PHY_EDGE_ROW_8_Right_8
*884 PHY_EDGE_ROW_9_Left_39
*885 PHY_EDGE_ROW_9_Right_9
*886 TAP_TAPCELL_ROW_0_60
*887 TAP_TAPCELL_ROW_0_61
*888 TAP_TAPCELL_ROW_0_62
*889 TAP_TAPCELL_ROW_0_63
*890 TAP_TAPCELL_ROW_0_64
*891 TAP_TAPCELL_ROW_0_65
*892 TAP_TAPCELL_ROW_10_93
*893 TAP_TAPCELL_ROW_10_94
*894 TAP_TAPCELL_ROW_10_95
*895 TAP_TAPCELL_ROW_11_96
*896 TAP_TAPCELL_ROW_11_97
*897 TAP_TAPCELL_ROW_11_98
*898 TAP_TAPCELL_ROW_12_100
*899 TAP_TAPCELL_ROW_12_101
*900 TAP_TAPCELL_ROW_12_99
*901 TAP_TAPCELL_ROW_13_102
*902 TAP_TAPCELL_ROW_13_103
*903 TAP_TAPCELL_ROW_13_104
*904 TAP_TAPCELL_ROW_14_105
*905 TAP_TAPCELL_ROW_14_106
*906 TAP_TAPCELL_ROW_14_107
*907 TAP_TAPCELL_ROW_15_108
*908 TAP_TAPCELL_ROW_15_109
*909 TAP_TAPCELL_ROW_15_110
*910 TAP_TAPCELL_ROW_16_111
*911 TAP_TAPCELL_ROW_16_112
*912 TAP_TAPCELL_ROW_16_113
*913 TAP_TAPCELL_ROW_17_114
*914 TAP_TAPCELL_ROW_17_115
*915 TAP_TAPCELL_ROW_17_116
*916 TAP_TAPCELL_ROW_18_117
*917 TAP_TAPCELL_ROW_18_118
*918 TAP_TAPCELL_ROW_18_119
*919 TAP_TAPCELL_ROW_19_120
*920 TAP_TAPCELL_ROW_19_121
*921 TAP_TAPCELL_ROW_19_122
*922 TAP_TAPCELL_ROW_1_66
*923 TAP_TAPCELL_ROW_1_67
*924 TAP_TAPCELL_ROW_1_68
*925 TAP_TAPCELL_ROW_20_123
*926 TAP_TAPCELL_ROW_20_124
*927 TAP_TAPCELL_ROW_20_125
*928 TAP_TAPCELL_ROW_21_126
*929 TAP_TAPCELL_ROW_21_127
*930 TAP_TAPCELL_ROW_21_128
*931 TAP_TAPCELL_ROW_22_129
*932 TAP_TAPCELL_ROW_22_130
*933 TAP_TAPCELL_ROW_22_131
*934 TAP_TAPCELL_ROW_23_132
*935 TAP_TAPCELL_ROW_23_133
*936 TAP_TAPCELL_ROW_23_134
*937 TAP_TAPCELL_ROW_24_135
*938 TAP_TAPCELL_ROW_24_136
*939 TAP_TAPCELL_ROW_24_137
*940 TAP_TAPCELL_ROW_25_138
*941 TAP_TAPCELL_ROW_25_139
*942 TAP_TAPCELL_ROW_25_140
*943 TAP_TAPCELL_ROW_26_141
*944 TAP_TAPCELL_ROW_26_142
*945 TAP_TAPCELL_ROW_26_143
*946 TAP_TAPCELL_ROW_27_144
*947 TAP_TAPCELL_ROW_27_145
*948 TAP_TAPCELL_ROW_27_146
*949 TAP_TAPCELL_ROW_28_147
*950 TAP_TAPCELL_ROW_28_148
*951 TAP_TAPCELL_ROW_28_149
*952 TAP_TAPCELL_ROW_29_150
*953 TAP_TAPCELL_ROW_29_151
*954 TAP_TAPCELL_ROW_29_152
*955 TAP_TAPCELL_ROW_29_153
*956 TAP_TAPCELL_ROW_29_154
*957 TAP_TAPCELL_ROW_29_155
*958 TAP_TAPCELL_ROW_2_69
*959 TAP_TAPCELL_ROW_2_70
*960 TAP_TAPCELL_ROW_2_71
*961 TAP_TAPCELL_ROW_3_72
*962 TAP_TAPCELL_ROW_3_73
*963 TAP_TAPCELL_ROW_3_74
*964 TAP_TAPCELL_ROW_4_75
*965 TAP_TAPCELL_ROW_4_76
*966 TAP_TAPCELL_ROW_4_77
*967 TAP_TAPCELL_ROW_5_78
*968 TAP_TAPCELL_ROW_5_79
*969 TAP_TAPCELL_ROW_5_80
*970 TAP_TAPCELL_ROW_6_81
*971 TAP_TAPCELL_ROW_6_82
*972 TAP_TAPCELL_ROW_6_83
*973 TAP_TAPCELL_ROW_7_84
*974 TAP_TAPCELL_ROW_7_85
*975 TAP_TAPCELL_ROW_7_86
*976 TAP_TAPCELL_ROW_8_87
*977 TAP_TAPCELL_ROW_8_88
*978 TAP_TAPCELL_ROW_8_89
*979 TAP_TAPCELL_ROW_9_90
*980 TAP_TAPCELL_ROW_9_91
*981 TAP_TAPCELL_ROW_9_92
*982 _126_
*983 _127_
*984 _128_
*985 _129_
*986 _130_
*987 _131_
*988 _132_
*989 _133_
*990 _134_
*991 _135_
*992 _136_
*993 _137_
*994 _138_
*995 _139_
*996 _140_
*997 _141_
*998 _142_
*999 _143_
*1000 _144_
*1001 _145_
*1002 _146_
*1003 _147_
*1004 _148_
*1005 _149_
*1006 _150_
*1007 _151_
*1008 _152_
*1009 _153_
*1010 _154_
*1011 _155_
*1012 _156_
*1013 _157_
*1014 _158_
*1015 _159_
*1016 _160_
*1017 _161_
*1018 _162_
*1019 _163_
*1020 _164_
*1021 _165_
*1022 _166_
*1023 _167_
*1024 _168_
*1025 _169_
*1026 _170_
*1027 _171_
*1028 _172_
*1029 _173_
*1030 _174_
*1031 _175_
*1032 _176_
*1033 _177_
*1034 _178_
*1035 _179_
*1036 _180_
*1037 _181_
*1038 _182_
*1039 _183_
*1040 _184_
*1041 _185_
*1042 _186_
*1043 _187_
*1044 _188_
*1045 _189_
*1046 _190_
*1047 _191_
*1048 _192_
*1049 _193_
*1050 _194_
*1051 _195_
*1052 _196_
*1053 _197_
*1054 _198_
*1055 _199_
*1056 _200_
*1057 _201_
*1058 _202_
*1059 _203_
*1060 _204_
*1061 _205_
*1062 _206_
*1063 _207_
*1064 _208_
*1065 _209_
*1066 _210_
*1067 _211_
*1068 _212_
*1069 _213_
*1070 _214_
*1071 _215_
*1072 _216_
*1073 _217_
*1074 _218_
*1075 _219_
*1076 _220_
*1077 _221_
*1078 _222_
*1079 _223_
*1080 _224_
*1081 _225_
*1082 _226_
*1083 _227_
*1084 _228_
*1085 _229_
*1086 _230_
*1087 _231_
*1088 _232_
*1089 _233_
*1090 _234_
*1091 _235_
*1092 _236_
*1093 _237_
*1094 _238_
*1095 _239_
*1096 _240_
*1097 _241_
*1098 _242_
*1099 _243_
*1100 _244_
*1101 _245_
*1102 _246_
*1103 _247_
*1104 _248_
*1105 _249_
*1106 _250_
*1107 _251_
*1108 _252_
*1109 _253_
*1110 _254_
*1111 _255_
*1112 _256_
*1113 _257_
*1114 _258_
*1115 _259_
*1116 _260_
*1117 _261_
*1118 _262_
*1119 _263_
*1120 _264_
*1121 _265_
*1122 _266_
*1123 _267_
*1124 _268_
*1125 _269_
*1126 _270_
*1127 _271_
*1128 _272_
*1129 _273_
*1130 _274_
*1131 _275_
*1132 _276_
*1133 _277_
*1134 _278_
*1135 _279_
*1136 _280_
*1137 _281_
*1138 _282_
*1139 _283_
*1140 _284_
*1141 _285_
*1142 _286_
*1143 _287_
*1144 _288_
*1145 _289_
*1146 _290_
*1147 _291_
*1148 _292_
*1149 _293_
*1150 _294_
*1151 _295_
*1152 _296_
*1153 _297_
*1154 _298_
*1155 _299_
*1156 _300_
*1157 _301_
*1158 _302_
*1159 _339_
*1160 _340_
*1161 bridge_57
*1162 bridge_58
*1163 bridge_59
*1164 bridge_60
*1165 bridge_61
*1166 bridge_62
*1167 bridge_63
*1168 bridge_64
*1169 bridge_65
*1170 bridge_66
*1171 bridge_67
*1172 bridge_68
*1173 bridge_69
*1174 bridge_70
*1175 bridge_71
*1176 bridge_72
*1177 bridge_73
*1178 bridge_74
*1179 bridge_75
*1180 bridge_76
*1181 bridge_77
*1182 bridge_78
*1183 bridge_79
*1184 bridge_80
*1185 bridge_81
*1186 bridge_82
*1187 bridge_83
*1188 bridge_84
*1189 bridge_85
*1190 bridge_86
*1191 bridge_87
*1192 bridge_88
*1193 bridge_89
*1194 bridge_90
*1195 bridge_91
*1196 bridge_92
*1197 clkbuf_0_clk
*1198 clkbuf_2_0__f_clk
*1199 clkbuf_2_1__f_clk
*1200 clkbuf_2_2__f_clk
*1201 clkbuf_2_3__f_clk
*1202 clkload0
*1203 clkload1
*1204 clkload2
*1205 fanout41
*1206 fanout46
*1207 fanout47
*1208 fanout48
*1209 fanout49
*1210 fanout50
*1211 fanout51
*1212 fanout52
*1213 fanout53
*1214 fanout54
*1215 fanout55
*1216 fanout56
*1217 hold2
*1218 hold3
*1219 hold4
*1220 hold5
*1221 hold6
*1222 hold7
*1223 input1
*1224 input10
*1225 input11
*1226 input12
*1227 input13
*1228 input14
*1229 input15
*1230 input16
*1231 input17
*1232 input18
*1233 input19
*1234 input2
*1235 input20
*1236 input21
*1237 input22
*1238 input23
*1239 input24
*1240 input25
*1241 input26
*1242 input3
*1243 input4
*1244 input5
*1245 input6
*1246 input7
*1247 input8
*1248 input9
*1249 max_cap40
*1250 max_cap43
*1251 output27
*1252 output28
*1253 output29
*1254 output30
*1255 output31
*1256 output32
*1257 output33
*1258 output34
*1259 output35
*1260 output36
*1261 output37
*1262 output38
*1263 output39
*1264 rebuffer1
*1265 wire44
*1266 wire45

*PORTS
PADDR[0] O
PADDR[1] O
PADDR[2] O
PENABLE O
PRDATA[0] I
PRDATA[10] I
PRDATA[11] I
PRDATA[12] I
PRDATA[13] I
PRDATA[14] I
PRDATA[15] I
PRDATA[1] I
PRDATA[2] I
PRDATA[3] I
PRDATA[4] I
PRDATA[5] I
PRDATA[6] I
PRDATA[7] I
PRDATA[8] I
PRDATA[9] I
PREADY I
PSEL1 O
PSEL2 O
PSEL3 O
PSEL4 O
PWDATA[0] O
PWDATA[10] O
PWDATA[11] O
PWDATA[12] O
PWDATA[13] O
PWDATA[14] O
PWDATA[15] O
PWDATA[1] O
PWDATA[2] O
PWDATA[3] O
PWDATA[4] O
PWDATA[5] O
PWDATA[6] O
PWDATA[7] O
PWDATA[8] O
PWDATA[9] O
PWRITE O
araddr[0] I
araddr[1] I
araddr[2] I
araddr[3] I
araddr[4] I
arburst[0] I
arburst[1] I
arlen[0] I
arlen[1] I
arlen[2] I
arlen[3] I
arready O
arvalid I
awaddr[0] I
awaddr[1] I
awaddr[2] I
awaddr[3] I
awaddr[4] I
awburst[0] I
awburst[1] I
awlen[0] I
awlen[1] I
awlen[2] I
awlen[3] I
awready O
awvalid I
bready I
bresp O
bvalid O
clk I
rdata[0] O
rdata[10] O
rdata[11] O
rdata[12] O
rdata[13] O
rdata[14] O
rdata[15] O
rdata[1] O
rdata[2] O
rdata[3] O
rdata[4] O
rdata[5] O
rdata[6] O
rdata[7] O
rdata[8] O
rdata[9] O
res_n I
rlast O
rready I
rresp O
rvalid O
wdata[0] I
wdata[10] I
wdata[11] I
wdata[12] I
wdata[13] I
wdata[14] I
wdata[15] I
wdata[1] I
wdata[2] I
wdata[3] I
wdata[4] I
wdata[5] I
wdata[6] I
wdata[7] I
wdata[8] I
wdata[9] I
wlast I
wready O
wvalid I

*D_NET *1 0.000999418
*CONN
*P PADDR[0] O
*I *1251:X O *D sky130_fd_sc_hd__buf_2
*CAP
1 PADDR[0] 0.000499709
2 *1251:X 0.000499709
3 PADDR[0] PADDR[1] 0
4 PADDR[0] *1243:A 0
*RES
1 *1251:X PADDR[0] 47.57 
*END

*D_NET *2 0.00100658
*CONN
*P PADDR[1] O
*I *1252:X O *D sky130_fd_sc_hd__buf_2
*CAP
1 PADDR[1] 0.000503292
2 *1252:X 0.000503292
3 PADDR[1] PADDR[2] 0
4 PADDR[0] PADDR[1] 0
*RES
1 *1252:X PADDR[1] 47.57 
*END

*D_NET *3 0.000935434
*CONN
*P PADDR[2] O
*I *1253:X O *D sky130_fd_sc_hd__buf_2
*CAP
1 PADDR[2] 0.000467717
2 *1253:X 0.000467717
3 PADDR[2] *1245:A 0
4 PADDR[1] PADDR[2] 0
*RES
1 *1253:X PADDR[2] 47.0936 
*END

*D_NET *4 0.000601662
*CONN
*P PENABLE O
*I *1254:X O *D sky130_fd_sc_hd__buf_2
*CAP
1 PENABLE 0.000208512
2 *1254:X 0.000208512
3 PENABLE PWRITE 8.81281e-05
4 PENABLE bvalid 9.65101e-05
*RES
1 *1254:X PENABLE 47.6028 
*END

*D_NET *21 0.000654529
*CONN
*P PREADY I
*I *1223:A I *D sky130_fd_sc_hd__buf_1
*CAP
1 PREADY 0.000237516
2 *1223:A 0.000237516
3 *1223:A awready 8.97484e-05
4 *1223:A *1237:A 8.97484e-05
5 *1223:A *285:18 0
*RES
1 PREADY *1223:A 48.5734 
*END

*D_NET *22 0.00138574
*CONN
*P PSEL1 O
*I *1161:LO O *D sky130_fd_sc_hd__conb_1
*CAP
1 PSEL1 0.000313907
2 *1161:LO 0.000310341
3 *22:8 0.000624247
4 PSEL1 PWDATA[8] 4.79691e-05
5 PSEL1 rdata[10] 0
6 *22:8 PWDATA[14] 6.13765e-05
7 *22:8 rdata[10] 2.79004e-05
8 *22:8 rdata[1] 0
9 *22:8 *31:12 0
*RES
1 *1161:LO *22:8 44.6596 
2 *22:8 PSEL1 9.10133 
*END

*D_NET *23 0.00231066
*CONN
*P PSEL2 O
*I *1162:LO O *D sky130_fd_sc_hd__conb_1
*CAP
1 PSEL2 0.000606916
2 *1162:LO 0.000512615
3 *23:8 0.00111953
4 PSEL2 PWDATA[6] 0
5 PSEL2 *40:10 0
6 *23:8 *31:12 5.50106e-05
7 *23:8 *38:8 1.65859e-05
*RES
1 *1162:LO *23:8 47.6736 
2 *23:8 PSEL2 13.2779 
*END

*D_NET *24 0.000613364
*CONN
*P PSEL3 O
*I *1163:LO O *D sky130_fd_sc_hd__conb_1
*CAP
1 PSEL3 0.000221565
2 *1163:LO 0.000221565
3 PSEL3 PWDATA[3] 8.97484e-05
4 PSEL3 rdata[11] 8.04845e-05
*RES
1 *1163:LO PSEL3 48.2212 
*END

*D_NET *25 0.00129486
*CONN
*P PSEL4 O
*I *1164:LO O *D sky130_fd_sc_hd__conb_1
*CAP
1 PSEL4 0.000136267
2 *1164:LO 0.000348817
3 *25:10 0.000485085
4 PSEL4 PWDATA[7] 5.99691e-05
5 *25:10 *39:10 0.000264717
*RES
1 *1164:LO *25:10 45.4261 
2 *25:10 PSEL4 8.58613 
*END

*D_NET *26 0.000728255
*CONN
*P PWDATA[0] O
*I *1165:LO O *D sky130_fd_sc_hd__conb_1
*CAP
1 PWDATA[0] 0.000275565
2 *1165:LO 0.000275565
3 PWDATA[0] rdata[13] 8.97484e-05
4 PWDATA[0] rdata[14] 8.73764e-05
*RES
1 *1165:LO PWDATA[0] 49.2777 
*END

*D_NET *27 0.00108591
*CONN
*P PWDATA[10] O
*I *1175:LO O *D sky130_fd_sc_hd__conb_1
*CAP
1 PWDATA[10] 0.000540641
2 *1175:LO 0.000540641
3 PWDATA[10] PWDATA[2] 0
4 PWDATA[10] rresp 0
5 PWDATA[10] *325:112 4.6318e-06
*RES
1 *1175:LO PWDATA[10] 49.4343 
*END

*D_NET *28 0.00108821
*CONN
*P PWDATA[11] O
*I *1176:LO O *D sky130_fd_sc_hd__conb_1
*CAP
1 PWDATA[11] 0.000527959
2 *1176:LO 0.000527959
3 PWDATA[11] rdata[1] 0
4 PWDATA[11] rdata[8] 0
5 PWDATA[11] *38:8 3.22879e-05
*RES
1 *1176:LO PWDATA[11] 49.4343 
*END

*D_NET *29 0.000627565
*CONN
*P PWDATA[12] O
*I *1177:LO O *D sky130_fd_sc_hd__conb_1
*CAP
1 PWDATA[12] 0.000264086
2 *1177:LO 0.000264086
3 PWDATA[12] PWDATA[7] 7.1481e-05
4 PWDATA[12] rdata[15] 2.79122e-05
*RES
1 *1177:LO PWDATA[12] 48.4875 
*END

*D_NET *30 0.00107746
*CONN
*P PWDATA[13] O
*I *1178:LO O *D sky130_fd_sc_hd__conb_1
*CAP
1 PWDATA[13] 0.000538731
2 *1178:LO 0.000538731
3 PWDATA[13] rdata[9] 0
4 PWDATA[13] *70:9 0
*RES
1 *1178:LO PWDATA[13] 49.4343 
*END

*D_NET *31 0.00153173
*CONN
*P PWDATA[14] O
*I *1179:LO O *D sky130_fd_sc_hd__conb_1
*CAP
1 PWDATA[14] 0.00035348
2 *1179:LO 0.0002723
3 *31:12 0.000625781
4 PWDATA[14] PWDATA[6] 0
5 PWDATA[14] rdata[1] 0
6 *31:12 PWDATA[6] 0
7 *31:12 rdata[10] 8.62876e-05
8 *31:12 *40:10 7.74923e-05
9 *22:8 PWDATA[14] 6.13765e-05
10 *22:8 *31:12 0
11 *23:8 *31:12 5.50106e-05
*RES
1 *1179:LO *31:12 43.7896 
2 *31:12 PWDATA[14] 8.52393 
*END

*D_NET *32 0.00107746
*CONN
*P PWDATA[15] O
*I *1180:LO O *D sky130_fd_sc_hd__conb_1
*CAP
1 PWDATA[15] 0.000538731
2 *1180:LO 0.000538731
3 PWDATA[15] rdata[3] 0
4 PWDATA[15] rdata[4] 0
*RES
1 *1180:LO PWDATA[15] 49.4343 
*END

*D_NET *33 0.00107746
*CONN
*P PWDATA[1] O
*I *1166:LO O *D sky130_fd_sc_hd__conb_1
*CAP
1 PWDATA[1] 0.000538731
2 *1166:LO 0.000538731
3 PWDATA[1] rdata[8] 0
4 PWDATA[1] rdata[9] 0
*RES
1 *1166:LO PWDATA[1] 49.4343 
*END

*D_NET *34 0.00107746
*CONN
*P PWDATA[2] O
*I *1167:LO O *D sky130_fd_sc_hd__conb_1
*CAP
1 PWDATA[2] 0.000538731
2 *1167:LO 0.000538731
3 PWDATA[2] rdata[4] 0
4 PWDATA[10] PWDATA[2] 0
*RES
1 *1167:LO PWDATA[2] 49.4343 
*END

*D_NET *35 0.000587089
*CONN
*P PWDATA[3] O
*I *1168:LO O *D sky130_fd_sc_hd__conb_1
*CAP
1 PWDATA[3] 0.00024867
2 *1168:LO 0.00024867
3 PSEL3 PWDATA[3] 8.97484e-05
*RES
1 *1168:LO PWDATA[3] 47.8691 
*END

*D_NET *36 0.000678277
*CONN
*P PWDATA[4] O
*I *1169:LO O *D sky130_fd_sc_hd__conb_1
*CAP
1 PWDATA[4] 0.000251762
2 *1169:LO 0.000251762
3 PWDATA[4] rdata[12] 8.73764e-05
4 PWDATA[4] *1225:A 8.73764e-05
*RES
1 *1169:LO PWDATA[4] 48.5734 
*END

*D_NET *37 0.00174316
*CONN
*P PWDATA[5] O
*I *1170:LO O *D sky130_fd_sc_hd__conb_1
*CAP
1 PWDATA[5] 0.000674665
2 *1170:LO 4.24511e-05
3 *37:8 0.000717116
4 PWDATA[5] *64:13 0.000308925
*RES
1 *1170:LO *37:8 38.6214 
2 *37:8 PWDATA[5] 21.0518 
*END

*D_NET *38 0.00236255
*CONN
*P PWDATA[6] O
*I *1171:LO O *D sky130_fd_sc_hd__conb_1
*CAP
1 PWDATA[6] 0.000522156
2 *1171:LO 0.000596764
3 *38:8 0.00111892
4 PWDATA[6] *40:10 4.35434e-05
5 *38:8 rdata[1] 3.22879e-05
6 PSEL2 PWDATA[6] 0
7 PWDATA[11] *38:8 3.22879e-05
8 PWDATA[14] PWDATA[6] 0
9 *23:8 *38:8 1.65859e-05
10 *31:12 PWDATA[6] 0
*RES
1 *1171:LO *38:8 48.15 
2 *38:8 PWDATA[6] 11.5171 
*END

*D_NET *39 0.0010334
*CONN
*P PWDATA[7] O
*I *1172:LO O *D sky130_fd_sc_hd__conb_1
*CAP
1 PWDATA[7] 0.000127682
2 *1172:LO 0.000190937
3 *39:10 0.000318619
4 PSEL4 PWDATA[7] 5.99691e-05
5 PWDATA[12] PWDATA[7] 7.1481e-05
6 *25:10 *39:10 0.000264717
*RES
1 *1172:LO *39:10 42.5054 
2 *39:10 PWDATA[7] 8.672 
*END

*D_NET *40 0.00140837
*CONN
*P PWDATA[8] O
*I *1173:LO O *D sky130_fd_sc_hd__conb_1
*CAP
1 PWDATA[8] 0.000102603
2 *1173:LO 0.00049166
3 *40:10 0.000594262
4 PWDATA[8] rdata[10] 5.08417e-05
5 *40:10 rdata[10] 0
6 PSEL1 PWDATA[8] 4.79691e-05
7 PSEL2 *40:10 0
8 PWDATA[6] *40:10 4.35434e-05
9 *31:12 *40:10 7.74923e-05
*RES
1 *1173:LO *40:10 48.1396 
2 *40:10 PWDATA[8] 8.50027 
*END

*D_NET *41 0.000539306
*CONN
*P PWDATA[9] O
*I *1174:LO O *D sky130_fd_sc_hd__conb_1
*CAP
1 PWDATA[9] 0.00025903
2 *1174:LO 0.00025903
3 PWDATA[9] *1226:A 0
4 PWDATA[9] *1234:A 2.12457e-05
5 PWDATA[9] *59:17 0
*RES
1 *1174:LO PWDATA[9] 47.7832 
*END

*D_NET *42 0.000599783
*CONN
*P PWRITE O
*I *1255:X O *D sky130_fd_sc_hd__buf_2
*CAP
1 PWRITE 0.000197204
2 *1255:X 0.000197204
3 PWRITE *1225:A 8.97484e-05
4 PWRITE *309:19 2.74987e-05
5 PENABLE PWRITE 8.81281e-05
*RES
1 *1255:X PWRITE 47.6028 
*END

*D_NET *45 0.000618748
*CONN
*P araddr[0] I
*I *1234:A I *D sky130_fd_sc_hd__clkbuf_1
*CAP
1 araddr[0] 0.000284795
2 *1234:A 0.000284795
3 *1234:A *1226:A 2.79122e-05
4 PWDATA[9] *1234:A 2.12457e-05
*RES
1 araddr[0] *1234:A 49.8062 
*END

*D_NET *46 0.00100381
*CONN
*P araddr[1] I
*I *1242:A I *D sky130_fd_sc_hd__clkbuf_1
*CAP
1 araddr[1] 0.000501907
2 *1242:A 0.000501907
*RES
1 araddr[1] *1242:A 48.2743 
*END

*D_NET *47 0.00100427
*CONN
*P araddr[2] I
*I *1243:A I *D sky130_fd_sc_hd__clkbuf_1
*CAP
1 araddr[2] 0.000502134
2 *1243:A 0.000502134
3 PADDR[0] *1243:A 0
*RES
1 araddr[2] *1243:A 48.2743 
*END

*D_NET *50 0.00100747
*CONN
*P arburst[0] I
*I *1244:A I *D sky130_fd_sc_hd__clkbuf_1
*CAP
1 arburst[0] 0.000493995
2 *1244:A 0.000493995
3 *1244:A *1229:A 0
4 *1244:A *329:10 1.94812e-05
*RES
1 arburst[0] *1244:A 48.2743 
*END

*D_NET *51 0.00100784
*CONN
*P arburst[1] I
*I *1245:A I *D sky130_fd_sc_hd__clkbuf_1
*CAP
1 arburst[1] 0.000501812
2 *1245:A 0.000501812
3 *1245:A *306:10 4.21594e-06
4 PADDR[2] *1245:A 0
*RES
1 arburst[1] *1245:A 48.2743 
*END

*D_NET *52 0.000638118
*CONN
*P arlen[0] I
*I *1246:A I *D sky130_fd_sc_hd__clkbuf_1
*CAP
1 arlen[0] 0.000291393
2 *1246:A 0.000291393
3 *1246:A *1247:A 2.12457e-05
4 *1246:A *68:13 2.79122e-05
5 *1246:A *269:16 6.17437e-06
*RES
1 arlen[0] *1246:A 49.8062 
*END

*D_NET *53 0.000762759
*CONN
*P arlen[1] I
*I *1247:A I *D sky130_fd_sc_hd__clkbuf_1
*CAP
1 arlen[1] 0.000312514
2 *1247:A 0.000312514
3 *1247:A *55:17 3.12475e-05
4 *1247:A *68:13 0
5 *1247:A *74:11 0
6 *1247:A *269:18 7.53721e-05
7 *1247:A *339:10 9.86551e-06
8 *1246:A *1247:A 2.12457e-05
*RES
1 arlen[1] *1247:A 48.4905 
*END

*D_NET *54 0.00071219
*CONN
*P arlen[2] I
*I *1248:A I *D sky130_fd_sc_hd__clkbuf_1
*CAP
1 arlen[2] 0.000345472
2 *1248:A 0
3 *54:17 0.000345472
4 *54:17 *1219:A 2.12457e-05
5 *54:17 *1226:A 0
*RES
1 arlen[2] *54:17 27.8627 
2 *54:17 *1248:A 23 
*END

*D_NET *55 0.000722508
*CONN
*P arlen[3] I
*I *1224:A I *D sky130_fd_sc_hd__clkbuf_1
*CAP
1 arlen[3] 0.000335007
2 *1224:A 0
3 *55:17 0.000335007
4 *55:17 *74:11 2.12457e-05
5 *55:17 *269:18 0
6 *1247:A *55:17 3.12475e-05
*RES
1 arlen[3] *55:17 27.8627 
2 *55:17 *1224:A 23 
*END

*D_NET *56 0.000956706
*CONN
*P arready O
*I *1256:X O *D sky130_fd_sc_hd__buf_2
*CAP
1 arready 0.000451284
2 *1256:X 0.000451284
3 arready *1228:A 0
4 arready *310:44 5.41385e-05
*RES
1 *1256:X arready 47.0936 
*END

*D_NET *57 0.000673907
*CONN
*P arvalid I
*I *1225:A I *D sky130_fd_sc_hd__clkbuf_1
*CAP
1 arvalid 0.000242401
2 *1225:A 0.000242401
3 *1225:A *309:19 1.19796e-05
4 PWDATA[4] *1225:A 8.73764e-05
5 PWRITE *1225:A 8.97484e-05
*RES
1 arvalid *1225:A 48.5734 
*END

*D_NET *58 0.000744805
*CONN
*P awaddr[0] I
*I *1226:A I *D sky130_fd_sc_hd__clkbuf_1
*CAP
1 awaddr[0] 0.000344496
2 *1226:A 0.000344496
3 *1226:A *288:10 2.79004e-05
4 PWDATA[9] *1226:A 0
5 *1234:A *1226:A 2.79122e-05
6 *54:17 *1226:A 0
*RES
1 awaddr[0] *1226:A 49.5439 
*END

*D_NET *59 0.000730756
*CONN
*P awaddr[1] I
*I *1227:A I *D sky130_fd_sc_hd__clkbuf_1
*CAP
1 awaddr[1] 0.000365378
2 *1227:A 0
3 *59:17 0.000365378
4 *59:17 *289:8 0
5 PWDATA[9] *59:17 0
*RES
1 awaddr[1] *59:17 28.2148 
2 *59:17 *1227:A 23 
*END

*D_NET *60 0.00101464
*CONN
*P awaddr[2] I
*I *1228:A I *D sky130_fd_sc_hd__clkbuf_1
*CAP
1 awaddr[2] 0.000497578
2 *1228:A 0.000497578
3 *1228:A *290:10 1.94812e-05
4 arready *1228:A 0
*RES
1 awaddr[2] *1228:A 48.2743 
*END

*D_NET *63 0.00100747
*CONN
*P awburst[0] I
*I *1229:A I *D sky130_fd_sc_hd__clkbuf_1
*CAP
1 awburst[0] 0.000493995
2 *1229:A 0.000493995
3 *1229:A *291:10 1.94812e-05
4 *1244:A *1229:A 0
*RES
1 awburst[0] *1229:A 48.2743 
*END

*D_NET *64 0.00195108
*CONN
*P awburst[1] I
*I *1230:A I *D sky130_fd_sc_hd__clkbuf_1
*CAP
1 awburst[1] 0.000698329
2 *1230:A 0
3 *64:13 0.000698329
4 *64:13 rdata[0] 0.000127606
5 *64:13 rdata[6] 0.000105143
6 *64:13 rdata[7] 1.27424e-05
7 *64:13 *87:8 0
8 PWDATA[5] *64:13 0.000308925
*RES
1 awburst[1] *64:13 36.5787 
2 *64:13 *1230:A 23 
*END

*D_NET *65 0.000965377
*CONN
*P awlen[0] I
*I *1231:A I *D sky130_fd_sc_hd__clkbuf_1
*CAP
1 awlen[0] 0.000422279
2 *1231:A 0
3 *65:15 0.000422279
4 *65:15 *66:13 3.25681e-05
5 *65:15 *112:13 8.82503e-05
*RES
1 awlen[0] *65:15 29.056 
2 *65:15 *1231:A 23 
*END

*D_NET *66 0.00158801
*CONN
*P awlen[1] I
*I *1232:A I *D sky130_fd_sc_hd__clkbuf_1
*CAP
1 awlen[1] 0.00046503
2 *1232:A 0
3 *66:13 0.00046503
4 *66:13 *112:13 0
5 *66:13 *114:19 7.62507e-05
6 *66:13 *269:67 0.000183171
7 *66:13 *294:8 0.000327676
8 *66:13 *295:10 3.82852e-05
9 *65:15 *66:13 3.25681e-05
*RES
1 awlen[1] *66:13 30.0684 
2 *66:13 *1232:A 23 
*END

*D_NET *67 0.000619753
*CONN
*P awlen[2] I
*I *1233:A I *D sky130_fd_sc_hd__clkbuf_1
*CAP
1 awlen[2] 0.000282365
2 *1233:A 0.000282365
3 *1233:A rdata[15] 2.61329e-05
4 *1233:A *114:19 2.88889e-05
*RES
1 awlen[2] *1233:A 49.8062 
*END

*D_NET *68 0.00105158
*CONN
*P awlen[3] I
*I *1235:A I *D sky130_fd_sc_hd__clkbuf_1
*CAP
1 awlen[3] 0.000366012
2 *1235:A 0
3 *68:13 0.000366012
4 *68:13 wready 2.12457e-05
5 *68:13 *112:13 0
6 *68:13 *113:14 0
7 *68:13 *269:47 0.000208735
8 *68:13 *297:10 6.16635e-05
9 *1246:A *68:13 2.79122e-05
10 *1247:A *68:13 0
*RES
1 awlen[3] *68:13 27.2512 
2 *68:13 *1235:A 23 
*END

*D_NET *69 0.000733059
*CONN
*P awready O
*I *1257:X O *D sky130_fd_sc_hd__buf_2
*CAP
1 awready 0.000321655
2 *1257:X 0.000321655
3 *1223:A awready 8.97484e-05
*RES
1 *1257:X awready 49.0114 
*END

*D_NET *70 0.00119724
*CONN
*P awvalid I
*I *1236:A I *D sky130_fd_sc_hd__clkbuf_1
*CAP
1 awvalid 0.000598621
2 *1236:A 0
3 *70:9 0.000598621
4 *70:9 rlast 0
5 *70:9 *314:8 0
6 PWDATA[13] *70:9 0
*RES
1 awvalid *70:9 27.3871 
2 *70:9 *1236:A 23 
*END

*D_NET *71 0.000772423
*CONN
*P bready I
*I *1237:A I *D sky130_fd_sc_hd__clkbuf_1
*CAP
1 bready 0.000264912
2 *1237:A 0.000264912
3 *1237:A *1239:A 8.73764e-05
4 *1237:A *285:18 0
5 *1237:A *299:8 6.54744e-05
6 *1223:A *1237:A 8.97484e-05
*RES
1 bready *1237:A 49.6298 
*END

*D_NET *72 0.000769438
*CONN
*P bresp O
*I *1258:X O *D sky130_fd_sc_hd__buf_2
*CAP
1 bresp 0.000231349
2 *1258:X 0.000231349
3 bresp bvalid 0
4 bresp rdata[2] 8.97484e-05
5 bresp *1049:A 0.000135884
6 bresp *1239:A 8.11094e-05
*RES
1 *1258:X bresp 48.6592 
*END

*D_NET *73 0.000716895
*CONN
*P bvalid O
*I *1259:X O *D sky130_fd_sc_hd__buf_2
*CAP
1 bvalid 0.000265318
2 *1259:X 0.000265318
3 bvalid rdata[2] 8.97484e-05
4 bvalid *285:18 0
5 PENABLE bvalid 9.65101e-05
6 bresp bvalid 0
*RES
1 *1259:X bvalid 48.6592 
*END

*D_NET *74 0.00609639
*CONN
*P clk I
*I *1197:A I *D sky130_fd_sc_hd__clkbuf_16
*CAP
1 clk 0.00271943
2 *1197:A 0
3 *74:11 0.00271943
4 *74:11 *1219:A 2.79122e-05
5 *74:11 *300:33 0.00050427
6 *74:11 *334:73 0.000104107
7 *1247:A *74:11 0
8 *55:17 *74:11 2.12457e-05
*RES
1 clk *74:11 30.8624 
2 *74:11 *1197:A 23 
*END

*D_NET *75 0.000937725
*CONN
*P rdata[0] O
*I *1181:LO O *D sky130_fd_sc_hd__conb_1
*CAP
1 rdata[0] 0.00028429
2 *1181:LO 0.00028429
3 rdata[0] rdata[6] 0.000111404
4 rdata[0] rdata[7] 8.68758e-05
5 rdata[0] *87:8 4.32584e-05
6 *64:13 rdata[0] 0.000127606
*RES
1 *1181:LO rdata[0] 48.831 
*END

*D_NET *76 0.000928698
*CONN
*P rdata[10] O
*I *1191:LO O *D sky130_fd_sc_hd__conb_1
*CAP
1 rdata[10] 0.000338146
2 *1191:LO 0.000338146
3 rdata[10] rdata[11] 8.73764e-05
4 PSEL1 rdata[10] 0
5 PWDATA[8] rdata[10] 5.08417e-05
6 *22:8 rdata[10] 2.79004e-05
7 *31:12 rdata[10] 8.62876e-05
8 *40:10 rdata[10] 0
*RES
1 *1191:LO rdata[10] 48.5734 
*END

*D_NET *77 0.000581521
*CONN
*P rdata[11] O
*I *1192:LO O *D sky130_fd_sc_hd__conb_1
*CAP
1 rdata[11] 0.00020683
2 *1192:LO 0.00020683
3 PSEL3 rdata[11] 8.04845e-05
4 rdata[10] rdata[11] 8.73764e-05
*RES
1 *1192:LO rdata[11] 47.1648 
*END

*D_NET *78 0.000517367
*CONN
*P rdata[12] O
*I *1193:LO O *D sky130_fd_sc_hd__conb_1
*CAP
1 rdata[12] 0.000174441
2 *1193:LO 0.000174441
3 rdata[12] rdata[5] 8.11094e-05
4 PWDATA[4] rdata[12] 8.73764e-05
*RES
1 *1193:LO rdata[12] 47.1648 
*END

*D_NET *79 0.000505644
*CONN
*P rdata[13] O
*I *1194:LO O *D sky130_fd_sc_hd__conb_1
*CAP
1 rdata[13] 0.000167393
2 *1194:LO 0.000167393
3 rdata[13] rdata[7] 8.11094e-05
4 PWDATA[0] rdata[13] 8.97484e-05
*RES
1 *1194:LO rdata[13] 47.1648 
*END

*D_NET *80 0.000615305
*CONN
*P rdata[14] O
*I *1195:LO O *D sky130_fd_sc_hd__conb_1
*CAP
1 rdata[14] 0.000220276
2 *1195:LO 0.000220276
3 rdata[14] rdata[5] 8.73764e-05
4 PWDATA[0] rdata[14] 8.73764e-05
*RES
1 *1195:LO rdata[14] 47.8691 
*END

*D_NET *81 0.000631656
*CONN
*P rdata[15] O
*I *1196:LO O *D sky130_fd_sc_hd__conb_1
*CAP
1 rdata[15] 0.000288805
2 *1196:LO 0.000288805
3 PWDATA[12] rdata[15] 2.79122e-05
4 *1233:A rdata[15] 2.61329e-05
*RES
1 *1196:LO rdata[15] 49.8062 
*END

*D_NET *82 0.00108821
*CONN
*P rdata[1] O
*I *1182:LO O *D sky130_fd_sc_hd__conb_1
*CAP
1 rdata[1] 0.000527959
2 *1182:LO 0.000527959
3 PWDATA[11] rdata[1] 0
4 PWDATA[14] rdata[1] 0
5 *22:8 rdata[1] 0
6 *38:8 rdata[1] 3.22879e-05
*RES
1 *1182:LO rdata[1] 49.4343 
*END

*D_NET *83 0.000585662
*CONN
*P rdata[2] O
*I *1183:LO O *D sky130_fd_sc_hd__conb_1
*CAP
1 rdata[2] 0.000203083
2 *1183:LO 0.000203083
3 rdata[2] *285:18 0
4 bresp rdata[2] 8.97484e-05
5 bvalid rdata[2] 8.97484e-05
*RES
1 *1183:LO rdata[2] 47.8691 
*END

*D_NET *84 0.00107746
*CONN
*P rdata[3] O
*I *1184:LO O *D sky130_fd_sc_hd__conb_1
*CAP
1 rdata[3] 0.000538731
2 *1184:LO 0.000538731
3 rdata[3] rvalid 0
4 PWDATA[15] rdata[3] 0
*RES
1 *1184:LO rdata[3] 49.4343 
*END

*D_NET *85 0.00107746
*CONN
*P rdata[4] O
*I *1185:LO O *D sky130_fd_sc_hd__conb_1
*CAP
1 rdata[4] 0.000538731
2 *1185:LO 0.000538731
3 PWDATA[15] rdata[4] 0
4 PWDATA[2] rdata[4] 0
*RES
1 *1185:LO rdata[4] 49.4343 
*END

*D_NET *86 0.000586134
*CONN
*P rdata[5] O
*I *1186:LO O *D sky130_fd_sc_hd__conb_1
*CAP
1 rdata[5] 0.000208824
2 *1186:LO 0.000208824
3 rdata[12] rdata[5] 8.11094e-05
4 rdata[14] rdata[5] 8.73764e-05
*RES
1 *1186:LO rdata[5] 47.8691 
*END

*D_NET *87 0.00128493
*CONN
*P rdata[6] O
*I *1187:LO O *D sky130_fd_sc_hd__conb_1
*CAP
1 rdata[6] 0.000274373
2 *1187:LO 0.000238187
3 *87:8 0.00051256
4 rdata[0] rdata[6] 0.000111404
5 rdata[0] *87:8 4.32584e-05
6 *64:13 rdata[6] 0.000105143
7 *64:13 *87:8 0
*RES
1 *1187:LO *87:8 43.2511 
2 *87:8 rdata[6] 9.35893 
*END

*D_NET *88 0.00052259
*CONN
*P rdata[7] O
*I *1188:LO O *D sky130_fd_sc_hd__conb_1
*CAP
1 rdata[7] 0.000170931
2 *1188:LO 0.000170931
3 rdata[0] rdata[7] 8.68758e-05
4 rdata[13] rdata[7] 8.11094e-05
5 *64:13 rdata[7] 1.27424e-05
*RES
1 *1188:LO rdata[7] 47.1648 
*END

*D_NET *89 0.00107746
*CONN
*P rdata[8] O
*I *1189:LO O *D sky130_fd_sc_hd__conb_1
*CAP
1 rdata[8] 0.000538731
2 *1189:LO 0.000538731
3 PWDATA[11] rdata[8] 0
4 PWDATA[1] rdata[8] 0
*RES
1 *1189:LO rdata[8] 49.4343 
*END

*D_NET *90 0.00107746
*CONN
*P rdata[9] O
*I *1190:LO O *D sky130_fd_sc_hd__conb_1
*CAP
1 rdata[9] 0.000538731
2 *1190:LO 0.000538731
3 PWDATA[13] rdata[9] 0
4 PWDATA[1] rdata[9] 0
*RES
1 *1190:LO rdata[9] 49.4343 
*END

*D_NET *91 0.000625993
*CONN
*P res_n I
*I *1219:A I *D sky130_fd_sc_hd__dlygate4sd3_1
*CAP
1 res_n 0.000288418
2 *1219:A 0.000288418
3 *54:17 *1219:A 2.12457e-05
4 *74:11 *1219:A 2.79122e-05
*RES
1 res_n *1219:A 49.8062 
*END

*D_NET *92 0.00119684
*CONN
*P rlast O
*I *1260:X O *D sky130_fd_sc_hd__buf_2
*CAP
1 rlast 0.00059842
2 *1260:X 0.00059842
3 rlast rvalid 0
4 *70:9 rlast 0
*RES
1 *1260:X rlast 49.6829 
*END

*D_NET *93 0.00057411
*CONN
*P rready I
*I *1239:A I *D sky130_fd_sc_hd__clkbuf_1
*CAP
1 rready 0.00018814
2 *1239:A 0.00018814
3 *1239:A *1049:A 1.09783e-05
4 *1239:A *299:8 1.83667e-05
5 bresp *1239:A 8.11094e-05
6 *1237:A *1239:A 8.73764e-05
*RES
1 rready *1239:A 47.5169 
*END

*D_NET *94 0.00111074
*CONN
*P rresp O
*I *1261:X O *D sky130_fd_sc_hd__buf_2
*CAP
1 rresp 0.000555368
2 *1261:X 0.000555368
3 PWDATA[10] rresp 0
*RES
1 *1261:X rresp 49.2064 
*END

*D_NET *95 0.0011897
*CONN
*P rvalid O
*I *1262:X O *D sky130_fd_sc_hd__buf_2
*CAP
1 rvalid 0.000594852
2 *1262:X 0.000594852
3 rdata[3] rvalid 0
4 rlast rvalid 0
*RES
1 *1262:X rvalid 49.6829 
*END

*D_NET *112 0.00128093
*CONN
*P wlast I
*I *1240:A I *D sky130_fd_sc_hd__buf_1
*CAP
1 wlast 0.000379227
2 *1240:A 0
3 *112:13 0.000379227
4 *112:13 wready 1.5289e-05
5 *112:13 *113:14 1.59585e-05
6 *112:13 *269:47 7.76035e-05
7 *112:13 *269:56 0.000222104
8 *112:13 *293:8 1.47563e-05
9 *112:13 *302:8 8.85189e-05
10 *65:15 *112:13 8.82503e-05
11 *66:13 *112:13 0
12 *68:13 *112:13 0
*RES
1 wlast *112:13 28.3077 
2 *112:13 *1240:A 23 
*END

*D_NET *113 0.00077642
*CONN
*P wready O
*I *1263:X O *D sky130_fd_sc_hd__buf_2
*CAP
1 wready 7.67726e-05
2 *1263:X 0.000285191
3 *113:14 0.000361964
4 *68:13 wready 2.12457e-05
5 *68:13 *113:14 0
6 *112:13 wready 1.5289e-05
7 *112:13 *113:14 1.59585e-05
*RES
1 *1263:X *113:14 49.9 
2 *113:14 wready 0.382667 
*END

*D_NET *114 0.000961662
*CONN
*P wvalid I
*I *1241:A I *D sky130_fd_sc_hd__clkbuf_1
*CAP
1 wvalid 0.000428261
2 *1241:A 0
3 *114:19 0.000428261
4 *1233:A *114:19 2.88889e-05
5 *66:13 *114:19 7.62507e-05
*RES
1 wvalid *114:19 29.437 
2 *114:19 *1241:A 23 
*END

*D_NET *115 0.00675392
*CONN
*I *1088:A1 I *D sky130_fd_sc_hd__mux2_1
*I *1086:A I *D sky130_fd_sc_hd__nor2_1
*I *1089:A I *D sky130_fd_sc_hd__nand2_1
*I *1095:A I *D sky130_fd_sc_hd__nand3_1
*I *1094:A1 I *D sky130_fd_sc_hd__a21o_1
*I *1010:B I *D sky130_fd_sc_hd__and2_1
*I *1090:A I *D sky130_fd_sc_hd__or2_1
*I *1131:Q O *D sky130_fd_sc_hd__dfrtp_2
*CAP
1 *1088:A1 1.74373e-05
2 *1086:A 0.000148881
3 *1089:A 5.63188e-05
4 *1095:A 0
5 *1094:A1 0
6 *1010:B 0
7 *1090:A 0.000125188
8 *1131:Q 0.000268375
9 *115:75 0.000253043
10 *115:57 0.000140886
11 *115:39 0.000236151
12 *115:31 0.000929791
13 *115:16 0.000749556
14 *115:10 0.000484595
15 *115:8 0.000711762
16 *1086:A *1122:CLK 5.3304e-05
17 *1086:A *199:35 0.000268074
18 *1086:A *268:16 0.000268074
19 *1086:A *310:79 7.38076e-05
20 *1088:A1 *1122:CLK 8.60475e-05
21 *1088:A1 *199:35 9.84851e-05
22 *1089:A *1091:A 5.67058e-05
23 *1089:A *1091:B 4.93341e-05
24 *1089:A *1091:C 6.17437e-06
25 *1090:A *116:8 5.50049e-05
26 *1090:A *116:21 0
27 *1090:A *203:10 8.4047e-05
28 *1090:A *204:8 1.59208e-05
29 *115:8 *150:12 1.40004e-05
30 *115:8 *310:79 0.000128401
31 *115:10 *131:8 2.76611e-06
32 *115:10 *199:35 0
33 *115:10 *268:18 0
34 *115:10 *310:79 2.22079e-05
35 *115:10 *326:34 0
36 *115:10 *326:38 0
37 *115:16 *116:21 0
38 *115:16 *268:18 0
39 *115:31 *1091:A 0.00031495
40 *115:31 *1096:B 1.79042e-06
41 *115:31 *207:8 0.000290304
42 *115:39 *1010:A 5.50106e-05
43 *115:39 *1122:RESET_B 0
44 *115:39 *116:45 0.000108681
45 *115:39 *118:33 1.69668e-05
46 *115:39 *150:101 9.70251e-05
47 *115:39 *208:10 0.000138708
48 *115:39 *257:10 6.85339e-05
49 *115:39 *310:34 6.7177e-06
50 *115:57 *117:23 0
51 *115:57 *207:8 9.41704e-05
52 *115:57 *208:10 5.94125e-05
53 *115:75 *131:8 2.26489e-05
54 *115:75 *199:35 0
55 *115:75 *268:8 3.47781e-05
56 *115:75 *310:79 3.98859e-05
*RES
1 *1131:Q *115:8 41.9564 
2 *115:8 *115:10 6.83571 
3 *115:10 *115:16 1.61571 
4 *115:16 *1090:A 40.5271 
5 *115:16 *115:31 23.2443 
6 *115:31 *115:39 35.6964 
7 *115:39 *1010:B 23 
8 *115:31 *1094:A1 23 
9 *115:31 *115:57 31.9471 
10 *115:57 *1095:A 23 
11 *115:10 *1089:A 39.5743 
12 *115:8 *115:75 16.9057 
13 *115:75 *1086:A 27.93 
14 *115:75 *1088:A1 24.0979 
*END

*D_NET *116 0.00334542
*CONN
*I *1093:A1 I *D sky130_fd_sc_hd__mux2_1
*I *1095:B I *D sky130_fd_sc_hd__nand3_1
*I *1094:A2 I *D sky130_fd_sc_hd__a21o_1
*I *1011:B I *D sky130_fd_sc_hd__and2_1
*I *1089:B I *D sky130_fd_sc_hd__nand2_1
*I *1090:B I *D sky130_fd_sc_hd__or2_1
*I *1132:Q O *D sky130_fd_sc_hd__dfrtp_1
*CAP
1 *1093:A1 0
2 *1095:B 4.88525e-05
3 *1094:A2 0
4 *1011:B 2.34823e-05
5 *1089:B 0
6 *1090:B 0
7 *1132:Q 0
8 *116:69 0.000197074
9 *116:45 0.0001854
10 *116:28 0.000489881
11 *116:21 0.000155446
12 *116:15 0.00057738
13 *116:8 0.000298852
14 *116:4 0.000403843
15 *1011:B *1097:B1 0
16 *1095:B *117:44 8.1939e-05
17 *1095:B *207:8 4.34973e-05
18 *1095:B *208:10 1.24376e-05
19 *116:8 *1135:RESET_B 0
20 *116:8 *203:10 9.84851e-05
21 *116:21 *1122:RESET_B 0
22 *116:21 *326:38 0
23 *116:28 *1097:B1 1.24376e-05
24 *116:28 *118:33 4.9662e-05
25 *116:45 *1097:B1 5.3304e-05
26 *116:45 *117:44 5.50106e-05
27 *116:45 *118:33 2.32101e-05
28 *116:45 *150:85 0.000135557
29 *116:45 *150:101 3.47781e-05
30 *116:45 *207:8 9.67842e-05
31 *116:45 *208:10 3.81638e-05
32 *116:69 *204:8 2.54046e-05
33 *116:69 *268:18 4.08537e-05
34 *1090:A *116:8 5.50049e-05
35 *1090:A *116:21 0
36 *115:16 *116:21 0
37 *115:39 *116:45 0.000108681
*RES
1 *1132:Q *116:4 23 
2 *116:4 *116:8 3.97714 
3 *116:8 *1090:B 23 
4 *116:8 *116:15 1.57429 
5 *116:15 *116:21 32.2579 
6 *116:21 *1089:B 23 
7 *116:15 *116:28 5.38571 
8 *116:28 *1011:B 23.4971 
9 *116:28 *116:45 33.9771 
10 *116:45 *1094:A2 23 
11 *116:45 *1095:B 25.0921 
12 *116:4 *116:69 32.7757 
13 *116:69 *1093:A1 23 
*END

*D_NET *117 0.00351263
*CONN
*I *1221:A I *D sky130_fd_sc_hd__dlygate4sd3_1
*I *1094:B1 I *D sky130_fd_sc_hd__a21o_1
*I *1095:C I *D sky130_fd_sc_hd__nand3_1
*I *1012:B I *D sky130_fd_sc_hd__and2_1
*I *1133:Q O *D sky130_fd_sc_hd__dfrtp_1
*CAP
1 *1221:A 0.000365614
2 *1094:B1 0
3 *1095:C 0
4 *1012:B 0.000293807
5 *1133:Q 0
6 *117:44 0.000313822
7 *117:25 0.000507909
8 *117:23 0.000651073
9 *117:6 0.000385179
10 *1012:B *1252:A 4.3407e-05
11 *1012:B *118:12 0.000137163
12 *1012:B *118:18 9.84794e-05
13 *1012:B *247:10 0
14 *1221:A *1098:A1 0.000274078
15 *117:23 *118:12 7.03766e-05
16 *117:44 *150:85 2.96154e-05
17 *117:44 *207:8 2.02872e-05
18 *117:44 *208:10 0.000184866
19 *1095:B *117:44 8.1939e-05
20 *115:57 *117:23 0
21 *116:45 *117:44 5.50106e-05
*RES
1 *1133:Q *117:6 38 
2 *117:6 *1012:B 44.2143 
3 *117:6 *117:23 16.9057 
4 *117:23 *117:25 3.48 
5 *117:25 *1095:C 23 
6 *117:25 *117:44 36.1729 
7 *117:44 *1094:B1 23 
8 *117:23 *1221:A 30.7679 
*END

*D_NET *118 0.00882791
*CONN
*I *1050:A1 I *D sky130_fd_sc_hd__o31a_1
*I *1012:A I *D sky130_fd_sc_hd__and2_1
*I *1011:A I *D sky130_fd_sc_hd__and2_1
*I *1010:A I *D sky130_fd_sc_hd__and2_1
*I *1125:Q O *D sky130_fd_sc_hd__dfrtp_1
*CAP
1 *1050:A1 0.000194747
2 *1012:A 0
3 *1011:A 0
4 *1010:A 8.18116e-05
5 *1125:Q 6.03586e-05
6 *118:49 0.00127719
7 *118:33 0.000231688
8 *118:18 0.000640327
9 *118:12 0.000891917
10 *118:6 0.00170789
11 *1010:A *257:10 7.73389e-05
12 *1010:A *304:10 1.94812e-05
13 *1050:A1 *1222:A 9.84794e-05
14 *118:6 *199:20 2.72257e-05
15 *118:12 *1098:S 0.000601777
16 *118:12 *133:8 0
17 *118:12 *209:16 2.5415e-05
18 *118:33 *1097:B1 6.10385e-05
19 *118:33 *1097:B2 1.28818e-05
20 *118:33 *247:10 9.03979e-05
21 *118:33 *257:10 0.000133316
22 *118:33 *310:24 0.000262864
23 *118:49 *1021:D 0
24 *118:49 *1022:B 7.57281e-06
25 *118:49 *1098:S 0.000120405
26 *118:49 *1124:RESET_B 2.5343e-05
27 *118:49 *125:12 0
28 *118:49 *148:10 0.000550943
29 *118:49 *199:10 0.000110913
30 *118:49 *199:20 2.45549e-06
31 *118:49 *267:8 0.000101564
32 *118:49 *267:51 0.000262862
33 *118:49 *271:48 0.000225275
34 *118:49 *284:30 0.000163352
35 *118:49 *284:40 4.93359e-05
36 *118:49 *300:33 0
37 *118:49 *334:32 8.62783e-05
38 *118:49 *336:8 0.000159558
39 *118:49 *336:10 1.50266e-05
40 *1012:B *118:12 0.000137163
41 *1012:B *118:18 9.84794e-05
42 *115:39 *1010:A 5.50106e-05
43 *115:39 *118:33 1.69668e-05
44 *116:28 *118:33 4.9662e-05
45 *116:45 *118:33 2.32101e-05
46 *117:23 *118:12 7.03766e-05
*RES
1 *1125:Q *118:6 24.0979 
2 *118:6 *118:12 43.8786 
3 *118:12 *118:18 6.02786 
4 *118:18 *1010:A 25.0507 
5 *118:18 *118:33 36.09 
6 *118:33 *1011:A 23 
7 *118:12 *1012:A 23 
8 *118:6 *118:49 39.4843 
9 *118:49 *1050:A1 41.48 
*END

*D_NET *119 0.0008442
*CONN
*I *1119:D I *D sky130_fd_sc_hd__dfrtp_1
*I *1016:X O *D sky130_fd_sc_hd__mux2_1
*CAP
1 *1119:D 0.00012285
2 *1016:X 0.000172345
3 *119:10 0.000295195
4 *119:10 *141:10 0
5 *119:10 *142:10 0.000111852
6 *119:10 *333:34 0.00014196
*RES
1 *1016:X *119:10 41.1279 
2 *119:10 *1119:D 39.5743 
*END

*D_NET *120 0.00148793
*CONN
*I *1120:D I *D sky130_fd_sc_hd__dfrtp_1
*I *1018:X O *D sky130_fd_sc_hd__mux2_1
*CAP
1 *1120:D 0
2 *1018:X 0.000530868
3 *120:6 0.000530868
4 *120:6 *1120:CLK 0.000107135
5 *120:6 *270:36 0.000319063
*RES
1 *1018:X *120:6 31.3116 
2 *120:6 *1120:D 23 
*END

*D_NET *121 0.00062498
*CONN
*I *1121:D I *D sky130_fd_sc_hd__dfrtp_4
*I *1029:X O *D sky130_fd_sc_hd__mux2_1
*CAP
1 *1121:D 0
2 *1029:X 0.000206073
3 *121:10 0.000206073
4 *121:10 *253:6 0.00014349
5 *121:10 *332:8 6.93449e-05
*RES
1 *1029:X *121:10 41.48 
2 *121:10 *1121:D 38 
*END

*D_NET *122 0.000524224
*CONN
*I *1122:D I *D sky130_fd_sc_hd__dfrtp_2
*I *1034:X O *D sky130_fd_sc_hd__a22o_1
*CAP
1 *1122:D 0
2 *1034:X 0.000203402
3 *122:8 0.000203402
4 *122:8 *1122:RESET_B 1.14452e-05
5 *122:8 *282:10 0
6 *122:8 *326:34 0.000105975
*RES
1 *1034:X *122:8 42.3707 
2 *122:8 *1122:D 38 
*END

*D_NET *123 0.00164365
*CONN
*I *1123:D I *D sky130_fd_sc_hd__dfrtp_1
*I *1041:X O *D sky130_fd_sc_hd__mux2_1
*CAP
1 *1123:D 0
2 *1041:X 0.000596082
3 *123:8 0.000596082
4 *123:8 *1123:RESET_B 0.000178388
5 *123:8 *283:8 0.00014698
6 *123:8 *332:36 0.00012612
*RES
1 *1041:X *123:8 35.5529 
2 *123:8 *1123:D 23 
*END

*D_NET *124 0.000713114
*CONN
*I *1124:D I *D sky130_fd_sc_hd__dfrtp_1
*I *1046:X O *D sky130_fd_sc_hd__mux2_1
*CAP
1 *1124:D 0
2 *1046:X 0.000337758
3 *124:10 0.000337758
4 *124:10 *239:44 3.75988e-05
5 *124:10 *336:8 0
6 *124:10 *346:10 0
*RES
1 *1046:X *124:10 43.0336 
2 *124:10 *1124:D 38 
*END

*D_NET *125 0.00375491
*CONN
*I *1125:D I *D sky130_fd_sc_hd__dfrtp_1
*I *1050:X O *D sky130_fd_sc_hd__o31a_1
*CAP
1 *1125:D 0
2 *1050:X 0
3 *125:12 0.00117154
4 *125:6 0.00117154
5 *125:12 *1084:B1 0
6 *125:12 *1125:RESET_B 0.000127537
7 *125:12 *1200:A 2.72055e-05
8 *125:12 *1222:A 7.70737e-05
9 *125:12 *139:48 0
10 *125:12 *147:10 0
11 *125:12 *147:12 0
12 *125:12 *148:24 0
13 *125:12 *267:8 0.000118422
14 *125:12 *267:51 0.000150461
15 *125:12 *271:18 0
16 *125:12 *281:102 0.000163352
17 *125:12 *284:18 0.000652459
18 *125:12 *284:28 6.08751e-05
19 *125:12 *326:95 0
20 *125:12 *334:36 3.44502e-05
21 *118:49 *125:12 0
*RES
1 *1050:X *125:6 38 
2 *125:6 *125:12 40.4579 
3 *125:12 *1125:D 23 
*END

*D_NET *126 0.00082428
*CONN
*I *1126:D I *D sky130_fd_sc_hd__dfrtp_1
*I *1053:Y O *D sky130_fd_sc_hd__o21bai_1
*CAP
1 *1126:D 2.3577e-05
2 *1053:Y 0.000155313
3 *126:10 0.00017889
4 *1126:D *271:97 2.64616e-05
5 *1126:D *336:42 5.50106e-05
6 *126:10 *1053:A2 9.39159e-05
7 *126:10 *171:8 0.000194327
8 *126:10 *347:12 9.67842e-05
*RES
1 *1053:Y *126:10 41.7079 
2 *126:10 *1126:D 38.6214 
*END

*D_NET *127 0.000530119
*CONN
*I *1127:D I *D sky130_fd_sc_hd__dfrtp_2
*I *1061:X O *D sky130_fd_sc_hd__mux2_1
*CAP
1 *1127:D 0
2 *1061:X 0.000189489
3 *127:10 0.000189489
4 *127:10 *1061:S 8.1796e-05
5 *127:10 *325:112 6.93449e-05
*RES
1 *1061:X *127:10 41.48 
2 *127:10 *1127:D 38 
*END

*D_NET *128 0.000577041
*CONN
*I *1128:D I *D sky130_fd_sc_hd__dfrtp_2
*I *1069:X O *D sky130_fd_sc_hd__mux2_1
*CAP
1 *1128:D 0
2 *1069:X 0.000235246
3 *128:10 0.000235246
4 *128:10 *1069:A0 0.00010655
5 *128:10 *1129:RESET_B 0
*RES
1 *1069:X *128:10 41.6043 
2 *128:10 *1128:D 38 
*END

*D_NET *129 0.000804501
*CONN
*I *1129:D I *D sky130_fd_sc_hd__dfrtp_1
*I *1077:X O *D sky130_fd_sc_hd__mux2_1
*CAP
1 *1129:D 0.000222716
2 *1077:X 0.000179535
3 *129:10 0.000402251
*RES
1 *1077:X *129:10 40.5271 
2 *129:10 *1129:D 41.9564 
*END

*D_NET *130 0.000670565
*CONN
*I *1130:D I *D sky130_fd_sc_hd__dfrtp_1
*I *1083:X O *D sky130_fd_sc_hd__o2bb2a_1
*CAP
1 *1130:D 6.19509e-05
2 *1083:X 0.000109191
3 *130:10 0.000171142
4 *1130:D *986:A 0.000139352
5 *1130:D *1130:CLK 7.53384e-06
6 *130:10 *1083:A1_N 2.93747e-05
7 *130:10 *163:14 0.000108681
8 *130:10 *230:8 4.334e-05
*RES
1 *1083:X *130:10 40.175 
2 *130:10 *1130:D 39.5743 
*END

*D_NET *131 0.000628395
*CONN
*I *1131:D I *D sky130_fd_sc_hd__dfrtp_2
*I *1088:X O *D sky130_fd_sc_hd__mux2_1
*CAP
1 *1131:D 0.000192303
2 *1088:X 5.7591e-05
3 *131:8 0.000249894
4 *1131:D *1131:CLK 3.28726e-05
5 *1131:D *1131:RESET_B 4.41205e-05
6 *1131:D *150:12 7.83309e-07
7 *131:8 *199:35 2.5415e-05
8 *115:10 *131:8 2.76611e-06
9 *115:75 *131:8 2.26489e-05
*RES
1 *1088:X *131:8 39.2014 
2 *131:8 *1131:D 40.5945 
*END

*D_NET *132 0.000873974
*CONN
*I *1132:D I *D sky130_fd_sc_hd__dfrtp_1
*I *1093:X O *D sky130_fd_sc_hd__mux2_1
*CAP
1 *1132:D 0
2 *1093:X 0.000436987
3 *132:10 0.000436987
*RES
1 *1093:X *132:10 43.51 
2 *132:10 *1132:D 38 
*END

*D_NET *133 0.000720702
*CONN
*I *1133:D I *D sky130_fd_sc_hd__dfrtp_1
*I *1098:X O *D sky130_fd_sc_hd__mux2_1
*CAP
1 *1133:D 7.84756e-05
2 *1098:X 0.000127701
3 *133:8 0.000206176
4 *1133:D *1133:RESET_B 0.000127537
5 *1133:D *310:20 0.000180812
6 *133:8 *209:16 0
7 *133:8 *270:47 0
8 *133:8 *270:51 0
9 *118:12 *133:8 0
*RES
1 *1098:X *133:8 40.2579 
2 *133:8 *1133:D 41.48 
*END

*D_NET *134 0.000976035
*CONN
*I *1155:D I *D sky130_fd_sc_hd__dfrtp_1
*I *1104:X O *D sky130_fd_sc_hd__a21o_1
*CAP
1 *1155:D 0
2 *1104:X 0.000273052
3 *134:10 0.000273052
4 *134:10 *1155:RESET_B 0
5 *134:10 *239:14 0.000114074
6 *134:10 *285:28 0.000315857
*RES
1 *1104:X *134:10 43.0336 
2 *134:10 *1155:D 38 
*END

*D_NET *135 0.000416604
*CONN
*I *1156:D I *D sky130_fd_sc_hd__dfrtp_1
*I *1112:X O *D sky130_fd_sc_hd__or4b_1
*CAP
1 *1156:D 8.22205e-05
2 *1112:X 6.14794e-05
3 *135:8 0.0001437
4 *1156:D *285:28 4.06849e-05
5 *135:8 *218:8 0
6 *135:8 *226:16 8.85189e-05
*RES
1 *1112:X *135:8 39.2014 
2 *135:8 *1156:D 39.9471 
*END

*D_NET *136 0.000469995
*CONN
*I *1157:D I *D sky130_fd_sc_hd__dfrtp_1
*I *1115:X O *D sky130_fd_sc_hd__or2_1
*CAP
1 *1157:D 0
2 *1115:X 0.000159698
3 *136:10 0.000159698
4 *136:10 *216:12 9.84851e-05
5 *136:10 *315:27 0
6 *136:10 *325:18 5.21127e-05
*RES
1 *1115:X *136:10 40.6514 
2 *136:10 *1157:D 38 
*END

*D_NET *137 0.000556234
*CONN
*I *1158:D I *D sky130_fd_sc_hd__dfrtp_1
*I *1118:X O *D sky130_fd_sc_hd__a211o_1
*CAP
1 *1158:D 0
2 *1118:X 0.000207137
3 *137:10 0.000207137
4 *137:10 *1082:A2 0
5 *137:10 *139:16 0.00014196
6 *137:10 *167:25 0
*RES
1 *1118:X *137:10 41.48 
2 *137:10 *1158:D 38 
*END

*D_NET *138 0.00138024
*CONN
*I *1008:B I *D sky130_fd_sc_hd__or2_1
*I *1099:B1 I *D sky130_fd_sc_hd__a21o_1
*I *1007:Y O *D sky130_fd_sc_hd__nor2_1
*CAP
1 *1008:B 0.000167759
2 *1099:B1 0
3 *1007:Y 0
4 *138:12 0.000296432
5 *138:4 0.000464191
6 *1008:B *1008:A 5.25848e-05
7 *1008:B *1104:A1 0
8 *1008:B *285:18 4.04888e-05
9 *138:12 *210:8 0.000102778
10 *138:12 *272:10 2.54046e-05
11 *138:12 *309:19 0.000230604
12 *138:12 *322:14 0
*RES
1 *1007:Y *138:4 23 
2 *138:4 *138:12 37.6021 
3 *138:12 *1099:B1 23 
4 *138:4 *1008:B 25.5479 
*END

*D_NET *139 0.0123457
*CONN
*I *1014:B1 I *D sky130_fd_sc_hd__a21o_1
*I *1085:A I *D sky130_fd_sc_hd__or4_4
*I *1025:A I *D sky130_fd_sc_hd__nor3_2
*I *1030:B1 I *D sky130_fd_sc_hd__a2111o_1
*I *1059:A I *D sky130_fd_sc_hd__or3_4
*I *1082:D1 I *D sky130_fd_sc_hd__a2111o_1
*I *1013:X O *D sky130_fd_sc_hd__a2bb2o_4
*CAP
1 *1014:B1 1.74641e-05
2 *1085:A 0
3 *1025:A 5.90125e-05
4 *1030:B1 0.00029524
5 *1059:A 0
6 *1082:D1 0
7 *1013:X 0
8 *139:48 0.000440019
9 *139:44 0.000469673
10 *139:42 0.000419728
11 *139:38 0.00125843
12 *139:22 0.00011987
13 *139:16 0.00101348
14 *139:4 0.00213368
15 *1014:B1 *1014:A2 1.37232e-05
16 *1025:A *1030:A2 5.50106e-05
17 *1025:A *1084:B1 3.0647e-05
18 *1025:A *1085:B 2.46345e-05
19 *1025:A *1200:A 5.50106e-05
20 *1025:A *147:10 1.14452e-05
21 *1025:A *147:12 6.16531e-05
22 *1025:A *326:95 1.12487e-05
23 *1030:B1 *1030:A2 2.02872e-05
24 *1030:B1 *1030:C1 0.000354122
25 *139:16 *1059:C 5.50049e-05
26 *139:16 *173:14 9.41704e-05
27 *139:16 *320:18 0.00131617
28 *139:16 *320:31 6.76661e-05
29 *139:16 *324:16 7.67536e-05
30 *139:22 *1083:A2_N 0
31 *139:22 *173:14 6.25829e-05
32 *139:22 *176:14 0.000162422
33 *139:38 *1156:RESET_B 0.000393767
34 *139:38 *169:24 0
35 *139:38 *217:12 0
36 *139:38 *218:8 0
37 *139:38 *223:10 0
38 *139:38 *271:73 0
39 *139:38 *310:95 0.00124392
40 *139:38 *310:110 0.000999405
41 *139:38 *320:18 9.84794e-05
42 *139:42 *140:10 1.40958e-05
43 *139:42 *229:6 5.50049e-05
44 *139:44 *1084:B1 9.15544e-05
45 *139:44 *1085:D 8.1796e-05
46 *139:44 *140:10 3.16784e-05
47 *139:44 *148:24 0.000105224
48 *139:44 *226:31 5.50106e-05
49 *139:44 *229:6 0.000181919
50 *139:48 *1084:B1 6.08751e-05
51 *139:48 *1085:B 8.4047e-05
52 *139:48 *148:24 7.76364e-06
53 *125:12 *139:48 0
54 *137:10 *139:16 0.00014196
*RES
1 *1013:X *139:4 23 
2 *139:4 *139:16 18.6014 
3 *139:16 *139:22 32.2579 
4 *139:22 *1082:D1 23 
5 *139:16 *1059:A 23 
6 *139:4 *139:38 46.175 
7 *139:38 *139:42 15.6214 
8 *139:42 *139:44 8.72071 
9 *139:44 *139:48 16.9057 
10 *139:48 *1030:B1 42.4329 
11 *139:48 *1025:A 39.8229 
12 *139:44 *1085:A 23 
13 *139:42 *1014:B1 23.4971 
*END

*D_NET *140 0.00187629
*CONN
*I *1016:S I *D sky130_fd_sc_hd__mux2_1
*I *1018:S I *D sky130_fd_sc_hd__mux2_1
*I *1014:X O *D sky130_fd_sc_hd__a21o_1
*CAP
1 *1016:S 0.000173582
2 *1018:S 0
3 *1014:X 0.000266116
4 *140:16 0.000290786
5 *140:10 0.00038332
6 *1016:S *333:34 0.000225863
7 *140:10 *1156:RESET_B 3.83778e-05
8 *140:10 *270:23 7.70494e-05
9 *140:10 *310:95 0.000327903
10 *140:16 *333:34 4.75206e-05
11 *139:42 *140:10 1.40958e-05
12 *139:44 *140:10 3.16784e-05
*RES
1 *1014:X *140:10 43.945 
2 *140:10 *140:16 17.0714 
3 *140:16 *1018:S 23 
4 *140:16 *1016:S 27.4329 
*END

*D_NET *141 0.00147016
*CONN
*I *1016:A0 I *D sky130_fd_sc_hd__mux2_1
*I *1015:X O *D sky130_fd_sc_hd__mux2_1
*CAP
1 *1016:A0 0.000107644
2 *1015:X 0.000425805
3 *141:10 0.000533449
4 *1016:A0 *333:34 0.000139357
5 *141:10 *1017:A1 5.50049e-05
6 *141:10 *142:10 0
7 *141:10 *243:16 0.000190205
8 *141:10 *248:10 1.86973e-05
9 *141:10 *321:25 0
10 *119:10 *141:10 0
*RES
1 *1015:X *141:10 46.8657 
2 *141:10 *1016:A0 39.5743 
*END

*D_NET *142 0.00176357
*CONN
*I *1018:A0 I *D sky130_fd_sc_hd__mux2_1
*I *1017:X O *D sky130_fd_sc_hd__mux2_1
*CAP
1 *1018:A0 4.99221e-05
2 *1017:X 0.000378377
3 *142:10 0.0004283
4 *1018:A0 *333:34 5.3304e-05
5 *142:10 *1017:A1 0.00014196
6 *142:10 *249:10 6.38845e-05
7 *142:10 *310:20 0.000239021
8 *142:10 *310:95 0.000296947
9 *119:10 *142:10 0.000111852
10 *141:10 *142:10 0
*RES
1 *1017:X *142:10 47.8186 
2 *142:10 *1018:A0 38.6214 
*END

*D_NET *143 0.000894748
*CONN
*I *1033:A2 I *D sky130_fd_sc_hd__a221o_1
*I *1019:Y O *D sky130_fd_sc_hd__nor2_1
*CAP
1 *1033:A2 7.26035e-05
2 *1019:Y 0.000155463
3 *143:10 0.000228066
4 *1033:A2 *149:50 3.38433e-05
5 *143:10 *156:8 0.000182012
6 *143:10 *320:95 5.50106e-05
7 *143:10 *326:77 0.00016775
*RES
1 *1019:Y *143:10 41.2314 
2 *143:10 *1033:A2 39.2895 
*END

*D_NET *144 0.000625558
*CONN
*I *1039:A1 I *D sky130_fd_sc_hd__a21oi_1
*I *1020:X O *D sky130_fd_sc_hd__or3_1
*CAP
1 *1039:A1 7.03666e-05
2 *1020:X 8.42947e-05
3 *144:8 0.000154661
4 *1039:A1 *1039:A2 9.84794e-05
5 *1039:A1 *326:77 5.50049e-05
6 *144:8 *156:8 9.63815e-05
7 *144:8 *281:44 6.63698e-05
*RES
1 *1020:X *144:8 40.61 
2 *144:8 *1039:A1 39.5743 
*END

*D_NET *145 0.0026999
*CONN
*I *1265:A I *D sky130_fd_sc_hd__clkbuf_1
*I *1044:A1 I *D sky130_fd_sc_hd__o21a_1
*I *1021:Y O *D sky130_fd_sc_hd__nor4_1
*CAP
1 *1265:A 0.000337232
2 *1044:A1 0.000144338
3 *1021:Y 8.00523e-05
4 *145:10 0.00048157
5 *145:8 8.00523e-05
6 *1044:A1 *1043:A2 5.50106e-05
7 *1044:A1 *1043:B1 1.32314e-05
8 *1044:A1 *1044:A2 5.67058e-05
9 *1044:A1 *281:65 5.3304e-05
10 *1044:A1 *281:74 4.5707e-05
11 *1044:A1 *283:58 3.17027e-05
12 *1265:A *1022:A 5.24812e-05
13 *1265:A *1022:B 0.00022109
14 *1265:A *1043:B1 0.000119313
15 *1265:A *146:10 9.58444e-05
16 *1265:A *219:10 2.65879e-05
17 *1265:A *281:74 1.14876e-05
18 *1265:A *283:58 0.000311554
19 *1265:A *283:66 0.000351828
20 *1265:A *284:18 1.76557e-05
21 *145:8 *1021:D 0
22 *145:8 *283:54 0.000113153
*RES
1 *1021:Y *145:8 39.5536 
2 *145:8 *145:10 15 
3 *145:10 *1044:A1 26.5007 
4 *145:10 *1265:A 33.5229 
*END

*D_NET *146 0.00574867
*CONN
*I *1084:C1 I *D sky130_fd_sc_hd__o2111a_1
*I *1114:A3 I *D sky130_fd_sc_hd__o31ai_1
*I *1111:A3 I *D sky130_fd_sc_hd__a31o_1
*I *1022:X O *D sky130_fd_sc_hd__or4_1
*CAP
1 *1084:C1 0
2 *1114:A3 0
3 *1111:A3 7.26029e-05
4 *1022:X 0.000203809
5 *146:46 0.000424571
6 *146:33 0.000260301
7 *146:16 0.000559726
8 *146:10 0.000855202
9 *1111:A3 *1111:A2 5.3304e-05
10 *1111:A3 *1112:C 5.3304e-05
11 *1111:A3 *226:16 1.41129e-05
12 *1111:A3 *239:44 6.70361e-05
13 *146:10 *982:A 5.50049e-05
14 *146:10 *219:10 0.000103984
15 *146:10 *323:10 0.000312342
16 *146:16 *982:A 0.000216721
17 *146:16 *226:16 0.000320651
18 *146:16 *226:31 2.472e-05
19 *146:16 *271:18 7.76364e-06
20 *146:16 *327:37 0.00021356
21 *146:33 *1112:C 0.000129522
22 *146:33 *167:8 5.3304e-05
23 *146:33 *217:12 0.00042646
24 *146:33 *228:16 5.3304e-05
25 *146:33 *239:32 2.18409e-05
26 *146:33 *239:44 5.41385e-05
27 *146:33 *239:89 0.000300098
28 *146:33 *327:33 6.07611e-06
29 *146:33 *327:37 0
30 *146:46 *982:A 0.000140259
31 *146:46 *1084:A1 0
32 *146:46 *1156:RESET_B 0
33 *146:46 *226:31 0.000239646
34 *146:46 *226:40 2.98648e-05
35 *146:46 *270:14 0.000166532
36 *146:46 *270:23 0
37 *146:46 *323:10 0.000213069
38 *1265:A *146:10 9.58444e-05
*RES
1 *1022:X *146:10 28.9036 
2 *146:10 *146:16 36.1314 
3 *146:16 *1111:A3 24.5743 
4 *146:16 *146:33 37.975 
5 *146:33 *1114:A3 23 
6 *146:10 *146:46 41.1236 
7 *146:46 *1084:C1 23 
*END

*D_NET *147 0.00332962
*CONN
*I *1025:B I *D sky130_fd_sc_hd__nor3_2
*I *1030:C1 I *D sky130_fd_sc_hd__a2111o_1
*I *1085:B I *D sky130_fd_sc_hd__or4_4
*I *1023:X O *D sky130_fd_sc_hd__o211a_4
*CAP
1 *1025:B 0
2 *1030:C1 9.69113e-05
3 *1085:B 0.000140525
4 *1023:X 0.000703075
5 *147:12 0.000286102
6 *147:10 0.000159714
7 *147:8 0.000814123
8 *1030:C1 *1030:A2 7.06812e-05
9 *1030:C1 *148:16 0.000313249
10 *1085:B *148:24 0.00014968
11 *147:10 *326:95 4.84045e-05
12 *147:12 *148:24 1.12487e-05
13 *1025:A *1085:B 2.46345e-05
14 *1025:A *147:10 1.14452e-05
15 *1025:A *147:12 6.16531e-05
16 *1030:B1 *1030:C1 0.000354122
17 *125:12 *147:10 0
18 *125:12 *147:12 0
19 *139:48 *1085:B 8.4047e-05
*RES
1 *1023:X *147:8 48.15 
2 *147:8 *147:10 2.25786 
3 *147:10 *147:12 0.849286 
4 *147:12 *1085:B 40.6514 
5 *147:12 *1030:C1 42.4329 
6 *147:10 *1025:B 38 
*END

*D_NET *148 0.00351223
*CONN
*I *1030:D1 I *D sky130_fd_sc_hd__a2111o_1
*I *1025:C I *D sky130_fd_sc_hd__nor3_2
*I *1085:C I *D sky130_fd_sc_hd__or4_4
*I *1024:X O *D sky130_fd_sc_hd__and3b_1
*CAP
1 *1030:D1 0
2 *1025:C 0
3 *1085:C 0
4 *1024:X 0.000374612
5 *148:24 0.000248324
6 *148:16 0.000347395
7 *148:12 9.9071e-05
8 *148:10 0.000374612
9 *148:10 *1200:A 0.000218952
10 *148:10 *267:8 0.000301954
11 *148:10 *281:102 1.02387e-05
12 *148:10 *284:28 9.41704e-05
13 *148:10 *326:28 1.14876e-05
14 *148:16 *1030:A2 0.000141954
15 *148:16 *1200:A 9.45591e-05
16 *148:16 *149:10 5.67943e-05
17 *1030:C1 *148:16 0.000313249
18 *1085:B *148:24 0.00014968
19 *118:49 *148:10 0.000550943
20 *125:12 *148:24 0
21 *139:44 *148:24 0.000105224
22 *139:48 *148:24 7.76364e-06
23 *147:12 *148:24 1.12487e-05
*RES
1 *1024:X *148:10 47.1143 
2 *148:10 *148:12 15 
3 *148:12 *148:16 4.45357 
4 *148:16 *148:24 34.8834 
5 *148:24 *1085:C 23 
6 *148:16 *1025:C 23 
7 *148:12 *1030:D1 23 
*END

*D_NET *149 0.00806549
*CONN
*I *1046:S I *D sky130_fd_sc_hd__mux2_1
*I *1029:S I *D sky130_fd_sc_hd__mux2_1
*I *1034:B2 I *D sky130_fd_sc_hd__a22o_1
*I *1041:S I *D sky130_fd_sc_hd__mux2_1
*I *1025:Y O *D sky130_fd_sc_hd__nor3_2
*CAP
1 *1046:S 0
2 *1029:S 0
3 *1034:B2 2.34823e-05
4 *1041:S 4.0683e-05
5 *1025:Y 0.00068887
6 *149:50 0.000762514
7 *149:32 0.00135782
8 *149:12 0.00023024
9 *149:10 0.00145025
10 *1041:S *1034:B1 3.22879e-05
11 *1041:S *283:25 1.98161e-05
12 *149:10 *1200:A 0.000267173
13 *149:10 *153:6 0.000791474
14 *149:12 *1034:A1 2.18506e-05
15 *149:12 *1034:B1 5.70419e-05
16 *149:12 *153:6 0.000185428
17 *149:32 *163:14 0.000212351
18 *149:32 *165:10 3.46344e-05
19 *149:32 *166:8 0
20 *149:32 *281:65 0
21 *149:32 *282:21 0
22 *149:32 *282:44 0
23 *149:32 *320:95 1.13579e-05
24 *149:32 *326:28 0.000243015
25 *149:32 *326:34 0
26 *149:50 *1027:A1_N 8.1228e-05
27 *149:50 *1027:A2_N 0.00013132
28 *149:50 *1027:B2 5.67058e-05
29 *149:50 *1028:A2 2.12347e-06
30 *149:50 *1029:A0 9.77405e-05
31 *149:50 *1215:A 3.68039e-05
32 *149:50 *151:10 6.07133e-05
33 *149:50 *155:28 0.000157771
34 *149:50 *239:44 0.000114846
35 *149:50 *253:6 0.00078987
36 *149:50 *281:20 1.54487e-05
37 *1033:A2 *149:50 3.38433e-05
38 *148:16 *149:10 5.67943e-05
*RES
1 *1025:Y *149:10 37.8314 
2 *149:10 *149:12 3.95643 
3 *149:12 *1041:S 24.0979 
4 *149:12 *1034:B2 23.4971 
5 *149:10 *149:32 41.4136 
6 *149:32 *149:50 48.3736 
7 *149:50 *1029:S 23 
8 *149:32 *1046:S 23 
*END

*D_NET *150 0.0153847
*CONN
*I *1097:B1 I *D sky130_fd_sc_hd__a221o_1
*I *1092:B1 I *D sky130_fd_sc_hd__a221o_1
*I *1045:B1 I *D sky130_fd_sc_hd__a221o_1
*I *1033:B1 I *D sky130_fd_sc_hd__a221o_1
*I *1028:A2 I *D sky130_fd_sc_hd__a21o_1
*I *1040:B1 I *D sky130_fd_sc_hd__a221o_1
*I *1087:B1 I *D sky130_fd_sc_hd__a221o_1
*I *1026:Y O *D sky130_fd_sc_hd__nor2_2
*CAP
1 *1097:B1 0.000264992
2 *1092:B1 0
3 *1045:B1 0.00034383
4 *1033:B1 0
5 *1028:A2 0.000373004
6 *1040:B1 0
7 *1087:B1 0
8 *1026:Y 0
9 *150:101 0.000979548
10 *150:85 0.00156353
11 *150:65 0.000205182
12 *150:59 0.00107697
13 *150:38 0.00100363
14 *150:29 0.000775605
15 *150:12 0.00201886
16 *150:4 0.00166492
17 *1028:A2 *1028:B1 5.56279e-05
18 *1028:A2 *1031:A 2.1819e-05
19 *1028:A2 *151:10 0.000110184
20 *1028:A2 *159:22 0.00030344
21 *1028:A2 *233:18 5.79559e-05
22 *1028:A2 *252:14 0
23 *1028:A2 *281:20 0.000186679
24 *1045:B1 *1019:A 6.17437e-06
25 *1045:B1 *1045:A1 0.000224605
26 *1045:B1 *163:14 3.02431e-05
27 *1045:B1 *282:44 0.000141835
28 *1045:B1 *320:95 8.70838e-05
29 *1097:B1 *1097:A2 0
30 *1097:B1 *1097:B2 6.39489e-06
31 *1097:B1 *209:16 0
32 *1097:B1 *310:24 2.32101e-05
33 *150:12 *1026:A 7.88926e-05
34 *150:12 *1131:CLK 3.34129e-05
35 *150:12 *1131:RESET_B 0.000260557
36 *150:12 *245:10 8.81493e-05
37 *150:12 *310:79 0.000147996
38 *150:12 *332:40 0
39 *150:29 *239:54 0
40 *150:29 *245:10 1.12863e-05
41 *150:29 *252:14 0
42 *150:29 *252:38 5.45345e-05
43 *150:29 *332:24 9.78737e-05
44 *150:29 *334:26 8.50457e-05
45 *150:38 *159:22 8.4047e-05
46 *150:38 *252:14 0
47 *150:38 *252:38 1.14452e-05
48 *150:38 *332:24 2.24048e-05
49 *150:59 *1019:A 2.02872e-05
50 *150:59 *281:16 5.71036e-05
51 *150:59 *281:36 0.000213872
52 *150:59 *332:24 4.67488e-05
53 *150:65 *154:10 2.75733e-06
54 *150:65 *267:40 0
55 *150:65 *281:44 6.25829e-05
56 *150:65 *326:77 0.000138807
57 *150:85 *208:10 4.98718e-06
58 *150:85 *310:58 0.000524337
59 *150:101 *1092:B2 1.8788e-05
60 *150:101 *1092:C1 2.79543e-05
61 *150:101 *257:10 0.000180218
62 *150:101 *310:34 0.000997243
63 *150:101 *310:44 3.32734e-05
64 *150:101 *310:58 0.000114092
65 *1011:B *1097:B1 0
66 *1131:D *150:12 7.83309e-07
67 *115:8 *150:12 1.40004e-05
68 *115:39 *150:101 9.70251e-05
69 *116:28 *1097:B1 1.24376e-05
70 *116:45 *1097:B1 5.3304e-05
71 *116:45 *150:85 0.000135557
72 *116:45 *150:101 3.47781e-05
73 *117:44 *150:85 2.96154e-05
74 *118:33 *1097:B1 6.10385e-05
75 *149:50 *1028:A2 2.12347e-06
*RES
1 *1026:Y *150:4 23 
2 *150:4 *150:12 34.9064 
3 *150:12 *1087:B1 38 
4 *150:12 *150:29 12.9464 
5 *150:29 *1040:B1 38 
6 *150:29 *150:38 1.90571 
7 *150:38 *1028:A2 46.9693 
8 *150:38 *150:59 22.2914 
9 *150:59 *150:65 34.0186 
10 *150:65 *1033:B1 23 
11 *150:59 *1045:B1 29.9807 
12 *150:4 *150:85 22.1879 
13 *150:85 *150:101 34.8857 
14 *150:101 *1092:B1 23 
15 *150:85 *1097:B1 41.9979 
*END

*D_NET *151 0.00080426
*CONN
*I *1028:B1 I *D sky130_fd_sc_hd__a21o_1
*I *1027:X O *D sky130_fd_sc_hd__a2bb2o_1
*CAP
1 *1028:B1 0.000141633
2 *1027:X 0.000116242
3 *151:10 0.000257875
4 *1028:B1 *1031:A 3.18142e-05
5 *1028:B1 *233:18 3.01704e-05
6 *1028:A2 *1028:B1 5.56279e-05
7 *1028:A2 *151:10 0.000110184
8 *149:50 *151:10 6.07133e-05
*RES
1 *1027:X *151:10 40.175 
2 *151:10 *1028:B1 40.5479 
*END

*D_NET *152 0.000373016
*CONN
*I *1029:A1 I *D sky130_fd_sc_hd__mux2_1
*I *1028:X O *D sky130_fd_sc_hd__a21o_1
*CAP
1 *1029:A1 4.88336e-05
2 *1028:X 3.55839e-05
3 *152:8 8.44175e-05
4 *1029:A1 *1029:A0 2.93747e-05
5 *152:8 *1215:A 8.62876e-05
6 *152:8 *252:14 8.85189e-05
*RES
1 *1028:X *152:8 39.2014 
2 *152:8 *1029:A1 38.6214 
*END

*D_NET *153 0.00197065
*CONN
*I *1034:A2 I *D sky130_fd_sc_hd__a22o_1
*I *1030:X O *D sky130_fd_sc_hd__a2111o_1
*CAP
1 *1034:A2 0
2 *1030:X 0.000275035
3 *153:6 0.000275035
4 *153:6 *1034:A1 0.000443673
5 *149:10 *153:6 0.000791474
6 *149:12 *153:6 0.000185428
*RES
1 *1030:X *153:6 33.6264 
2 *153:6 *1034:A2 23 
*END

*D_NET *154 0.000468902
*CONN
*I *1033:C1 I *D sky130_fd_sc_hd__a221o_1
*I *1031:X O *D sky130_fd_sc_hd__and2_1
*CAP
1 *1033:C1 0
2 *1031:X 0.000213131
3 *154:10 0.000213131
4 *154:10 *156:8 0
5 *154:10 *267:40 3.98835e-05
6 *150:65 *154:10 2.75733e-06
*RES
1 *1031:X *154:10 41.0036 
2 *154:10 *1033:C1 38 
*END

*D_NET *155 0.00564629
*CONN
*I *1068:A1 I *D sky130_fd_sc_hd__a211o_1
*I *1033:B2 I *D sky130_fd_sc_hd__a221o_1
*I *1032:X O *D sky130_fd_sc_hd__xor2_1
*CAP
1 *1068:A1 0
2 *1033:B2 0
3 *1032:X 0.000176507
4 *155:28 0.000900049
5 *155:18 0.00145645
6 *155:10 0.000732905
7 *155:10 *989:A 5.79559e-05
8 *155:10 *157:8 0.000144494
9 *155:10 *158:12 0
10 *155:10 *233:10 2.18926e-05
11 *155:18 *181:10 6.07611e-06
12 *155:18 *184:10 4.83941e-05
13 *155:18 *185:8 2.54046e-05
14 *155:18 *324:48 0.000662496
15 *155:28 *179:10 0
16 *155:28 *180:10 1.02387e-05
17 *155:28 *181:10 0.000277426
18 *155:28 *188:10 0
19 *155:28 *250:58 6.53505e-05
20 *155:28 *267:40 0.000406434
21 *155:28 *320:64 0.000216721
22 *155:28 *320:68 0.000196822
23 *155:28 *320:70 8.29059e-05
24 *149:50 *155:28 0.000157771
*RES
1 *1032:X *155:10 41.48 
2 *155:10 *155:18 39.5493 
3 *155:18 *155:28 37.8116 
4 *155:28 *1033:B2 23 
5 *155:18 *1068:A1 38 
*END

*D_NET *156 0.00224738
*CONN
*I *1034:B1 I *D sky130_fd_sc_hd__a22o_1
*I *1033:X O *D sky130_fd_sc_hd__a221o_1
*CAP
1 *1034:B1 4.01417e-05
2 *1033:X 0.000679253
3 *156:8 0.000719394
4 *1034:B1 *283:25 9.84851e-05
5 *156:8 *991:A 0
6 *156:8 *1045:A1 0
7 *156:8 *160:8 2.19643e-05
8 *156:8 *268:8 0
9 *156:8 *281:44 0
10 *156:8 *282:44 0.000167391
11 *156:8 *283:25 6.4393e-05
12 *156:8 *326:77 8.86335e-05
13 *1041:S *1034:B1 3.22879e-05
14 *143:10 *156:8 0.000182012
15 *144:8 *156:8 9.63815e-05
16 *149:12 *1034:B1 5.70419e-05
17 *154:10 *156:8 0
*RES
1 *1033:X *156:8 49.7657 
2 *156:8 *1034:B1 39.5743 
*END

*D_NET *157 0.00162148
*CONN
*I *1037:A I *D sky130_fd_sc_hd__nor2_1
*I *1035:Y O *D sky130_fd_sc_hd__a21oi_1
*CAP
1 *1037:A 0
2 *1035:Y 0.000277583
3 *157:8 0.000277583
4 *157:8 *989:A 9.88038e-05
5 *157:8 *1032:B 0.000125488
6 *157:8 *1035:A2 7.15126e-05
7 *157:8 *1037:B 0.000460376
8 *157:8 *158:6 0.000141954
9 *157:8 *233:10 1.32939e-05
10 *157:8 *260:36 1.03955e-05
11 *155:10 *157:8 0.000144494
*RES
1 *1035:Y *157:8 32.0936 
2 *157:8 *1037:A 23 
*END

*D_NET *158 0.00239408
*CONN
*I *1037:B I *D sky130_fd_sc_hd__nor2_1
*I *1042:B I *D sky130_fd_sc_hd__xor2_1
*I *1036:X O *D sky130_fd_sc_hd__and3_1
*CAP
1 *1037:B 0.000366484
2 *1042:B 0
3 *1036:X 9.63283e-05
4 *158:12 0.000402508
5 *158:6 0.00086532
6 *1037:B *159:12 5.79559e-05
7 *1037:B *233:10 3.1528e-06
8 *158:12 *261:10 0
9 *158:12 *261:14 0
10 *158:12 *335:50 0
11 *155:10 *158:12 0
12 *157:8 *1037:B 0.000460376
13 *157:8 *158:6 0.000141954
*RES
1 *1036:X *158:6 24.5743 
2 *158:6 *158:12 36.4836 
3 *158:12 *1042:B 23 
4 *158:6 *1037:B 29.7321 
*END

*D_NET *159 0.00510634
*CONN
*I *1076:A1 I *D sky130_fd_sc_hd__a211o_1
*I *1040:B2 I *D sky130_fd_sc_hd__a221o_1
*I *1037:Y O *D sky130_fd_sc_hd__nor2_1
*CAP
1 *1076:A1 2.50219e-05
2 *1040:B2 0
3 *1037:Y 0.000183993
4 *159:22 0.00105491
5 *159:12 0.00126392
6 *1076:A1 *1076:A2 2.08774e-05
7 *1076:A1 *188:10 2.24608e-05
8 *1076:A1 *192:10 6.23119e-06
9 *159:12 *192:10 1.23293e-05
10 *159:12 *233:10 0.000189321
11 *159:22 *1027:A2_N 1.4471e-05
12 *159:22 *1027:B2 0.000232415
13 *159:22 *161:10 5.84561e-05
14 *159:22 *188:10 0.000758786
15 *159:22 *233:10 4.89774e-05
16 *159:22 *233:18 0.000496597
17 *159:22 *239:46 3.21785e-05
18 *159:22 *250:21 3.3746e-05
19 *159:22 *250:58 1.06693e-05
20 *159:22 *251:53 3.83059e-05
21 *159:22 *252:14 0
22 *159:22 *281:16 2.07357e-05
23 *159:22 *320:70 0
24 *159:22 *332:24 0.000136486
25 *1028:A2 *159:22 0.00030344
26 *1037:B *159:12 5.79559e-05
27 *150:38 *159:22 8.4047e-05
*RES
1 *1037:Y *159:12 41.9461 
2 *159:12 *159:22 41.5454 
3 *159:22 *1040:B2 23 
4 *159:12 *1076:A1 38.5645 
*END

*D_NET *160 0.00137755
*CONN
*I *1039:A2 I *D sky130_fd_sc_hd__a21oi_1
*I *1038:Y O *D sky130_fd_sc_hd__o21ai_1
*CAP
1 *1039:A2 0.000169081
2 *1038:Y 0.000143308
3 *160:8 0.00031239
4 *1039:A2 *326:77 0.000110389
5 *160:8 *282:44 0.000167443
6 *160:8 *283:25 6.16439e-05
7 *160:8 *326:34 0.000292846
8 *1039:A1 *1039:A2 9.84794e-05
9 *156:8 *160:8 2.19643e-05
*RES
1 *1038:Y *160:8 42.0186 
2 *160:8 *1039:A2 41.48 
*END

*D_NET *161 0.00127886
*CONN
*I *1040:C1 I *D sky130_fd_sc_hd__a221o_1
*I *1039:Y O *D sky130_fd_sc_hd__a21oi_1
*CAP
1 *1040:C1 0
2 *1039:Y 0.00037543
3 *161:10 0.00037543
4 *161:10 *1039:B1 0.000168821
5 *161:10 *1040:A2 0.00011631
6 *161:10 *252:38 0.000184407
7 *159:22 *161:10 5.84561e-05
*RES
1 *1039:Y *161:10 31.2857 
2 *161:10 *1040:C1 23 
*END

*D_NET *162 0.00186505
*CONN
*I *1041:A1 I *D sky130_fd_sc_hd__mux2_1
*I *1040:X O *D sky130_fd_sc_hd__a221o_1
*CAP
1 *1041:A1 0.000346494
2 *1040:X 0.000162546
3 *162:8 0.00050904
4 *1041:A1 *283:8 0.000488848
5 *1041:A1 *283:25 5.67058e-05
6 *162:8 *1198:A 0
7 *162:8 *239:54 0.000301419
8 *162:8 *267:40 0
9 *162:8 *268:8 0
*RES
1 *1040:X *162:8 42.0186 
2 *162:8 *1041:A1 43.8621 
*END

*D_NET *163 0.0063343
*CONN
*I *1082:A1 I *D sky130_fd_sc_hd__a2111o_1
*I *1045:B2 I *D sky130_fd_sc_hd__a221o_1
*I *1042:X O *D sky130_fd_sc_hd__xor2_1
*CAP
1 *1082:A1 0.000505892
2 *1045:B2 0
3 *1042:X 0.000956357
4 *163:14 0.000972969
5 *163:6 0.00243522
6 *1082:A1 *1083:A2_N 4.73234e-05
7 *1082:A1 *1083:B2 0.00035322
8 *163:6 *990:A 5.70419e-05
9 *163:6 *1062:A 8.48502e-06
10 *163:6 *1083:A1_N 6.29691e-05
11 *163:6 *1083:A2_N 2.45549e-06
12 *163:6 *179:10 7.92203e-05
13 *163:6 *234:10 0.000354127
14 *163:6 *251:53 0.000114959
15 *163:14 *991:A 0
16 *163:14 *1045:A1 0
17 *163:14 *165:10 6.07611e-06
18 *163:14 *196:10 0
19 *163:14 *230:8 1.7992e-05
20 *163:14 *235:8 0
21 *163:14 *280:19 0
22 *163:14 *320:95 8.72235e-06
23 *163:14 *346:10 0
24 *1045:B1 *163:14 3.02431e-05
25 *130:10 *163:14 0.000108681
26 *149:32 *163:14 0.000212351
*RES
1 *1042:X *163:6 41.2493 
2 *163:6 *163:14 48.0836 
3 *163:14 *1045:B2 23 
4 *163:6 *1082:A1 32.715 
*END

*D_NET *164 0.000161128
*CONN
*I *1044:A2 I *D sky130_fd_sc_hd__o21a_1
*I *1043:X O *D sky130_fd_sc_hd__o31a_1
*CAP
1 *1044:A2 5.2211e-05
2 *1043:X 5.2211e-05
3 *1044:A1 *1044:A2 5.67058e-05
*RES
1 *1043:X *1044:A2 47.0979 
*END

*D_NET *165 0.000391272
*CONN
*I *1045:C1 I *D sky130_fd_sc_hd__a221o_1
*I *1044:X O *D sky130_fd_sc_hd__o21a_1
*CAP
1 *1045:C1 0
2 *1044:X 0.000144329
3 *165:10 0.000144329
4 *165:10 *1045:A1 2.96154e-05
5 *165:10 *282:44 0
6 *165:10 *326:30 3.22879e-05
7 *149:32 *165:10 3.46344e-05
8 *163:14 *165:10 6.07611e-06
*RES
1 *1044:X *165:10 40.5271 
2 *165:10 *1045:C1 38 
*END

*D_NET *166 0.000407839
*CONN
*I *1046:A1 I *D sky130_fd_sc_hd__mux2_1
*I *1045:X O *D sky130_fd_sc_hd__a221o_1
*CAP
1 *1046:A1 3.70279e-05
2 *1045:X 0.000122824
3 *166:8 0.000159852
4 *1046:A1 *1046:A0 2.93747e-05
5 *1046:A1 *239:44 5.41288e-05
6 *166:8 *320:95 4.6318e-06
7 *149:32 *166:8 0
*RES
1 *1045:X *166:8 39.9057 
2 *166:8 *1046:A1 39.0979 
*END

*D_NET *167 0.00943108
*CONN
*I *1103:A2 I *D sky130_fd_sc_hd__a211o_1
*I *1048:B I *D sky130_fd_sc_hd__nand2_1
*I *1053:A2 I *D sky130_fd_sc_hd__o21bai_1
*I *1052:A2 I *D sky130_fd_sc_hd__o211a_1
*I *1107:A3 I *D sky130_fd_sc_hd__a311o_1
*I *1050:A2 I *D sky130_fd_sc_hd__o31a_1
*I *1047:X O *D sky130_fd_sc_hd__and3_2
*CAP
1 *1103:A2 0
2 *1048:B 0
3 *1053:A2 0.000333173
4 *1052:A2 0.000158627
5 *1107:A3 0.000258498
6 *1050:A2 6.15564e-05
7 *1047:X 0
8 *167:69 0.000463509
9 *167:36 0.000988663
10 *167:25 0.00141464
11 *167:17 0.000678939
12 *167:8 0.000659835
13 *167:4 0.00104212
14 *1050:A2 *1050:B1 8.1796e-05
15 *1050:A2 *169:24 0.000187129
16 *1052:A2 *1052:C1 4.00259e-06
17 *1052:A2 *325:22 0.000177899
18 *1053:A2 *170:12 0
19 *1053:A2 *171:8 2.93562e-05
20 *1053:A2 *277:89 0
21 *1107:A3 *173:6 0.000199229
22 *1107:A3 *217:8 4.96717e-05
23 *167:8 *1047:C 3.45967e-05
24 *167:8 *1050:B1 2.93747e-05
25 *167:8 *1114:B1 0.000399291
26 *167:8 *169:24 0.000593919
27 *167:8 *228:16 0.000393913
28 *167:17 *1050:B1 4.00259e-06
29 *167:17 *228:16 5.90675e-06
30 *167:25 *1054:A 0
31 *167:25 *1115:A 0
32 *167:25 *215:10 7.03663e-05
33 *167:25 *217:12 0
34 *167:25 *220:29 0.000656733
35 *167:25 *271:59 0
36 *167:25 *302:34 0
37 *167:36 *1115:A 0
38 *167:36 *170:12 0
39 *167:36 *302:34 0
40 *167:69 *1005:B_N 0.000228909
41 *167:69 *1047:A 5.3304e-05
42 *167:69 *1047:C 2.06822e-05
43 *167:69 *212:10 4.21594e-06
44 *167:69 *328:14 0
45 *167:69 *331:89 0
46 *126:10 *1053:A2 9.39159e-05
47 *137:10 *167:25 0
48 *146:33 *167:8 5.3304e-05
*RES
1 *1047:X *167:4 23 
2 *167:4 *167:8 16.1157 
3 *167:8 *1050:A2 25.5271 
4 *167:8 *167:17 0.497143 
5 *167:17 *167:25 29.645 
6 *167:25 *1107:A3 43.8621 
7 *167:25 *167:36 8.59643 
8 *167:36 *1052:A2 41.9771 
9 *167:36 *1053:A2 44.1314 
10 *167:17 *1048:B 23 
11 *167:4 *167:69 36.815 
12 *167:69 *1103:A2 23 
*END

*D_NET *168 0.000365367
*CONN
*I *1050:B1 I *D sky130_fd_sc_hd__o31a_1
*I *1048:Y O *D sky130_fd_sc_hd__nand2_1
*CAP
1 *1050:B1 0.000125097
2 *1048:Y 0.000125097
3 *1050:B1 *228:16 0
4 *1050:A2 *1050:B1 8.1796e-05
5 *167:8 *1050:B1 2.93747e-05
6 *167:17 *1050:B1 4.00259e-06
*RES
1 *1048:Y *1050:B1 48.5479 
*END

*D_NET *169 0.00575233
*CONN
*I *1108:B1 I *D sky130_fd_sc_hd__a21o_1
*I *1050:A3 I *D sky130_fd_sc_hd__o31a_1
*I *1049:X O *D sky130_fd_sc_hd__and2_1
*CAP
1 *1108:B1 0
2 *1050:A3 0
3 *1049:X 6.18252e-05
4 *169:24 0.000565302
5 *169:16 0.00156687
6 *169:8 0.00106339
7 *169:8 *1159:A 7.03869e-05
8 *169:8 *330:64 7.03869e-05
9 *169:16 *995:A_N 5.3304e-05
10 *169:16 *995:C 5.3304e-05
11 *169:16 *1108:A2 9.58714e-05
12 *169:16 *1211:A 2.93747e-05
13 *169:16 *238:31 0.000748662
14 *169:16 *330:51 9.32275e-05
15 *169:16 *330:116 0.000181125
16 *169:16 *331:6 0.000231246
17 *169:16 *331:12 5.41385e-05
18 *169:24 *217:12 0
19 *169:24 *239:89 3.28708e-05
20 *1050:A2 *169:24 0.000187129
21 *139:38 *169:24 0
22 *167:8 *169:24 0.000593919
*RES
1 *1049:X *169:8 39.9057 
2 *169:8 *169:16 38.6557 
3 *169:16 *169:24 41.3307 
4 *169:24 *1050:A3 23 
5 *169:16 *1108:B1 23 
*END

*D_NET *170 0.00628474
*CONN
*I *1113:A2 I *D sky130_fd_sc_hd__a2111o_1
*I *1052:B1 I *D sky130_fd_sc_hd__o211a_1
*I *1051:Y O *D sky130_fd_sc_hd__nor3_1
*CAP
1 *1113:A2 2.5164e-05
2 *1052:B1 0
3 *1051:Y 0.000192229
4 *170:23 0.00199626
5 *170:12 0.000134329
6 *170:6 0.00229766
7 *1113:A2 *1113:D1 5.50106e-05
8 *170:6 *1051:A 1.02949e-05
9 *170:6 *1051:B 1.76557e-05
10 *170:6 *1051:C 1.32314e-05
11 *170:12 *277:89 6.07611e-06
12 *170:12 *325:35 0.000308661
13 *170:23 *1107:A1 5.62433e-05
14 *170:23 *228:16 4.6318e-06
15 *170:23 *228:23 0.000130679
16 *170:23 *241:53 0.00015795
17 *170:23 *272:33 6.16439e-05
18 *170:23 *272:44 0.000369939
19 *170:23 *273:21 1.22803e-05
20 *170:23 *274:8 0
21 *170:23 *315:10 0.000190838
22 *170:23 *315:27 0.000183169
23 *170:23 *327:19 6.7177e-06
24 *170:23 *327:23 5.40762e-05
25 *1053:A2 *170:12 0
26 *167:36 *170:12 0
*RES
1 *1051:Y *170:6 25.5271 
2 *170:6 *170:12 34.0186 
3 *170:12 *1052:B1 23 
4 *170:6 *170:23 47.6871 
5 *170:23 *1113:A2 38.6214 
*END

*D_NET *171 0.000647918
*CONN
*I *1053:B1_N I *D sky130_fd_sc_hd__o21bai_1
*I *1052:X O *D sky130_fd_sc_hd__o211a_1
*CAP
1 *1053:B1_N 0
2 *1052:X 0.000165486
3 *171:8 0.000165486
4 *171:8 *277:89 9.32613e-05
5 *1053:A2 *171:8 2.93562e-05
6 *126:10 *171:8 0.000194327
*RES
1 *1052:X *171:8 42.0186 
2 *171:8 *1053:B1_N 38 
*END

*D_NET *172 0.00149744
*CONN
*I *1249:A I *D sky130_fd_sc_hd__buf_1
*I *1082:A2 I *D sky130_fd_sc_hd__a2111o_1
*I *1054:Y O *D sky130_fd_sc_hd__nor3_1
*CAP
1 *1249:A 0.000203896
2 *1082:A2 0.000217098
3 *1054:Y 4.51718e-05
4 *172:8 0.000466166
5 *1082:A2 *1054:A 0
6 *1082:A2 *271:59 0
7 *1082:A2 *336:34 0.000251644
8 *1249:A *1266:A 9.67842e-05
9 *1249:A *173:6 6.16164e-05
10 *1249:A *174:14 1.01436e-05
11 *1249:A *176:10 2.02872e-05
12 *1249:A *324:8 3.22879e-05
13 *1249:A *336:34 5.72749e-05
14 *172:8 *320:18 2.18409e-05
15 *172:8 *320:31 1.32314e-05
16 *137:10 *1082:A2 0
*RES
1 *1054:Y *172:8 38.6214 
2 *172:8 *1082:A2 42.0186 
3 *172:8 *1249:A 42.4329 
*END

*D_NET *173 0.00463069
*CONN
*I *1059:B I *D sky130_fd_sc_hd__or3_4
*I *1082:B1 I *D sky130_fd_sc_hd__a2111o_1
*I *1055:Y O *D sky130_fd_sc_hd__nor4_1
*CAP
1 *1059:B 0
2 *1082:B1 0
3 *1055:Y 0.00135899
4 *173:20 6.05068e-05
5 *173:14 0.000371256
6 *173:6 0.00166973
7 *173:6 *1105:B 0.000167623
8 *173:6 *1107:A1 8.08139e-06
9 *173:6 *1107:B1 9.75779e-05
10 *173:6 *1266:A 7.44161e-06
11 *173:6 *174:14 1.41077e-05
12 *173:6 *215:10 5.26733e-06
13 *173:6 *324:8 9.84851e-05
14 *173:14 *1083:A2_N 0
15 *173:14 *176:10 3.96156e-05
16 *173:14 *177:19 0
17 *173:14 *320:31 1.46594e-05
18 *173:14 *324:16 0.000136738
19 *173:14 *336:34 0
20 *173:20 *176:14 0.000110913
21 *173:20 *336:34 5.21024e-05
22 *1107:A3 *173:6 0.000199229
23 *1249:A *173:6 6.16164e-05
24 *139:16 *173:14 9.41704e-05
25 *139:22 *173:14 6.25829e-05
*RES
1 *1055:Y *173:6 41.7257 
2 *173:6 *173:14 35.945 
3 *173:14 *173:20 31.5536 
4 *173:20 *1082:B1 23 
5 *173:14 *1059:B 23 
*END

*D_NET *174 0.00250117
*CONN
*I *1106:C I *D sky130_fd_sc_hd__and3b_1
*I *1105:B I *D sky130_fd_sc_hd__nand2b_1
*I *1058:B1_N I *D sky130_fd_sc_hd__o21ba_1
*I *1056:X O *D sky130_fd_sc_hd__or4_1
*CAP
1 *1106:C 0.000220841
2 *1105:B 0.000145895
3 *1058:B1_N 0
4 *1056:X 8.53853e-05
5 *174:14 0.000347347
6 *174:8 0.000507678
7 *1105:B *1058:A1 5.50106e-05
8 *1105:B *1266:A 7.82647e-05
9 *1106:C *1106:A_N 9.84851e-05
10 *1106:C *302:28 0.000311554
11 *1106:C *317:39 4.04598e-06
12 *1106:C *317:47 5.31757e-05
13 *1106:C *325:63 0.000227208
14 *174:8 *325:35 0
15 *174:8 *336:34 3.04021e-05
16 *174:14 *1266:A 5.67058e-05
17 *174:14 *317:47 0
18 *174:14 *325:37 0
19 *174:14 *336:34 8.72985e-05
20 *1249:A *174:14 1.01436e-05
21 *173:6 *1105:B 0.000167623
22 *173:6 *174:14 1.41077e-05
*RES
1 *1056:X *174:8 39.5536 
2 *174:8 *174:14 19.2879 
3 *174:14 *1058:B1_N 23 
4 *174:14 *1105:B 27.6245 
5 *174:8 *1106:C 44.3386 
*END

*D_NET *175 0.000252917
*CONN
*I *1060:C1 I *D sky130_fd_sc_hd__a221o_1
*I *1057:X O *D sky130_fd_sc_hd__o21ba_1
*CAP
1 *1060:C1 0
2 *1057:X 7.39491e-05
3 *175:8 7.39491e-05
4 *175:8 *181:10 6.93553e-05
5 *175:8 *234:10 0
6 *175:8 *319:12 3.5664e-05
*RES
1 *1057:X *175:8 39.9057 
2 *175:8 *1060:C1 38 
*END

*D_NET *176 0.00283704
*CONN
*I *1059:C I *D sky130_fd_sc_hd__or3_4
*I *1082:C1 I *D sky130_fd_sc_hd__a2111o_1
*I *1081:C1 I *D sky130_fd_sc_hd__a311o_1
*I *1058:X O *D sky130_fd_sc_hd__o21ba_1
*CAP
1 *1059:C 1.9139e-05
2 *1082:C1 0
3 *1081:C1 0.000529835
4 *1058:X 0.000187805
5 *176:14 0.000707257
6 *176:10 0.000384367
7 *1059:C *320:31 5.3304e-05
8 *1081:C1 *1083:A2_N 0
9 *1081:C1 *195:14 0.000143655
10 *1081:C1 *336:10 9.46108e-05
11 *1081:C1 *336:20 3.96053e-05
12 *1081:C1 *336:34 1.02387e-05
13 *176:10 *1266:A 9.67842e-05
14 *176:10 *336:34 0.000136486
15 *176:14 *1083:A2_N 0
16 *176:14 *336:34 4.57131e-05
17 *1249:A *176:10 2.02872e-05
18 *139:16 *1059:C 5.50049e-05
19 *139:22 *176:14 0.000162422
20 *173:14 *176:10 3.96156e-05
21 *173:20 *176:14 0.000110913
*RES
1 *1058:X *176:10 41.48 
2 *176:10 *176:14 3.93571 
3 *176:14 *1081:C1 49.165 
4 *176:14 *1082:C1 38 
5 *176:10 *1059:C 38.6214 
*END

*D_NET *177 0.00613029
*CONN
*I *1061:S I *D sky130_fd_sc_hd__mux2_1
*I *1069:S I *D sky130_fd_sc_hd__mux2_1
*I *1077:S I *D sky130_fd_sc_hd__mux2_1
*I *1083:A2_N I *D sky130_fd_sc_hd__o2bb2a_1
*I *1059:X O *D sky130_fd_sc_hd__or3_4
*CAP
1 *1061:S 0.000314473
2 *1069:S 0
3 *1077:S 0
4 *1083:A2_N 0.000532778
5 *1059:X 0
6 *177:31 0.000364347
7 *177:23 0.000891852
8 *177:19 0.00146484
9 *177:6 0.00115564
10 *1061:S *1061:A1 8.47188e-05
11 *1061:S *1127:RESET_B 0
12 *1061:S *178:14 5.25848e-05
13 *1061:S *325:112 0
14 *1061:S *336:34 0
15 *1083:A2_N *1083:B2 9.13962e-05
16 *1083:A2_N *195:14 0.000133656
17 *177:19 *195:14 0.000211588
18 *177:19 *325:67 0
19 *177:19 *325:112 0
20 *177:19 *336:34 0
21 *177:31 *1069:A0 0.000446281
22 *177:31 *1069:A1 5.50049e-05
23 *177:31 *185:8 0.000193388
24 *177:31 *279:10 6.17437e-06
25 *1081:C1 *1083:A2_N 0
26 *1082:A1 *1083:A2_N 4.73234e-05
27 *127:10 *1061:S 8.1796e-05
28 *139:22 *1083:A2_N 0
29 *163:6 *1083:A2_N 2.45549e-06
30 *173:14 *1083:A2_N 0
31 *173:14 *177:19 0
32 *176:14 *1083:A2_N 0
*RES
1 *1059:X *177:6 38 
2 *177:6 *1083:A2_N 46.5757 
3 *177:6 *177:19 11.4136 
4 *177:19 *177:23 24.1971 
5 *177:23 *177:31 38.9486 
6 *177:31 *1077:S 23 
7 *177:23 *1069:S 23 
8 *177:19 *1061:S 44.7943 
*END

*D_NET *178 0.00305583
*CONN
*I *1061:A0 I *D sky130_fd_sc_hd__mux2_1
*I *1060:X O *D sky130_fd_sc_hd__a221o_1
*CAP
1 *1061:A0 0
2 *1060:X 9.63351e-05
3 *178:14 0.000993031
4 *178:8 0.00108937
5 *178:8 *320:31 8.1796e-05
6 *178:14 *1057:A1 0.000244517
7 *178:14 *1061:A1 5.50106e-05
8 *178:14 *182:8 0.000110922
9 *178:14 *191:10 0
10 *178:14 *277:47 6.68167e-05
11 *178:14 *278:10 9.84851e-05
12 *178:14 *278:12 0
13 *178:14 *278:35 3.83778e-05
14 *178:14 *319:12 0
15 *178:14 *324:16 0
16 *178:14 *324:67 0
17 *178:14 *325:67 0
18 *178:14 *325:79 0.000128583
19 *178:14 *325:112 0
20 *1061:S *178:14 5.25848e-05
*RES
1 *1060:X *178:8 39.5743 
2 *178:8 *178:14 33.2079 
3 *178:14 *1061:A0 23 
*END

*D_NET *179 0.0015134
*CONN
*I *1064:B I *D sky130_fd_sc_hd__and3_1
*I *1062:X O *D sky130_fd_sc_hd__or2_1
*CAP
1 *1064:B 0
2 *1062:X 0.0005203
3 *179:10 0.0005203
4 *179:10 *990:A 4.79641e-05
5 *179:10 *1062:A 9.41704e-05
6 *179:10 *1081:A1 3.70094e-05
7 *179:10 *180:10 3.56537e-05
8 *179:10 *320:41 0.000101708
9 *179:10 *320:43 7.70737e-05
10 *155:28 *179:10 0
11 *163:6 *179:10 7.92203e-05
*RES
1 *1062:X *179:10 46.3479 
2 *179:10 *1064:B 38 
*END

*D_NET *180 0.000785405
*CONN
*I *1064:C I *D sky130_fd_sc_hd__and3_1
*I *1063:Y O *D sky130_fd_sc_hd__nand2_1
*CAP
1 *1064:C 5.56408e-05
2 *1063:Y 0.000155776
3 *180:10 0.000211416
4 *1064:C *1130:CLK 6.8923e-05
5 *1064:C *181:10 5.50106e-05
6 *180:10 *1081:A1 0
7 *180:10 *186:12 2.93845e-05
8 *180:10 *267:40 0.000163361
9 *155:28 *180:10 1.02387e-05
10 *179:10 *180:10 3.56537e-05
*RES
1 *1063:Y *180:10 41.2314 
2 *180:10 *1064:C 39.4086 
*END

*D_NET *181 0.0012392
*CONN
*I *1068:B1 I *D sky130_fd_sc_hd__a211o_1
*I *1064:X O *D sky130_fd_sc_hd__and3_1
*CAP
1 *1068:B1 0
2 *1064:X 0.000403844
3 *181:10 0.000403844
4 *181:10 *1130:CLK 1.21972e-05
5 *181:10 *184:10 1.14452e-05
6 *181:10 *234:10 0
7 *181:10 *320:41 0
8 *1064:C *181:10 5.50106e-05
9 *155:18 *181:10 6.07611e-06
10 *155:28 *181:10 0.000277426
11 *175:8 *181:10 6.93553e-05
*RES
1 *1064:X *181:10 46.6379 
2 *181:10 *1068:B1 38 
*END

*D_NET *182 0.000905635
*CONN
*I *1067:B1 I *D sky130_fd_sc_hd__o22a_1
*I *1065:Y O *D sky130_fd_sc_hd__nor2_1
*CAP
1 *1067:B1 9.0862e-05
2 *1065:Y 6.04749e-05
3 *182:8 0.000151337
4 *1067:B1 *1067:A1 9.84851e-05
5 *1067:B1 *302:18 0.000267173
6 *1067:B1 *324:37 2.32004e-05
7 *1067:B1 *324:48 5.10686e-05
8 *182:8 *277:47 5.21127e-05
9 *178:14 *182:8 0.000110922
*RES
1 *1065:Y *182:8 39.5536 
2 *182:8 *1067:B1 41.5007 
*END

*D_NET *183 0.000377557
*CONN
*I *1067:B2 I *D sky130_fd_sc_hd__o22a_1
*I *1066:X O *D sky130_fd_sc_hd__and2_1
*CAP
1 *1067:B2 0
2 *1066:X 0.000162392
3 *183:10 0.000162392
4 *183:10 *277:47 3.884e-05
5 *183:10 *279:23 1.39317e-05
*RES
1 *1066:X *183:10 40.5271 
2 *183:10 *1067:B2 38 
*END

*D_NET *184 0.000522627
*CONN
*I *1068:C1 I *D sky130_fd_sc_hd__a211o_1
*I *1067:X O *D sky130_fd_sc_hd__o22a_1
*CAP
1 *1068:C1 0
2 *1067:X 0.000182151
3 *184:10 0.000182151
4 *184:10 *191:10 0
5 *184:10 *324:48 9.84851e-05
6 *155:18 *184:10 4.83941e-05
7 *181:10 *184:10 1.14452e-05
*RES
1 *1067:X *184:10 41.3557 
2 *184:10 *1068:C1 38 
*END

*D_NET *185 0.00205035
*CONN
*I *1069:A0 I *D sky130_fd_sc_hd__mux2_1
*I *1068:X O *D sky130_fd_sc_hd__a211o_1
*CAP
1 *1069:A0 0.000160594
2 *1068:X 0.00033262
3 *185:8 0.000493214
4 *1069:A0 *279:10 1.21972e-05
5 *185:8 *192:10 0.000141386
6 *185:8 *279:10 0.000138718
7 *128:10 *1069:A0 0.00010655
8 *155:18 *185:8 2.54046e-05
9 *177:31 *1069:A0 0.000446281
10 *177:31 *185:8 0.000193388
*RES
1 *1068:X *185:8 45.8921 
2 *185:8 *1069:A0 43.3857 
*END

*D_NET *186 0.00205916
*CONN
*I *1072:B I *D sky130_fd_sc_hd__and3_1
*I *1078:B I *D sky130_fd_sc_hd__nand2_1
*I *1079:B I *D sky130_fd_sc_hd__or2_1
*I *1070:Y O *D sky130_fd_sc_hd__nand3_1
*CAP
1 *1072:B 2.34823e-05
2 *1078:B 0
3 *1079:B 8.87267e-05
4 *1070:Y 0.000226694
5 *186:12 0.00038895
6 *186:6 0.0005504
7 *1079:B *1063:A 0
8 *1079:B *1078:A 5.67058e-05
9 *1079:B *1081:A1 1.22822e-05
10 *1079:B *193:8 2.4754e-05
11 *186:6 *1063:B 4.21378e-05
12 *186:6 *1071:B1 0.000187067
13 *186:6 *188:10 5.50049e-05
14 *186:6 *251:45 6.1609e-05
15 *186:12 *1063:A 2.98648e-05
16 *186:12 *1063:B 0.000138444
17 *186:12 *1071:B1 0
18 *186:12 *1078:A 0
19 *186:12 *1081:A1 0.000143655
20 *180:10 *186:12 2.93845e-05
*RES
1 *1070:Y *186:6 27.4329 
2 *186:6 *186:12 6.85643 
3 *186:12 *1079:B 25.0714 
4 *186:12 *1078:B 23 
5 *186:6 *1072:B 23.4971 
*END

*D_NET *187 0.00034182
*CONN
*I *1072:C I *D sky130_fd_sc_hd__and3_1
*I *1071:X O *D sky130_fd_sc_hd__a21o_1
*CAP
1 *1072:C 4.08639e-05
2 *1071:X 4.08639e-05
3 *1072:C *1063:A 7.9956e-05
4 *1072:C *1063:B 6.84256e-05
5 *1072:C *250:25 5.50049e-05
6 *1072:C *251:45 5.67058e-05
*RES
1 *1071:X *1072:C 47.4086 
*END

*D_NET *188 0.00199028
*CONN
*I *1076:B1 I *D sky130_fd_sc_hd__a211o_1
*I *1072:X O *D sky130_fd_sc_hd__and3_1
*CAP
1 *1076:B1 0
2 *1072:X 0.000403905
3 *188:10 0.000403905
4 *188:10 *251:53 0.000346215
5 *1076:A1 *188:10 2.24608e-05
6 *155:28 *188:10 0
7 *159:22 *188:10 0.000758786
8 *186:6 *188:10 5.50049e-05
*RES
1 *1072:X *188:10 48.9786 
2 *188:10 *1076:B1 38 
*END

*D_NET *189 0.000696445
*CONN
*I *1080:B1 I *D sky130_fd_sc_hd__o211a_1
*I *1075:B1 I *D sky130_fd_sc_hd__a2bb2oi_1
*I *1073:X O *D sky130_fd_sc_hd__or3_1
*CAP
1 *1080:B1 1.09472e-05
2 *1075:B1 2.95508e-05
3 *1073:X 0.000126628
4 *189:10 4.0498e-05
5 *189:8 0.000126628
6 *1075:B1 *1075:B2 1.76557e-05
7 *1075:B1 *1080:C1 3.61695e-05
8 *1075:B1 *302:18 9.72057e-06
9 *1075:B1 *302:28 0.000111596
10 *1080:B1 *1080:C1 5.50106e-05
11 *1080:B1 *302:28 3.04516e-05
12 *189:8 *1080:A1 1.06693e-05
13 *189:8 *1080:A2 4.6318e-06
14 *189:8 *190:8 8.62876e-05
15 *189:8 *325:79 0
*RES
1 *1073:X *189:8 39.9057 
2 *189:8 *189:10 15 
3 *189:10 *1075:B1 24.595 
4 *189:10 *1080:B1 23.6214 
*END

*D_NET *190 0.000652471
*CONN
*I *1075:B2 I *D sky130_fd_sc_hd__a2bb2oi_1
*I *1074:Y O *D sky130_fd_sc_hd__o21ai_1
*CAP
1 *1075:B2 0.000134967
2 *1074:Y 3.89734e-05
3 *190:8 0.00017394
4 *1075:B2 *1080:C1 9.75779e-05
5 *1075:B2 *302:18 7.53384e-06
6 *1075:B2 *302:28 9.24795e-06
7 *190:8 *325:67 8.62876e-05
8 *1075:B1 *1075:B2 1.76557e-05
9 *189:8 *190:8 8.62876e-05
*RES
1 *1074:Y *190:8 39.2014 
2 *190:8 *1075:B2 40.0507 
*END

*D_NET *191 0.00211551
*CONN
*I *1076:C1 I *D sky130_fd_sc_hd__a211o_1
*I *1075:Y O *D sky130_fd_sc_hd__a2bb2oi_1
*CAP
1 *1076:C1 0.000252786
2 *1075:Y 0.000470762
3 *191:10 0.000723548
4 *1076:C1 *1068:A2 4.00259e-06
5 *1076:C1 *1076:A2 8.46751e-05
6 *1076:C1 *277:47 5.67058e-05
7 *1076:C1 *319:21 0.000164364
8 *191:10 *324:33 5.67058e-05
9 *191:10 *324:37 0.000126056
10 *191:10 *324:48 0.000140259
11 *191:10 *324:67 3.56433e-05
12 *178:14 *191:10 0
13 *184:10 *191:10 0
*RES
1 *1075:Y *191:10 44.815 
2 *191:10 *1076:C1 43.8829 
*END

*D_NET *192 0.000989539
*CONN
*I *1077:A0 I *D sky130_fd_sc_hd__mux2_1
*I *1076:X O *D sky130_fd_sc_hd__a211o_1
*CAP
1 *1077:A0 0
2 *1076:X 0.000395757
3 *192:10 0.000395757
4 *192:10 *1076:A2 3.57247e-05
5 *192:10 *233:10 2.3531e-06
6 *1076:A1 *192:10 6.23119e-06
7 *159:12 *192:10 1.23293e-05
8 *185:8 *192:10 0.000141386
*RES
1 *1076:X *192:10 44.5457 
2 *192:10 *1077:A0 38 
*END

*D_NET *193 0.0010159
*CONN
*I *1081:A2 I *D sky130_fd_sc_hd__a311o_1
*I *1078:Y O *D sky130_fd_sc_hd__nand2_1
*CAP
1 *1081:A2 0
2 *1078:Y 0.000110514
3 *193:8 0.000110514
4 *193:8 *1078:A 0.000143655
5 *193:8 *1081:A1 0.000484512
6 *193:8 *1081:A3 0.000141954
7 *1079:B *193:8 2.4754e-05
*RES
1 *1078:Y *193:8 28.4064 
2 *193:8 *1081:A2 23 
*END

*D_NET *194 0.000265556
*CONN
*I *1081:A3 I *D sky130_fd_sc_hd__a311o_1
*I *1079:X O *D sky130_fd_sc_hd__or2_1
*CAP
1 *1081:A3 6.1801e-05
2 *1079:X 6.1801e-05
3 *193:8 *1081:A3 0.000141954
*RES
1 *1079:X *1081:A3 47.5743 
*END

*D_NET *195 0.00221972
*CONN
*I *1081:B1 I *D sky130_fd_sc_hd__a311o_1
*I *1080:X O *D sky130_fd_sc_hd__o211a_1
*CAP
1 *1081:B1 0
2 *1080:X 0
3 *195:14 0.000615207
4 *195:6 0.000615207
5 *195:14 *1081:A1 2.02517e-05
6 *195:14 *196:10 0.000103645
7 *195:14 *280:19 0.000376514
8 *1081:C1 *195:14 0.000143655
9 *1083:A2_N *195:14 0.000133656
10 *177:19 *195:14 0.000211588
*RES
1 *1080:X *195:6 38 
2 *195:6 *195:14 31.4264 
3 *195:14 *1081:B1 23 
*END

*D_NET *196 0.00131437
*CONN
*I *1083:B1 I *D sky130_fd_sc_hd__o2bb2a_1
*I *1081:X O *D sky130_fd_sc_hd__a311o_1
*CAP
1 *1083:B1 0
2 *1081:X 0.000443739
3 *196:10 0.000443739
4 *196:10 *1081:A1 0.000184527
5 *196:10 *280:19 0.000138718
6 *163:14 *196:10 0
7 *195:14 *196:10 0.000103645
*RES
1 *1081:X *196:10 46.2029 
2 *196:10 *1083:B1 38 
*END

*D_NET *197 0.000702006
*CONN
*I *1083:B2 I *D sky130_fd_sc_hd__o2bb2a_1
*I *1082:X O *D sky130_fd_sc_hd__a2111o_1
*CAP
1 *1083:B2 0.000128695
2 *1082:X 0.000128695
3 *1082:A1 *1083:B2 0.00035322
4 *1083:A2_N *1083:B2 9.13962e-05
*RES
1 *1082:X *1083:B2 49.9564 
*END

*D_NET *198 0.000267905
*CONN
*I *1085:D I *D sky130_fd_sc_hd__or4_4
*I *1084:X O *D sky130_fd_sc_hd__o2111a_1
*CAP
1 *1085:D 2.1227e-05
2 *1084:X 2.1227e-05
3 *1085:D *1084:B1 0.000143655
4 *139:44 *1085:D 8.1796e-05
*RES
1 *1084:X *1085:D 47.5743 
*END

*D_NET *199 0.00710962
*CONN
*I *1098:S I *D sky130_fd_sc_hd__mux2_1
*I *1093:S I *D sky130_fd_sc_hd__mux2_1
*I *1088:S I *D sky130_fd_sc_hd__mux2_1
*I *1085:X O *D sky130_fd_sc_hd__or4_4
*CAP
1 *1098:S 0.000320469
2 *1093:S 0
3 *1088:S 0
4 *1085:X 0.000347742
5 *199:35 0.000480057
6 *199:20 0.00142084
7 *199:10 0.00160899
8 *199:10 *334:32 9.41704e-05
9 *199:20 *1122:CLK 0.00020843
10 *199:20 *1122:RESET_B 0.000178818
11 *199:20 *282:10 0.000143071
12 *199:35 *1122:CLK 3.75171e-05
13 *199:35 *268:16 0.000164291
14 *199:35 *268:18 0.000434994
15 *199:35 *310:79 0.000398503
16 *199:35 *332:38 1.69668e-05
17 *1086:A *199:35 0.000268074
18 *1088:A1 *199:35 9.84851e-05
19 *115:10 *199:35 0
20 *115:75 *199:35 0
21 *118:6 *199:20 2.72257e-05
22 *118:12 *1098:S 0.000601777
23 *118:49 *1098:S 0.000120405
24 *118:49 *199:10 0.000110913
25 *118:49 *199:20 2.45549e-06
26 *131:8 *199:35 2.5415e-05
*RES
1 *1085:X *199:10 43.9864 
2 *199:10 *199:20 30.4529 
3 *199:20 *1088:S 23 
4 *199:20 *199:35 44.0029 
5 *199:35 *1093:S 23 
6 *199:10 *1098:S 47.3007 
*END

*D_NET *200 0.000699069
*CONN
*I *1087:C1 I *D sky130_fd_sc_hd__a221o_1
*I *1086:Y O *D sky130_fd_sc_hd__nor2_1
*CAP
1 *1087:C1 0
2 *1086:Y 0.000188581
3 *200:8 0.000188581
4 *200:8 *1087:B2 3.49249e-05
5 *200:8 *245:10 0.00018536
6 *200:8 *310:79 6.23206e-05
7 *200:8 *334:26 3.93003e-05
*RES
1 *1086:Y *200:8 27.8057 
2 *200:8 *1087:C1 23 
*END

*D_NET *201 0.00135464
*CONN
*I *1088:A0 I *D sky130_fd_sc_hd__mux2_1
*I *1087:X O *D sky130_fd_sc_hd__a221o_1
*CAP
1 *1088:A0 0
2 *1087:X 0.000392026
3 *201:6 0.000392026
4 *201:6 *310:79 0.000570592
*RES
1 *1087:X *201:6 29.3386 
2 *201:6 *1088:A0 23 
*END

*D_NET *202 0.00035169
*CONN
*I *1091:B I *D sky130_fd_sc_hd__and3_1
*I *1089:Y O *D sky130_fd_sc_hd__nand2_1
*CAP
1 *1091:B 0.000144531
2 *1089:Y 0.000144531
3 *1091:B *1091:A 1.32939e-05
4 *1089:A *1091:B 4.93341e-05
*RES
1 *1089:Y *1091:B 48.0507 
*END

*D_NET *203 0.000513882
*CONN
*I *1091:C I *D sky130_fd_sc_hd__and3_1
*I *1090:X O *D sky130_fd_sc_hd__or2_1
*CAP
1 *1091:C 2.10522e-05
2 *1090:X 0.000121103
3 *203:10 0.000142156
4 *203:10 *204:8 4.08641e-05
5 *1089:A *1091:C 6.17437e-06
6 *1090:A *203:10 8.4047e-05
7 *116:8 *203:10 9.84851e-05
*RES
1 *1090:X *203:10 40.2993 
2 *203:10 *1091:C 38.2279 
*END

*D_NET *204 0.00211226
*CONN
*I *1092:C1 I *D sky130_fd_sc_hd__a221o_1
*I *1091:X O *D sky130_fd_sc_hd__and3_1
*CAP
1 *1092:C1 0.000562653
2 *1091:X 0.000309033
3 *204:8 0.000871686
4 *1092:C1 *1092:B2 4.97052e-05
5 *1092:C1 *310:34 0.000173663
6 *1092:C1 *310:44 1.70074e-05
7 *204:8 *1139:CLK 0
8 *204:8 *268:18 0
9 *204:8 *268:20 0
10 *204:8 *290:10 1.83667e-05
11 *1090:A *204:8 1.59208e-05
12 *116:69 *204:8 2.54046e-05
13 *150:101 *1092:C1 2.79543e-05
14 *203:10 *204:8 4.08641e-05
*RES
1 *1091:X *204:8 43.7793 
2 *204:8 *1092:C1 46.4307 
*END

*D_NET *205 0.000773183
*CONN
*I *1093:A0 I *D sky130_fd_sc_hd__mux2_1
*I *1092:X O *D sky130_fd_sc_hd__a221o_1
*CAP
1 *1093:A0 6.27375e-05
2 *1092:X 0.00017585
3 *205:8 0.000238588
4 *205:8 *332:40 0.000127263
5 *205:8 *332:44 0.000168744
*RES
1 *1092:X *205:8 42.0186 
2 *205:8 *1093:A0 38.6214 
*END

*D_NET *206 0.000293684
*CONN
*I *1096:B I *D sky130_fd_sc_hd__and3_1
*I *1094:X O *D sky130_fd_sc_hd__a21o_1
*CAP
1 *1096:B 0.000108368
2 *1094:X 0.000108368
3 *1096:B *207:8 2.01462e-05
4 *1096:B *208:10 5.50106e-05
5 *115:31 *1096:B 1.79042e-06
*RES
1 *1094:X *1096:B 47.5743 
*END

*D_NET *207 0.00100462
*CONN
*I *1096:C I *D sky130_fd_sc_hd__and3_1
*I *1095:Y O *D sky130_fd_sc_hd__nand3_1
*CAP
1 *1096:C 0
2 *1095:Y 0.000198685
3 *207:8 0.000198685
4 *207:8 *208:10 4.2062e-05
5 *1095:B *207:8 4.34973e-05
6 *1096:B *207:8 2.01462e-05
7 *115:31 *207:8 0.000290304
8 *115:57 *207:8 9.41704e-05
9 *116:45 *207:8 9.67842e-05
10 *117:44 *207:8 2.02872e-05
*RES
1 *1095:Y *207:8 28.2407 
2 *207:8 *1096:C 23 
*END

*D_NET *208 0.001211
*CONN
*I *1097:C1 I *D sky130_fd_sc_hd__a221o_1
*I *1096:X O *D sky130_fd_sc_hd__and3_1
*CAP
1 *1097:C1 0
2 *1096:X 0.000331954
3 *208:10 0.000331954
4 *208:10 *257:10 1.14452e-05
5 *1095:B *208:10 1.24376e-05
6 *1096:B *208:10 5.50106e-05
7 *115:39 *208:10 0.000138708
8 *115:57 *208:10 5.94125e-05
9 *116:45 *208:10 3.81638e-05
10 *117:44 *208:10 0.000184866
11 *150:85 *208:10 4.98718e-06
12 *207:8 *208:10 4.2062e-05
*RES
1 *1096:X *208:10 44.3179 
2 *208:10 *1097:C1 38 
*END

*D_NET *209 0.000941036
*CONN
*I *1098:A0 I *D sky130_fd_sc_hd__mux2_1
*I *1097:X O *D sky130_fd_sc_hd__a221o_1
*CAP
1 *1098:A0 0
2 *1097:X 0.000381198
3 *209:16 0.000381198
4 *209:16 *1097:A2 0.00010018
5 *209:16 *310:20 5.30436e-05
6 *1097:B1 *209:16 0
7 *118:12 *209:16 2.5415e-05
8 *133:8 *209:16 0
*RES
1 *1097:X *209:16 44.7736 
2 *209:16 *1098:A0 38 
*END

*D_NET *210 0.000744929
*CONN
*I *1104:A2 I *D sky130_fd_sc_hd__a21o_1
*I *1099:X O *D sky130_fd_sc_hd__a21o_1
*CAP
1 *1104:A2 2.24754e-05
2 *1099:X 0.000249781
3 *210:8 0.000272256
4 *1104:A2 *285:18 5.50106e-05
5 *1104:A2 *285:28 1.24376e-05
6 *1104:A2 *330:34 1.94812e-05
7 *210:8 *1007:A 4.6318e-06
8 *210:8 *1104:B1 6.07611e-06
9 *210:8 *1155:RESET_B 0
10 *210:8 *272:10 0
11 *210:8 *322:14 0
12 *138:12 *210:8 0.000102778
*RES
1 *1099:X *210:8 42.7229 
2 *210:8 *1104:A2 38.6214 
*END

*D_NET *211 0.000225424
*CONN
*I *1101:B1 I *D sky130_fd_sc_hd__a32o_1
*I *1100:Y O *D sky130_fd_sc_hd__o21ai_1
*CAP
1 *1101:B1 2.11234e-05
2 *1100:Y 2.11234e-05
3 *1101:B1 *1100:B1 1.76557e-05
4 *1101:B1 *1101:B2 4.39949e-05
5 *1101:B1 *301:8 0.000121526
*RES
1 *1100:Y *1101:B1 47.3361 
*END

*D_NET *212 0.00145532
*CONN
*I *1103:B1 I *D sky130_fd_sc_hd__a211o_1
*I *1101:X O *D sky130_fd_sc_hd__a32o_1
*CAP
1 *1103:B1 0
2 *1101:X 0.00041949
3 *212:10 0.00041949
4 *212:10 *1000:D 2.9938e-05
5 *212:10 *1100:B1 0.000172996
6 *212:10 *213:25 0.000168754
7 *212:10 *330:100 5.50106e-05
8 *212:10 *331:89 0
9 *212:10 *331:93 0.000185428
10 *167:69 *212:10 4.21594e-06
*RES
1 *1101:X *212:10 45.6436 
2 *212:10 *1103:B1 38 
*END

*D_NET *213 0.00453852
*CONN
*I *1103:C1 I *D sky130_fd_sc_hd__a211o_1
*I *1107:B1 I *D sky130_fd_sc_hd__a311o_1
*I *1102:X O *D sky130_fd_sc_hd__a32o_1
*CAP
1 *1103:C1 0
2 *1107:B1 0.000511509
3 *1102:X 0.000187274
4 *213:25 0.000488922
5 *213:6 0.0011877
6 *1107:B1 *1055:A 0.000268873
7 *1107:B1 *1055:C 5.50106e-05
8 *1107:B1 *1107:A1 4.73234e-05
9 *1107:B1 *310:118 1.57571e-05
10 *1107:B1 *311:13 0.0002568
11 *1107:B1 *311:34 0
12 *1107:B1 *325:6 0.000141954
13 *213:6 *311:13 1.56762e-05
14 *213:6 *311:34 0.000228001
15 *213:25 *232:10 4.43717e-05
16 *213:25 *236:10 0
17 *213:25 *236:21 0
18 *213:25 *264:10 8.94487e-05
19 *213:25 *264:16 0.000138718
20 *213:25 *274:8 0
21 *213:25 *275:21 1.22803e-05
22 *213:25 *328:10 0.000244517
23 *213:25 *328:12 0.000218952
24 *213:25 *328:14 1.14452e-05
25 *213:25 *330:100 0.000107651
26 *213:25 *331:89 0
27 *213:25 *331:106 0
28 *173:6 *1107:B1 9.75779e-05
29 *212:10 *213:25 0.000168754
*RES
1 *1102:X *213:6 26.0036 
2 *213:6 *1107:B1 34.165 
3 *213:6 *213:25 42.47 
4 *213:25 *1103:C1 23 
*END

*D_NET *214 0.00189548
*CONN
*I *1104:B1 I *D sky130_fd_sc_hd__a21o_1
*I *1103:X O *D sky130_fd_sc_hd__a211o_1
*CAP
1 *1104:B1 0.000564649
2 *1103:X 0.000115966
3 *214:8 0.000680615
4 *1104:B1 *1007:A 0
5 *1104:B1 *239:14 0
6 *1104:B1 *242:23 6.08043e-05
7 *1104:B1 *328:52 5.31444e-05
8 *1104:B1 *330:131 0.000188926
9 *1104:B1 *331:12 0
10 *1104:B1 *331:14 0
11 *1104:B1 *331:67 0.000105165
12 *1104:B1 *331:89 5.31444e-05
13 *214:8 *272:25 6.69899e-05
14 *210:8 *1104:B1 6.07611e-06
*RES
1 *1103:X *214:8 40.0507 
2 *214:8 *1104:B1 49.0614 
*END

*D_NET *215 0.00035261
*CONN
*I *1118:A2 I *D sky130_fd_sc_hd__a211o_1
*I *1105:Y O *D sky130_fd_sc_hd__nand2b_1
*CAP
1 *1118:A2 0
2 *1105:Y 0.000138488
3 *215:10 0.000138488
4 *215:10 *1054:A 0
5 *167:25 *215:10 7.03663e-05
6 *173:6 *215:10 5.26733e-06
*RES
1 *1105:Y *215:10 40.5271 
2 *215:10 *1118:A2 38 
*END

*D_NET *216 0.00181821
*CONN
*I *1107:C1 I *D sky130_fd_sc_hd__a311o_1
*I *1106:X O *D sky130_fd_sc_hd__and3b_1
*CAP
1 *1107:C1 0.000181166
2 *1106:X 0.000498064
3 *216:12 0.000679229
4 *1107:C1 *1055:C 2.08324e-05
5 *1107:C1 *271:73 0
6 *1107:C1 *315:27 0
7 *1107:C1 *317:39 8.16149e-05
8 *1107:C1 *325:14 0
9 *1107:C1 *325:18 0
10 *216:12 *1115:A 0.00014196
11 *216:12 *317:39 4.7967e-05
12 *216:12 *325:14 6.88885e-05
13 *136:10 *216:12 9.84851e-05
*RES
1 *1106:X *216:12 46.41 
2 *216:12 *1107:C1 41.6664 
*END

*D_NET *217 0.00410306
*CONN
*I *1115:A I *D sky130_fd_sc_hd__or2_1
*I *1112:A I *D sky130_fd_sc_hd__or4b_1
*I *1107:X O *D sky130_fd_sc_hd__a311o_1
*CAP
1 *1115:A 0.000230196
2 *1112:A 0
3 *1107:X 8.72101e-05
4 *217:12 0.000750557
5 *217:8 0.00106796
6 *1115:A *223:10 0.000299187
7 *1115:A *271:73 0
8 *1115:A *317:39 3.53051e-05
9 *217:12 *218:8 4.48568e-05
10 *217:12 *220:29 0
11 *217:12 *223:10 0.000931536
12 *217:12 *271:12 0
13 *217:12 *271:14 0
14 *217:12 *327:33 3.81554e-05
15 *1107:A3 *217:8 4.96717e-05
16 *139:38 *217:12 0
17 *146:33 *217:12 0.00042646
18 *167:25 *1115:A 0
19 *167:25 *217:12 0
20 *167:36 *1115:A 0
21 *169:24 *217:12 0
22 *216:12 *1115:A 0.00014196
*RES
1 *1107:X *217:8 39.0979 
2 *217:8 *217:12 33.8086 
3 *217:12 *1112:A 23 
4 *217:8 *1115:A 43.945 
*END

*D_NET *218 0.00034893
*CONN
*I *1112:B I *D sky130_fd_sc_hd__or4b_1
*I *1108:X O *D sky130_fd_sc_hd__a21o_1
*CAP
1 *1112:B 0
2 *1108:X 0.000152037
3 *218:8 0.000152037
4 *218:8 *226:16 0
5 *135:8 *218:8 0
6 *139:38 *218:8 0
7 *217:12 *218:8 4.48568e-05
*RES
1 *1108:X *218:8 40.9621 
2 *218:8 *1112:B 38 
*END

*D_NET *219 0.00170697
*CONN
*I *1110:D I *D sky130_fd_sc_hd__and4_1
*I *1109:X O *D sky130_fd_sc_hd__or4b_1
*CAP
1 *1110:D 4.99221e-05
2 *1109:X 0.000526089
3 *219:10 0.000576011
4 *1110:D *285:28 5.3304e-05
5 *219:10 *982:A 8.4047e-05
6 *219:10 *1022:A 2.18506e-05
7 *219:10 *271:18 8.4047e-05
8 *219:10 *284:18 0.000181131
9 *1265:A *219:10 2.65879e-05
10 *146:10 *219:10 0.000103984
*RES
1 *1109:X *219:10 46.0164 
2 *219:10 *1110:D 38.6214 
*END

*D_NET *220 0.00375539
*CONN
*I *1118:B1 I *D sky130_fd_sc_hd__a211o_1
*I *1111:B1 I *D sky130_fd_sc_hd__a31o_1
*I *1110:X O *D sky130_fd_sc_hd__and4_1
*CAP
1 *1118:B1 0
2 *1111:B1 5.53508e-05
3 *1110:X 0.000284613
4 *220:29 0.000671799
5 *220:10 0.00101176
6 *1111:B1 *1111:A2 1.24376e-05
7 *1111:B1 *226:16 2.32004e-05
8 *1111:B1 *239:44 8.99622e-05
9 *220:10 *271:14 0.000187996
10 *220:10 *284:18 0
11 *220:10 *326:16 9.58714e-05
12 *220:10 *327:52 2.18409e-05
13 *220:29 *1222:A 0
14 *220:29 *271:12 5.46706e-05
15 *220:29 *271:14 0.000589151
16 *220:29 *284:18 0
17 *167:25 *220:29 0.000656733
18 *217:12 *220:29 0
*RES
1 *1110:X *220:10 42.1843 
2 *220:10 *1111:B1 39.595 
3 *220:10 *220:29 32.4621 
4 *220:29 *1118:B1 23 
*END

*D_NET *221 0.000541828
*CONN
*I *1112:C I *D sky130_fd_sc_hd__or4b_1
*I *1111:X O *D sky130_fd_sc_hd__a31o_1
*CAP
1 *1112:C 0.00011476
2 *1111:X 0.00011476
3 *1112:C *226:16 9.41704e-05
4 *1112:C *239:32 3.53115e-05
5 *1111:A3 *1112:C 5.3304e-05
6 *146:33 *1112:C 0.000129522
*RES
1 *1111:X *1112:C 49.0036 
*END

*D_NET *222 0.00127301
*CONN
*I *1114:B1 I *D sky130_fd_sc_hd__o31ai_1
*I *1113:X O *D sky130_fd_sc_hd__a2111o_1
*CAP
1 *1114:B1 7.75743e-05
2 *1113:X 6.99409e-05
3 *222:8 0.000147515
4 *1114:B1 *228:16 0.000397585
5 *222:8 *241:34 4.23817e-05
6 *222:8 *310:110 0.000138727
7 *167:8 *1114:B1 0.000399291
*RES
1 *1113:X *222:8 39.9057 
2 *222:8 *1114:B1 42.4329 
*END

*D_NET *223 0.00261479
*CONN
*I *1115:B I *D sky130_fd_sc_hd__or2_1
*I *1114:Y O *D sky130_fd_sc_hd__o31ai_1
*CAP
1 *1115:B 0
2 *1114:Y 0
3 *223:10 0.000524917
4 *223:6 0.000524917
5 *223:10 *271:73 0.000334234
6 *1115:A *223:10 0.000299187
7 *139:38 *223:10 0
8 *217:12 *223:10 0.000931536
*RES
1 *1114:Y *223:6 38 
2 *223:6 *223:10 31.3436 
3 *223:10 *1115:B 23 
*END

*D_NET *224 0.000421274
*CONN
*I *1117:B1 I *D sky130_fd_sc_hd__a31o_1
*I *1116:Y O *D sky130_fd_sc_hd__nor3b_1
*CAP
1 *1117:B1 0
2 *1116:Y 0.000152801
3 *224:10 0.000152801
4 *224:10 *1116:C_N 2.93845e-05
5 *224:10 *236:21 0
6 *224:10 *240:27 8.62876e-05
*RES
1 *1116:Y *224:10 40.5271 
2 *224:10 *1117:B1 38 
*END

*D_NET *225 0.00399229
*CONN
*I *1118:C1 I *D sky130_fd_sc_hd__a211o_1
*I *1117:X O *D sky130_fd_sc_hd__a31o_1
*CAP
1 *1118:C1 0
2 *1117:X 0.000436718
3 *225:16 0.000538853
4 *225:10 0.000975571
5 *225:10 *1102:A2 1.76557e-05
6 *225:10 *1102:A3 8.1796e-05
7 *225:10 *1102:B1 1.45295e-05
8 *225:10 *264:16 2.29192e-05
9 *225:10 *274:8 0.000110922
10 *225:10 *311:13 6.88358e-05
11 *225:10 *311:34 2.25419e-05
12 *225:16 *1013:A2_N 9.67842e-05
13 *225:16 *1013:B2 9.67842e-05
14 *225:16 *1118:A1 0.000376789
15 *225:16 *241:53 0.000137651
16 *225:16 *264:16 0.000587795
17 *225:16 *264:24 0.000223692
18 *225:16 *310:133 5.50106e-05
19 *225:16 *320:6 5.91638e-05
20 *225:16 *320:18 6.8276e-05
*RES
1 *1117:X *225:10 44.9393 
2 *225:10 *225:16 29.935 
3 *225:16 *1118:C1 23 
*END

*D_NET *226 0.00783935
*CONN
*I *1047:A I *D sky130_fd_sc_hd__and3_2
*I *996:A I *D sky130_fd_sc_hd__nor2_1
*I *1084:D1 I *D sky130_fd_sc_hd__o2111a_1
*I *1111:A1 I *D sky130_fd_sc_hd__a31o_1
*I *982:Y O *D sky130_fd_sc_hd__inv_2
*CAP
1 *1047:A 0.000431826
2 *996:A 0.000111202
3 *1084:D1 0
4 *1111:A1 0
5 *982:Y 0
6 *226:40 0.0014172
7 *226:31 0.000425401
8 *226:23 0.00134396
9 *226:16 0.00045306
10 *226:4 0.000497445
11 *996:A *239:14 2.82307e-05
12 *996:A *254:10 0.000103814
13 *996:A *270:102 0.000221193
14 *1047:A *1003:A 0.000187986
15 *1047:A *1047:C 2.64616e-05
16 *1047:A *227:19 0.000119476
17 *1047:A *239:14 4.48731e-05
18 *1047:A *254:10 0.000141751
19 *1047:A *254:23 6.53712e-05
20 *1047:A *275:21 0.000468765
21 *226:16 *982:A 3.22879e-05
22 *226:16 *1111:A2 9.41704e-05
23 *226:16 *1156:RESET_B 0
24 *226:23 *982:A 2.18409e-05
25 *226:31 *1084:B1 3.22879e-05
26 *226:31 *1156:RESET_B 0
27 *226:31 *270:14 0.000168754
28 *226:31 *271:18 0
29 *226:40 *322:14 4.27353e-05
30 *226:40 *323:10 0.000267369
31 *226:40 *323:23 0.000148688
32 *1111:A3 *226:16 1.41129e-05
33 *1111:B1 *226:16 2.32004e-05
34 *1112:C *226:16 9.41704e-05
35 *135:8 *226:16 8.85189e-05
36 *139:44 *226:31 5.50106e-05
37 *146:16 *226:16 0.000320651
38 *146:16 *226:31 2.472e-05
39 *146:46 *226:31 0.000239646
40 *146:46 *226:40 2.98648e-05
41 *167:69 *1047:A 5.3304e-05
42 *218:8 *226:16 0
*RES
1 *982:Y *226:4 23 
2 *226:4 *226:16 38.4929 
3 *226:16 *1111:A1 23 
4 *226:4 *226:23 0.621429 
5 *226:23 *226:31 40.2743 
6 *226:31 *1084:D1 23 
7 *226:23 *226:40 27.5321 
8 *226:40 *996:A 42.0186 
9 *226:40 *1047:A 49.6829 
*END

*D_NET *227 0.0018531
*CONN
*I *1047:B I *D sky130_fd_sc_hd__and3_2
*I *1113:D1 I *D sky130_fd_sc_hd__a2111o_1
*I *983:Y O *D sky130_fd_sc_hd__inv_2
*CAP
1 *1047:B 0
2 *1113:D1 0.0001876
3 *983:Y 3.036e-05
4 *227:19 0.000157779
5 *227:6 0.000375738
6 *1113:D1 *1103:A1 5.12254e-05
7 *1113:D1 *1113:B1 5.3304e-05
8 *1113:D1 *1113:C1 2.64616e-05
9 *1113:D1 *228:8 5.50106e-05
10 *1113:D1 *272:25 0.000213069
11 *1113:D1 *272:33 9.5877e-05
12 *1113:D1 *273:36 1.41129e-05
13 *1113:D1 *327:33 5.3304e-05
14 *227:6 *1103:A1 4.5051e-05
15 *227:6 *272:25 9.67842e-05
16 *227:19 *254:23 0.000136132
17 *227:19 *275:21 8.68081e-05
18 *1047:A *227:19 0.000119476
19 *1113:A2 *1113:D1 5.50106e-05
*RES
1 *983:Y *227:6 24.0979 
2 *227:6 *1113:D1 27.9093 
3 *227:6 *227:19 34.0186 
4 *227:19 *1047:B 23 
*END

*D_NET *228 0.00612775
*CONN
*I *1107:A1 I *D sky130_fd_sc_hd__a311o_1
*I *1013:B2 I *D sky130_fd_sc_hd__a2bb2o_4
*I *1048:A I *D sky130_fd_sc_hd__nand2_1
*I *984:Y O *D sky130_fd_sc_hd__inv_2
*CAP
1 *1107:A1 0.000618784
2 *1013:B2 3.1071e-05
3 *1048:A 0
4 *984:Y 2.95011e-05
5 *228:23 0.000981082
6 *228:16 0.000772383
7 *228:8 0.00113311
8 *1013:B2 *320:6 5.50049e-05
9 *1013:B2 *320:18 2.18506e-05
10 *1107:A1 *1055:A 4.75087e-05
11 *1107:A1 *1206:A 2.02872e-05
12 *1107:A1 *241:53 9.5877e-05
13 *1107:A1 *274:8 3.35885e-05
14 *1107:A1 *310:118 9.58714e-05
15 *1107:A1 *310:133 1.01436e-05
16 *228:16 *254:23 8.26672e-05
17 *228:16 *273:21 0
18 *228:23 *254:23 4.6318e-06
19 *228:23 *272:44 0.000369939
20 *228:23 *273:36 0.000342143
21 *228:23 *274:8 4.5628e-05
22 *228:23 *310:133 8.72173e-05
23 *1050:B1 *228:16 0
24 *1107:B1 *1107:A1 4.73234e-05
25 *1113:D1 *228:8 5.50106e-05
26 *1114:B1 *228:16 0.000397585
27 *146:33 *228:16 5.3304e-05
28 *167:8 *228:16 0.000393913
29 *167:17 *228:16 5.90675e-06
30 *170:23 *1107:A1 5.62433e-05
31 *170:23 *228:16 4.6318e-06
32 *170:23 *228:23 0.000130679
33 *173:6 *1107:A1 8.08139e-06
34 *225:16 *1013:B2 9.67842e-05
*RES
1 *984:Y *228:8 38.6214 
2 *228:8 *228:16 30.7636 
3 *228:16 *1048:A 23 
4 *228:8 *228:23 8.94857 
5 *228:23 *1013:B2 39.0979 
6 *228:23 *1107:A1 47.2179 
*END

*D_NET *229 0.000823074
*CONN
*I *1084:A2 I *D sky130_fd_sc_hd__o2111a_1
*I *985:Y O *D sky130_fd_sc_hd__inv_2
*CAP
1 *1084:A2 0
2 *985:Y 0.000238037
3 *229:6 0.000238037
4 *229:6 *1014:A1 9.8971e-06
5 *229:6 *1014:A2 0.00010018
6 *139:42 *229:6 5.50049e-05
7 *139:44 *229:6 0.000181919
*RES
1 *985:Y *229:6 27.4329 
2 *229:6 *1084:A2 23 
*END

*D_NET *230 0.000425252
*CONN
*I *1083:A1_N I *D sky130_fd_sc_hd__o2bb2a_1
*I *986:Y O *D sky130_fd_sc_hd__inv_2
*CAP
1 *1083:A1_N 5.15224e-05
2 *986:Y 8.42654e-05
3 *230:8 0.000135788
4 *230:8 *320:41 0
5 *130:10 *1083:A1_N 2.93747e-05
6 *130:10 *230:8 4.334e-05
7 *163:6 *1083:A1_N 6.29691e-05
8 *163:14 *230:8 1.7992e-05
*RES
1 *986:Y *230:8 39.9057 
2 *230:8 *1083:A1_N 39.2687 
*END

*D_NET *231 0.00175002
*CONN
*I *1053:A1 I *D sky130_fd_sc_hd__o21bai_1
*I *987:Y O *D sky130_fd_sc_hd__inv_2
*CAP
1 *1053:A1 0.000425736
2 *987:Y 6.96504e-05
3 *231:8 0.000495387
4 *1053:A1 *347:12 0.000511084
5 *231:8 *298:10 8.16356e-05
6 *231:8 *315:27 0.000166522
*RES
1 *987:Y *231:8 40.2579 
2 *231:8 *1053:A1 48.15 
*END

*D_NET *232 0.000596807
*CONN
*I *1102:A1 I *D sky130_fd_sc_hd__a32o_1
*I *988:Y O *D sky130_fd_sc_hd__inv_2
*CAP
1 *1102:A1 0
2 *988:Y 0.000264893
3 *232:10 0.000264893
4 *232:10 *236:21 0
5 *232:10 *264:10 2.26489e-05
6 *232:10 *347:26 0
7 *213:25 *232:10 4.43717e-05
*RES
1 *988:Y *232:10 41.8321 
2 *232:10 *1102:A1 38 
*END

*D_NET *233 0.0040976
*CONN
*I *1060:B2 I *D sky130_fd_sc_hd__a221o_1
*I *1028:A1 I *D sky130_fd_sc_hd__a21o_1
*I *989:Y O *D sky130_fd_sc_hd__inv_2
*CAP
1 *1060:B2 0.00046272
2 *1028:A1 0
3 *989:Y 0.000365759
4 *233:18 0.000728241
5 *233:10 0.00155672
6 *1060:B2 *320:41 0
7 *233:10 *1076:A2 6.17437e-06
8 *233:18 *1031:A 0.000100061
9 *233:18 *250:33 1.42137e-05
10 *233:18 *252:14 0
11 *1028:A2 *233:18 5.79559e-05
12 *1028:B1 *233:18 3.01704e-05
13 *1037:B *233:10 3.1528e-06
14 *155:10 *233:10 2.18926e-05
15 *157:8 *233:10 1.32939e-05
16 *159:12 *233:10 0.000189321
17 *159:22 *233:10 4.89774e-05
18 *159:22 *233:18 0.000496597
19 *192:10 *233:10 2.3531e-06
*RES
1 *989:Y *233:10 43.51 
2 *233:10 *233:18 31.1779 
3 *233:18 *1028:A1 23 
4 *233:10 *1060:B2 44.9859 
*END

*D_NET *234 0.00121253
*CONN
*I *1060:A1 I *D sky130_fd_sc_hd__a221o_1
*I *990:Y O *D sky130_fd_sc_hd__inv_2
*CAP
1 *1060:A1 0
2 *990:Y 0.000359378
3 *234:10 0.000359378
4 *234:10 *320:41 0.000139647
5 *163:6 *234:10 0.000354127
6 *175:8 *234:10 0
7 *181:10 *234:10 0
*RES
1 *990:Y *234:10 44.2143 
2 *234:10 *1060:A1 38 
*END

*D_NET *235 0.000517397
*CONN
*I *1078:A I *D sky130_fd_sc_hd__nand2_1
*I *1079:A I *D sky130_fd_sc_hd__or2_1
*I *991:Y O *D sky130_fd_sc_hd__inv_2
*CAP
1 *1078:A 7.02757e-05
2 *1079:A 0
3 *991:Y 8.82422e-05
4 *235:10 7.02757e-05
5 *235:8 8.82422e-05
6 *1079:B *1078:A 5.67058e-05
7 *163:14 *235:8 0
8 *186:12 *1078:A 0
9 *193:8 *1078:A 0.000143655
*RES
1 *991:Y *235:8 39.5536 
2 *235:8 *235:10 15 
3 *235:10 *1079:A 23 
4 *235:10 *1078:A 25.0714 
*END

*D_NET *236 0.00197308
*CONN
*I *1117:A2 I *D sky130_fd_sc_hd__a31o_1
*I *1102:A2 I *D sky130_fd_sc_hd__a32o_1
*I *1116:A I *D sky130_fd_sc_hd__nor3b_1
*I *992:X O *D sky130_fd_sc_hd__and2_1
*CAP
1 *1117:A2 2.96536e-05
2 *1102:A2 5.56024e-05
3 *1116:A 0
4 *992:X 0.000260119
5 *236:21 0.000247256
6 *236:10 0.00042212
7 *1102:A2 *1102:A3 0.000185428
8 *1102:A2 *1102:B1 2.02517e-05
9 *1102:A2 *240:27 0
10 *1102:A2 *311:34 0.00023481
11 *1117:A2 *1102:A3 4.2573e-05
12 *1117:A2 *240:27 2.4754e-05
13 *1117:A2 *311:34 5.50106e-05
14 *236:10 *993:B 0.000274078
15 *236:10 *1101:A2 2.76611e-06
16 *236:10 *240:27 4.31263e-05
17 *236:21 *240:27 5.51058e-05
18 *236:21 *347:26 2.76611e-06
19 *213:25 *236:10 0
20 *213:25 *236:21 0
21 *224:10 *236:21 0
22 *225:10 *1102:A2 1.76557e-05
23 *232:10 *236:21 0
*RES
1 *992:X *236:10 42.9093 
2 *236:10 *1116:A 38 
3 *236:10 *236:21 18.3143 
4 *236:21 *1102:A2 26.0243 
5 *236:21 *1117:A2 24.0979 
*END

*D_NET *237 0.00176986
*CONN
*I *1116:C_N I *D sky130_fd_sc_hd__nor3b_1
*I *1101:B2 I *D sky130_fd_sc_hd__a32o_1
*I *993:X O *D sky130_fd_sc_hd__and2b_1
*CAP
1 *1116:C_N 0.000356486
2 *1101:B2 0.000254975
3 *993:X 0
4 *237:6 0.000611461
5 *1101:B2 *997:A_N 9.39262e-05
6 *1101:B2 *1100:B1 0.00010018
7 *1101:B2 *1116:B 1.77821e-06
8 *1101:B2 *301:8 6.09861e-06
9 *1101:B2 *327:101 4.6318e-06
10 *1101:B2 *330:75 0
11 *1101:B2 *330:88 0
12 *1116:C_N *1116:B 0.000266941
13 *1101:B1 *1101:B2 4.39949e-05
14 *224:10 *1116:C_N 2.93845e-05
*RES
1 *993:X *237:6 38 
2 *237:6 *1101:B2 43.1164 
3 *237:6 *1116:C_N 45.1671 
*END

*D_NET *238 0.0054424
*CONN
*I *1207:A I *D sky130_fd_sc_hd__buf_2
*I *1008:A I *D sky130_fd_sc_hd__or2_1
*I *994:X O *D sky130_fd_sc_hd__and3b_1
*CAP
1 *1207:A 0
2 *1008:A 0.000241245
3 *994:X 4.24857e-05
4 *238:31 0.00102383
5 *238:8 0.00130756
6 *1008:A *244:23 0.000194318
7 *1008:A *272:10 0.000276877
8 *1008:A *285:18 0.000182826
9 *1008:A *330:34 2.24973e-05
10 *1008:A *330:45 5.49603e-05
11 *238:8 *994:A_N 5.50106e-05
12 *238:31 *995:A_N 5.3304e-05
13 *238:31 *995:C 5.50106e-05
14 *238:31 *1108:A1 0.000653232
15 *238:31 *1108:A2 9.58714e-05
16 *238:31 *272:10 4.96264e-05
17 *238:31 *330:45 7.48331e-05
18 *238:31 *330:51 5.3304e-05
19 *238:31 *330:116 0.000204367
20 *1008:B *1008:A 5.25848e-05
21 *169:16 *238:31 0.000748662
*RES
1 *994:X *238:8 38.6214 
2 *238:8 *1008:A 44.8357 
3 *238:8 *238:31 38.635 
4 *238:31 *1207:A 23 
*END

*D_NET *239 0.0153769
*CONN
*I *1114:A2 I *D sky130_fd_sc_hd__o31ai_1
*I *1027:A2_N I *D sky130_fd_sc_hd__a2bb2o_1
*I *1039:B1 I *D sky130_fd_sc_hd__a21oi_1
*I *1086:B I *D sky130_fd_sc_hd__nor2_1
*I *1023:A1 I *D sky130_fd_sc_hd__o211a_4
*I *996:B I *D sky130_fd_sc_hd__nor2_1
*I *995:Y O *D sky130_fd_sc_hd__nand3b_4
*CAP
1 *1114:A2 0
2 *1027:A2_N 9.21301e-05
3 *1039:B1 0.000198214
4 *1086:B 0
5 *1023:A1 0.000143265
6 *996:B 0
7 *995:Y 0.000122415
8 *239:89 0.000153093
9 *239:54 0.000475354
10 *239:46 0.000818262
11 *239:44 0.00249262
12 *239:32 0.00344597
13 *239:14 0.000658999
14 *239:8 0.00167523
15 *1023:A1 *309:6 2.18506e-05
16 *1027:A2_N *253:6 0.000140259
17 *1027:A2_N *320:72 5.94125e-05
18 *1039:B1 *1040:A2 5.3304e-05
19 *239:8 *328:16 6.16531e-05
20 *239:8 *328:20 0.000126343
21 *239:8 *331:12 0
22 *239:8 *331:14 0
23 *239:14 *1003:A 8.68903e-05
24 *239:14 *1003:D_N 0
25 *239:14 *1155:RESET_B 0
26 *239:14 *270:102 0.000110127
27 *239:14 *275:21 2.60152e-05
28 *239:14 *309:6 5.67058e-05
29 *239:14 *328:20 3.47781e-05
30 *239:14 *328:37 5.93278e-05
31 *239:32 *998:A 9.50411e-05
32 *239:32 *998:C_N 0.000264559
33 *239:32 *1112:D_N 0.000124031
34 *239:32 *241:8 1.94693e-05
35 *239:32 *328:31 5.3304e-05
36 *239:44 *1111:A2 8.48502e-06
37 *239:44 *253:6 0.000820219
38 *239:46 *1040:A2 0.000215228
39 *239:46 *281:16 5.884e-05
40 *239:46 *320:72 0.000101991
41 *239:46 *332:24 7.09173e-05
42 *239:54 *1040:A2 3.47781e-05
43 *239:54 *267:40 0
44 *239:54 *268:8 0
45 *239:54 *332:24 0.000426784
46 *239:54 *332:36 0.000133553
47 *239:54 *332:38 7.45997e-05
48 *239:54 *334:26 2.29192e-05
49 *239:89 *327:37 9.67719e-05
50 *996:A *239:14 2.82307e-05
51 *1046:A1 *239:44 5.41288e-05
52 *1047:A *239:14 4.48731e-05
53 *1104:B1 *239:14 0
54 *1111:A3 *239:44 6.70361e-05
55 *1111:B1 *239:44 8.99622e-05
56 *1112:C *239:32 3.53115e-05
57 *124:10 *239:44 3.75988e-05
58 *134:10 *239:14 0.000114074
59 *146:33 *239:32 2.18409e-05
60 *146:33 *239:44 5.41385e-05
61 *146:33 *239:89 0.000300098
62 *149:50 *1027:A2_N 0.00013132
63 *149:50 *239:44 0.000114846
64 *150:29 *239:54 0
65 *159:22 *1027:A2_N 1.4471e-05
66 *159:22 *239:46 3.21785e-05
67 *161:10 *1039:B1 0.000168821
68 *162:8 *239:54 0.000301419
69 *169:24 *239:89 3.28708e-05
*RES
1 *995:Y *239:8 40.61 
2 *239:8 *239:14 25.2743 
3 *239:14 *996:B 23 
4 *239:14 *1023:A1 25.5479 
5 *239:8 *239:32 29.4379 
6 *239:32 *239:44 47.9771 
7 *239:44 *239:46 4.37071 
8 *239:46 *239:54 27.5321 
9 *239:54 *1086:B 23 
10 *239:46 *1039:B1 41.9564 
11 *239:44 *1027:A2_N 40.9207 
12 *239:32 *239:89 34.4018 
13 *239:89 *1114:A2 23 
*END

*D_NET *240 0.00201384
*CONN
*I *1117:A3 I *D sky130_fd_sc_hd__a31o_1
*I *1102:A3 I *D sky130_fd_sc_hd__a32o_1
*I *1101:A2 I *D sky130_fd_sc_hd__a32o_1
*I *997:X O *D sky130_fd_sc_hd__and2b_1
*CAP
1 *1117:A3 0
2 *1102:A3 6.23533e-05
3 *1101:A2 0.000275227
4 *997:X 0
5 *240:27 0.000324715
6 *240:6 0.000537589
7 *1101:A2 *1101:A3 5.50106e-05
8 *1101:A2 *1116:B 0.000118899
9 *1101:A2 *327:97 6.97953e-05
10 *1101:A2 *331:106 0
11 *240:27 *1116:B 4.84169e-05
12 *1102:A2 *1102:A3 0.000185428
13 *1102:A2 *240:27 0
14 *1117:A2 *1102:A3 4.2573e-05
15 *1117:A2 *240:27 2.4754e-05
16 *224:10 *240:27 8.62876e-05
17 *225:10 *1102:A3 8.1796e-05
18 *236:10 *1101:A2 2.76611e-06
19 *236:10 *240:27 4.31263e-05
20 *236:21 *240:27 5.51058e-05
*RES
1 *997:X *240:6 38 
2 *240:6 *1101:A2 43.365 
3 *240:6 *240:27 21.1107 
4 *240:27 *1102:A3 25.5271 
5 *240:27 *1117:A3 23 
*END

*D_NET *241 0.00612279
*CONN
*I *999:A I *D sky130_fd_sc_hd__inv_2
*I *1013:A2_N I *D sky130_fd_sc_hd__a2bb2o_4
*I *1023:C1 I *D sky130_fd_sc_hd__o211a_4
*I *1014:A1 I *D sky130_fd_sc_hd__a21o_1
*I *998:X O *D sky130_fd_sc_hd__or4bb_4
*CAP
1 *999:A 0
2 *1013:A2_N 3.41136e-05
3 *1023:C1 9.37145e-05
4 *1014:A1 0.00050625
5 *998:X 1.97948e-05
6 *241:53 0.000186989
7 *241:34 0.000972654
8 *241:10 0.0010429
9 *241:8 0.00121428
10 *1013:A2_N *320:18 5.12254e-05
11 *1014:A1 *985:A 6.17437e-06
12 *1014:A1 *1014:A2 5.10686e-05
13 *1014:A1 *243:12 0
14 *1014:A1 *243:16 0
15 *1014:A1 *310:95 0
16 *241:8 *1112:D_N 5.50049e-05
17 *241:10 *1210:A 5.03449e-05
18 *241:10 *243:10 0
19 *241:10 *243:12 0
20 *241:10 *254:10 0
21 *241:10 *273:21 6.07929e-05
22 *241:10 *310:95 0
23 *241:34 *273:21 0.000308624
24 *241:34 *310:95 0
25 *241:34 *310:110 0
26 *241:34 *310:118 4.18957e-05
27 *241:34 *315:10 0.00012304
28 *241:34 *317:10 3.71198e-05
29 *241:34 *327:19 0.000127272
30 *241:34 *327:23 0.000274553
31 *241:53 *1055:A 2.32101e-05
32 *241:53 *1206:A 5.3304e-05
33 *241:53 *315:10 0.000160191
34 *241:53 *320:18 6.82611e-05
35 *1107:A1 *241:53 9.5877e-05
36 *170:23 *241:53 0.00015795
37 *222:8 *241:34 4.23817e-05
38 *225:16 *1013:A2_N 9.67842e-05
39 *225:16 *241:53 0.000137651
40 *229:6 *1014:A1 9.8971e-06
41 *239:32 *241:8 1.94693e-05
*RES
1 *998:X *241:8 38.6214 
2 *241:8 *241:10 8.59643 
3 *241:10 *1014:A1 46.5343 
4 *241:10 *1023:C1 39.5743 
5 *241:8 *241:34 32.4 
6 *241:34 *1013:A2_N 24.0979 
7 *241:34 *241:53 35.4271 
8 *241:53 *999:A 23 
*END

*D_NET *242 0.00427228
*CONN
*I *1116:B I *D sky130_fd_sc_hd__nor3b_1
*I *1101:A3 I *D sky130_fd_sc_hd__a32o_1
*I *1047:C I *D sky130_fd_sc_hd__and3_2
*I *1001:Y O *D sky130_fd_sc_hd__nor2_1
*CAP
1 *1116:B 0.000433174
2 *1101:A3 1.49804e-05
3 *1047:C 0.000442958
4 *1001:Y 0.000154378
5 *242:23 0.000751956
6 *242:6 0.000901138
7 *1047:C *1005:B_N 0.000269555
8 *1047:C *330:131 5.3304e-05
9 *1047:C *331:71 4.33105e-05
10 *1101:A3 *327:97 5.50106e-05
11 *1116:B *997:A_N 8.16356e-05
12 *242:6 *1001:B 4.79544e-05
13 *242:6 *1005:C 5.50106e-05
14 *242:6 *312:8 5.50106e-05
15 *242:6 *331:71 1.7316e-05
16 *242:23 *997:A_N 1.12487e-05
17 *242:23 *1005:C 1.38978e-05
18 *242:23 *1007:A 2.31209e-05
19 *242:23 *327:101 0.000209102
20 *242:23 *330:131 4.6318e-06
21 *242:23 *331:89 0
22 *1047:A *1047:C 2.64616e-05
23 *1101:A2 *1101:A3 5.50106e-05
24 *1101:A2 *1116:B 0.000118899
25 *1101:B2 *1116:B 1.77821e-06
26 *1104:B1 *242:23 6.08043e-05
27 *1116:C_N *1116:B 0.000266941
28 *167:8 *1047:C 3.45967e-05
29 *167:69 *1047:C 2.06822e-05
30 *240:27 *1116:B 4.84169e-05
*RES
1 *1001:Y *242:6 26.0036 
2 *242:6 *1047:C 32.7357 
3 *242:6 *242:23 21.4836 
4 *242:23 *1101:A3 38.6214 
5 *242:23 *1116:B 46.7207 
*END

*D_NET *243 0.00446042
*CONN
*I *1023:B1 I *D sky130_fd_sc_hd__o211a_4
*I *1014:A2 I *D sky130_fd_sc_hd__a21o_1
*I *1264:A I *D sky130_fd_sc_hd__dlygate4sd1_1
*I *1004:A I *D sky130_fd_sc_hd__inv_2
*I *1003:X O *D sky130_fd_sc_hd__or4b_4
*CAP
1 *1023:B1 0
2 *1014:A2 0.000138997
3 *1264:A 6.87459e-05
4 *1004:A 9.5519e-05
5 *1003:X 0.000349208
6 *243:16 0.000759188
7 *243:12 0.00106141
8 *243:10 0.000676693
9 *1004:A *321:12 5.41288e-05
10 *1004:A *321:25 4.5051e-05
11 *1014:A2 *985:A 0.000183733
12 *1264:A *321:25 7.59794e-05
13 *243:10 *1210:A 9.84851e-05
14 *243:10 *254:10 0
15 *243:10 *285:28 0.000311554
16 *243:10 *323:23 7.30978e-05
17 *243:10 *330:12 3.17516e-05
18 *243:10 *330:19 4.75206e-05
19 *243:12 *254:10 0
20 *243:12 *323:23 1.44546e-05
21 *243:16 *985:A 0
22 *243:16 *265:8 0
23 *243:16 *310:95 0
24 *243:16 *321:25 1.97329e-05
25 *243:16 *333:34 0
26 *243:16 *341:10 0
27 *1014:A1 *1014:A2 5.10686e-05
28 *1014:A1 *243:12 0
29 *1014:A1 *243:16 0
30 *1014:B1 *1014:A2 1.37232e-05
31 *141:10 *243:16 0.000190205
32 *229:6 *1014:A2 0.00010018
33 *241:10 *243:10 0
34 *241:10 *243:12 0
*RES
1 *1003:X *243:10 46.555 
2 *243:10 *243:12 5.77929 
3 *243:12 *243:16 26.7657 
4 *243:16 *1004:A 25.0507 
5 *243:16 *1264:A 24.5743 
6 *243:12 *1014:A2 41.9771 
7 *243:10 *1023:B1 38 
*END

*D_NET *244 0.00404648
*CONN
*I *1007:B I *D sky130_fd_sc_hd__nor2_1
*I *1112:D_N I *D sky130_fd_sc_hd__or4b_1
*I *1006:X O *D sky130_fd_sc_hd__or3b_1
*CAP
1 *1007:B 0
2 *1112:D_N 0.000602941
3 *1006:X 0
4 *244:23 0.000214474
5 *244:4 0.000817416
6 *1112:D_N *998:A 0.000479335
7 *1112:D_N *998:B 0.000776756
8 *1112:D_N *998:C_N 1.5769e-05
9 *1112:D_N *328:31 6.16164e-05
10 *1112:D_N *328:44 4.38084e-05
11 *1112:D_N *328:52 9.67842e-05
12 *1112:D_N *331:40 9.62764e-05
13 *244:23 *994:B 0.000180212
14 *244:23 *1007:A 4.32372e-05
15 *244:23 *328:52 8.60475e-05
16 *244:23 *330:34 0.000111852
17 *244:23 *331:40 4.66047e-05
18 *1008:A *244:23 0.000194318
19 *239:32 *1112:D_N 0.000124031
20 *241:8 *1112:D_N 5.50049e-05
*RES
1 *1006:X *244:4 23 
2 *244:4 *1112:D_N 39.8614 
3 *244:4 *244:23 35.6136 
4 *244:23 *1007:B 23 
*END

*D_NET *245 0.000957821
*CONN
*I *1087:A1 I *D sky130_fd_sc_hd__a221o_1
*I *1137:Q O *D sky130_fd_sc_hd__dfrtp_1
*CAP
1 *1087:A1 0
2 *1137:Q 0.000324032
3 *245:10 0.000324032
4 *245:10 *1087:B2 1.08287e-05
5 *245:10 *334:26 1.41322e-05
6 *150:12 *245:10 8.81493e-05
7 *150:29 *245:10 1.12863e-05
8 *200:8 *245:10 0.00018536
*RES
1 *1137:Q *245:10 43.1579 
2 *245:10 *1087:A1 38 
*END

*D_NET *246 0.000263587
*CONN
*I *1092:A1 I *D sky130_fd_sc_hd__a221o_1
*I *1138:Q O *D sky130_fd_sc_hd__dfrtp_1
*CAP
1 *1092:A1 0
2 *1138:Q 7.52166e-05
3 *246:8 7.52166e-05
4 *246:8 *310:44 0.000113153
*RES
1 *1138:Q *246:8 39.5536 
2 *246:8 *1092:A1 38 
*END

*D_NET *247 0.00113533
*CONN
*I *1097:A1 I *D sky130_fd_sc_hd__a221o_1
*I *1139:Q O *D sky130_fd_sc_hd__dfrtp_1
*CAP
1 *1097:A1 0
2 *1139:Q 0.000506407
3 *247:10 0.000506407
4 *247:10 *1122:RESET_B 0
5 *247:10 *1252:A 0
6 *247:10 *257:10 6.7177e-06
7 *247:10 *304:10 2.54046e-05
8 *1012:B *247:10 0
9 *118:33 *247:10 9.03979e-05
*RES
1 *1139:Q *247:10 46.0786 
2 *247:10 *1097:A1 38 
*END

*D_NET *248 0.000645308
*CONN
*I *1015:A0 I *D sky130_fd_sc_hd__mux2_1
*I *1145:Q O *D sky130_fd_sc_hd__dfrtp_1
*CAP
1 *1015:A0 0
2 *1145:Q 0.000211902
3 *248:10 0.000211902
4 *248:10 *1144:CLK 5.25848e-05
5 *248:10 *249:10 0
6 *248:10 *258:10 0.000136486
7 *248:10 *321:25 1.37349e-05
8 *141:10 *248:10 1.86973e-05
*RES
1 *1145:Q *248:10 41.3557 
2 *248:10 *1015:A0 38 
*END

*D_NET *249 0.00116106
*CONN
*I *1017:A0 I *D sky130_fd_sc_hd__mux2_1
*I *1146:Q O *D sky130_fd_sc_hd__dfrtp_1
*CAP
1 *1017:A0 0
2 *1146:Q 0.000384074
3 *249:10 0.000384074
4 *249:10 *1144:CLK 0.000103647
5 *249:10 *270:60 3.22879e-05
6 *249:10 *270:67 0.000103637
7 *249:10 *310:20 8.9458e-05
8 *142:10 *249:10 6.38845e-05
9 *248:10 *249:10 0
*RES
1 *1146:Q *249:10 44.6907 
2 *249:10 *1017:A0 38 
*END

*D_NET *250 0.00566554
*CONN
*I *990:A I *D sky130_fd_sc_hd__inv_2
*I *1062:A I *D sky130_fd_sc_hd__or2_1
*I *1063:A I *D sky130_fd_sc_hd__nand2_1
*I *1071:A1 I *D sky130_fd_sc_hd__a21o_1
*I *1070:A I *D sky130_fd_sc_hd__nand3_1
*I *1027:B2 I *D sky130_fd_sc_hd__a2bb2o_1
*I *1151:Q O *D sky130_fd_sc_hd__dfrtp_1
*CAP
1 *990:A 4.42966e-05
2 *1062:A 9.79522e-05
3 *1063:A 0.000287627
4 *1071:A1 0
5 *1070:A 0
6 *1027:B2 0.000207323
7 *1151:Q 0.000549605
8 *250:58 0.000396403
9 *250:33 0.000121336
10 *250:25 0.000289258
11 *250:23 0.000455549
12 *250:21 0.000307982
13 *250:8 0.000810756
14 *1027:B2 *320:68 0.000149341
15 *1027:B2 *320:70 8.30744e-05
16 *1062:A *251:53 0.000136738
17 *1063:A *1063:B 4.59427e-05
18 *1063:A *1072:A 5.50049e-05
19 *250:21 *320:68 3.3746e-05
20 *250:25 *251:45 0.000155452
21 *250:33 *251:25 1.68817e-05
22 *250:33 *251:32 5.53064e-05
23 *250:33 *251:45 4.39281e-05
24 *250:58 *251:53 0.000398655
25 *250:58 *320:64 0.000103019
26 *250:58 *320:68 3.47781e-05
27 *1072:C *1063:A 7.9956e-05
28 *1072:C *250:25 5.50049e-05
29 *1079:B *1063:A 0
30 *149:50 *1027:B2 5.67058e-05
31 *155:28 *250:58 6.53505e-05
32 *159:22 *1027:B2 0.000232415
33 *159:22 *250:21 3.3746e-05
34 *159:22 *250:58 1.06693e-05
35 *163:6 *990:A 5.70419e-05
36 *163:6 *1062:A 8.48502e-06
37 *179:10 *990:A 4.79641e-05
38 *179:10 *1062:A 9.41704e-05
39 *186:12 *1063:A 2.98648e-05
40 *233:18 *250:33 1.42137e-05
*RES
1 *1151:Q *250:8 44.3386 
2 *250:8 *1027:B2 44.7529 
3 *250:8 *250:21 1.20143 
4 *250:21 *250:23 15 
5 *250:23 *250:25 2.52714 
6 *250:25 *250:33 31.9471 
7 *250:33 *1070:A 23 
8 *250:25 *1071:A1 23 
9 *250:23 *1063:A 27.3293 
10 *250:21 *250:58 21.7529 
11 *250:58 *1062:A 25.0507 
12 *250:58 *990:A 24.595 
*END

*D_NET *251 0.00602469
*CONN
*I *1063:B I *D sky130_fd_sc_hd__nand2_1
*I *1062:B I *D sky130_fd_sc_hd__or2_1
*I *1071:A2 I *D sky130_fd_sc_hd__a21o_1
*I *1070:B I *D sky130_fd_sc_hd__nand3_1
*I *1031:A I *D sky130_fd_sc_hd__and2_1
*I *1152:Q O *D sky130_fd_sc_hd__dfrtp_1
*CAP
1 *1063:B 8.37328e-05
2 *1062:B 0
3 *1071:A2 1.78208e-05
4 *1070:B 0
5 *1031:A 0.000402807
6 *1152:Q 0.000598283
7 *251:53 0.000295547
8 *251:45 0.000479652
9 *251:32 0.00015666
10 *251:25 0.00028084
11 *251:6 0.00124346
12 *1031:A *1031:B 2.93845e-05
13 *1031:A *1215:A 3.7122e-06
14 *1063:B *1072:A 5.3304e-05
15 *1071:A2 *1071:B1 3.23857e-06
16 *251:6 *1215:A 7.45621e-05
17 *251:6 *335:6 9.71035e-05
18 *251:25 *1071:B1 2.93431e-05
19 *251:25 *252:14 0.000160682
20 *251:32 *1071:B1 5.25022e-05
21 *251:45 *1071:B1 8.86496e-05
22 *1028:A2 *1031:A 2.1819e-05
23 *1028:B1 *1031:A 3.18142e-05
24 *1062:A *251:53 0.000136738
25 *1063:A *1063:B 4.59427e-05
26 *1072:C *1063:B 6.84256e-05
27 *1072:C *251:45 5.67058e-05
28 *159:22 *251:53 3.83059e-05
29 *163:6 *251:53 0.000114959
30 *186:6 *1063:B 4.21378e-05
31 *186:6 *251:45 6.1609e-05
32 *186:12 *1063:B 0.000138444
33 *188:10 *251:53 0.000346215
34 *233:18 *1031:A 0.000100061
35 *250:25 *251:45 0.000155452
36 *250:33 *251:25 1.68817e-05
37 *250:33 *251:32 5.53064e-05
38 *250:33 *251:45 4.39281e-05
39 *250:58 *251:53 0.000398655
*RES
1 *1152:Q *251:6 31.7207 
2 *251:6 *1031:A 29.8564 
3 *251:6 *251:25 34.9921 
4 *251:25 *1070:B 23 
5 *251:25 *251:32 1.09786 
6 *251:32 *1071:A2 23.4971 
7 *251:32 *251:45 3.64571 
8 *251:45 *251:53 38.3064 
9 *251:53 *1062:B 23 
10 *251:45 *1063:B 25.5271 
*END

*D_NET *252 0.00438425
*CONN
*I *1040:A1 I *D sky130_fd_sc_hd__a221o_1
*I *1071:B1 I *D sky130_fd_sc_hd__a21o_1
*I *1070:C I *D sky130_fd_sc_hd__nand3_1
*I *1153:Q O *D sky130_fd_sc_hd__dfrtp_1
*CAP
1 *1040:A1 0
2 *1071:B1 0.000173112
3 *1070:C 0
4 *1153:Q 0.000431813
5 *252:38 0.000266856
6 *252:14 0.000919523
7 *252:6 0.00144508
8 *252:6 *268:125 9.36953e-05
9 *252:14 *1121:CLK 0
10 *252:14 *1215:A 0.000106394
11 *252:14 *268:119 0
12 *252:14 *300:33 2.57346e-05
13 *252:14 *332:8 0
14 *252:38 *332:24 6.16531e-05
15 *1028:A2 *252:14 0
16 *1071:A2 *1071:B1 3.23857e-06
17 *150:29 *252:14 0
18 *150:29 *252:38 5.45345e-05
19 *150:38 *252:14 0
20 *150:38 *252:38 1.14452e-05
21 *152:8 *252:14 8.85189e-05
22 *159:22 *252:14 0
23 *161:10 *252:38 0.000184407
24 *186:6 *1071:B1 0.000187067
25 *186:12 *1071:B1 0
26 *233:18 *252:14 0
27 *251:25 *1071:B1 2.93431e-05
28 *251:25 *252:14 0.000160682
29 *251:32 *1071:B1 5.25022e-05
30 *251:45 *1071:B1 8.86496e-05
*RES
1 *1153:Q *252:6 30.7679 
2 *252:6 *252:14 44.8521 
3 *252:14 *1070:C 23 
4 *252:14 *1071:B1 27.8264 
5 *252:6 *252:38 35.2821 
6 *252:38 *1040:A1 23 
*END

*D_NET *253 0.00603106
*CONN
*I *991:A I *D sky130_fd_sc_hd__inv_2
*I *1045:A1 I *D sky130_fd_sc_hd__a221o_1
*I *1154:Q O *D sky130_fd_sc_hd__dfrtp_1
*CAP
1 *991:A 0.000347687
2 *1045:A1 0.000441876
3 *1154:Q 0.000830658
4 *253:8 0.000789564
5 *253:6 0.000830658
6 *1045:A1 *282:44 2.96051e-05
7 *1045:A1 *320:95 2.03764e-06
8 *1045:A1 *326:28 2.45549e-06
9 *253:6 *1027:A1_N 3.51563e-05
10 *253:6 *1029:A0 0.000123744
11 *253:6 *334:73 0.00044956
12 *1027:A2_N *253:6 0.000140259
13 *1045:B1 *1045:A1 0.000224605
14 *121:10 *253:6 0.00014349
15 *149:50 *253:6 0.00078987
16 *156:8 *991:A 0
17 *156:8 *1045:A1 0
18 *163:14 *991:A 0
19 *163:14 *1045:A1 0
20 *165:10 *1045:A1 2.96154e-05
21 *239:44 *253:6 0.000820219
*RES
1 *1154:Q *253:6 45.0607 
2 *253:6 *253:8 15 
3 *253:8 *1045:A1 44.815 
4 *253:8 *991:A 44.4836 
*END

*D_NET *254 0.00538982
*CONN
*I *984:A I *D sky130_fd_sc_hd__inv_2
*I *1103:A1 I *D sky130_fd_sc_hd__a211o_1
*I *1108:A1 I *D sky130_fd_sc_hd__a21o_1
*I *1141:Q O *D sky130_fd_sc_hd__dfrtp_1
*CAP
1 *984:A 0
2 *1103:A1 0.000292985
3 *1108:A1 0.000464621
4 *1141:Q 4.82161e-05
5 *254:23 0.000672226
6 *254:10 0.0014831
7 *254:8 0.000687449
8 *1103:A1 *272:25 8.09334e-05
9 *254:8 *270:96 3.71369e-05
10 *254:10 *1210:A 0
11 *254:10 *270:102 0
12 *254:10 *273:21 0
13 *254:10 *323:23 0.000249909
14 *254:10 *330:12 8.93766e-05
15 *254:23 *273:21 0
16 *996:A *254:10 0.000103814
17 *1047:A *254:10 0.000141751
18 *1047:A *254:23 6.53712e-05
19 *1113:D1 *1103:A1 5.12254e-05
20 *227:6 *1103:A1 4.5051e-05
21 *227:19 *254:23 0.000136132
22 *228:16 *254:23 8.26672e-05
23 *228:23 *254:23 4.6318e-06
24 *238:31 *1108:A1 0.000653232
25 *241:10 *254:10 0
26 *243:10 *254:10 0
27 *243:12 *254:10 0
*RES
1 *1141:Q *254:8 39.0979 
2 *254:8 *254:10 13.5264 
3 *254:10 *1108:A1 45.2914 
4 *254:10 *254:23 21.4836 
5 *254:23 *1103:A1 28.4271 
6 *254:23 *984:A 23 
*END

*D_NET *255 0.00228361
*CONN
*I *1087:B2 I *D sky130_fd_sc_hd__a221o_1
*I *1134:Q O *D sky130_fd_sc_hd__dfrtp_1
*CAP
1 *1087:B2 4.61676e-05
2 *1134:Q 0.000622684
3 *255:10 0.000668851
4 *1087:B2 *334:26 0.000100337
5 *255:10 *1134:RESET_B 0.000799819
6 *200:8 *1087:B2 3.49249e-05
7 *245:10 *1087:B2 1.08287e-05
*RES
1 *1134:Q *255:10 48.2743 
2 *255:10 *1087:B2 39.7452 
*END

*D_NET *256 0.00148348
*CONN
*I *1092:B2 I *D sky130_fd_sc_hd__a221o_1
*I *1135:Q O *D sky130_fd_sc_hd__dfrtp_1
*CAP
1 *1092:B2 0.000596718
2 *1135:Q 0.000110774
3 *256:8 0.000707492
4 *256:8 *268:50 0
5 *1092:C1 *1092:B2 4.97052e-05
6 *150:101 *1092:B2 1.8788e-05
*RES
1 *1135:Q *256:8 39.9057 
2 *256:8 *1092:B2 49.2738 
*END

*D_NET *257 0.00126984
*CONN
*I *1097:B2 I *D sky130_fd_sc_hd__a221o_1
*I *1136:Q O *D sky130_fd_sc_hd__dfrtp_1
*CAP
1 *1097:B2 6.69944e-06
2 *1136:Q 0.000379797
3 *257:10 0.000386497
4 *1010:A *257:10 7.73389e-05
5 *1097:B1 *1097:B2 6.39489e-06
6 *115:39 *257:10 6.85339e-05
7 *118:33 *1097:B2 1.28818e-05
8 *118:33 *257:10 0.000133316
9 *150:101 *257:10 0.000180218
10 *208:10 *257:10 1.14452e-05
11 *247:10 *257:10 6.7177e-06
*RES
1 *1136:Q *257:10 44.2143 
2 *257:10 *1097:B2 38.1502 
*END

*D_NET *258 0.00121896
*CONN
*I *1015:A1 I *D sky130_fd_sc_hd__mux2_1
*I *1143:Q O *D sky130_fd_sc_hd__dfrtp_1
*CAP
1 *1015:A1 0
2 *1143:Q 0.000445494
3 *258:10 0.000445494
4 *258:10 *1143:RESET_B 4.83893e-05
5 *258:10 *259:8 0
6 *258:10 *321:25 1.14452e-05
7 *258:10 *333:52 9.84851e-05
8 *258:10 *333:66 3.31683e-05
9 *248:10 *258:10 0.000136486
*RES
1 *1143:Q *258:10 45.25 
2 *258:10 *1015:A1 38 
*END

*D_NET *259 0.00136812
*CONN
*I *1017:A1 I *D sky130_fd_sc_hd__mux2_1
*I *1144:Q O *D sky130_fd_sc_hd__dfrtp_1
*CAP
1 *1017:A1 0.000483544
2 *1144:Q 9.89467e-05
3 *259:8 0.000582491
4 *1017:A1 *310:20 6.17437e-06
5 *259:8 *333:46 0
6 *141:10 *1017:A1 5.50049e-05
7 *142:10 *1017:A1 0.00014196
8 *258:10 *259:8 0
*RES
1 *1144:Q *259:8 39.5536 
2 *259:8 *1017:A1 46.41 
*END

*D_NET *260 0.00218537
*CONN
*I *989:A I *D sky130_fd_sc_hd__inv_2
*I *1032:A I *D sky130_fd_sc_hd__xor2_1
*I *1036:A I *D sky130_fd_sc_hd__and3_1
*I *1035:A1 I *D sky130_fd_sc_hd__a21oi_1
*I *1147:Q O *D sky130_fd_sc_hd__dfrtp_1
*CAP
1 *989:A 8.94909e-05
2 *1032:A 0
3 *1036:A 0
4 *1035:A1 0.000205808
5 *1147:Q 0.000142531
6 *260:36 0.000256189
7 *260:27 0.000166698
8 *260:10 0.000348339
9 *1035:A1 *1035:A2 2.64616e-05
10 *1035:A1 *262:8 1.14452e-05
11 *1035:A1 *335:50 2.74584e-05
12 *260:10 *261:10 3.47776e-05
13 *260:10 *261:14 4.4382e-05
14 *260:10 *262:8 0.000179712
15 *260:10 *324:48 5.3304e-05
16 *260:36 *1032:B 0.000227087
17 *260:36 *1035:A2 9.84851e-05
18 *260:36 *1036:C 0.000106046
19 *155:10 *989:A 5.79559e-05
20 *157:8 *989:A 9.88038e-05
21 *157:8 *260:36 1.03955e-05
*RES
1 *1147:Q *260:10 41.2314 
2 *260:10 *1035:A1 40.7136 
3 *260:10 *260:27 15 
4 *260:27 *1036:A 23 
5 *260:27 *260:36 4.45357 
6 *260:36 *1032:A 23 
7 *260:36 *989:A 25.5271 
*END

*D_NET *261 0.00221112
*CONN
*I *1036:B I *D sky130_fd_sc_hd__and3_1
*I *1032:B I *D sky130_fd_sc_hd__xor2_1
*I *1035:A2 I *D sky130_fd_sc_hd__a21oi_1
*I *1148:Q O *D sky130_fd_sc_hd__dfrtp_1
*CAP
1 *1036:B 0
2 *1032:B 6.94762e-05
3 *1035:A2 0.000136371
4 *1148:Q 0.000450039
5 *261:14 0.00026023
6 *261:10 0.000504421
7 *1035:A2 *1036:C 2.32004e-05
8 *261:10 *262:8 0.000139193
9 *1035:A1 *1035:A2 2.64616e-05
10 *157:8 *1032:B 0.000125488
11 *157:8 *1035:A2 7.15126e-05
12 *158:12 *261:10 0
13 *158:12 *261:14 0
14 *260:10 *261:10 3.47776e-05
15 *260:10 *261:14 4.4382e-05
16 *260:36 *1032:B 0.000227087
17 *260:36 *1035:A2 9.84851e-05
*RES
1 *1148:Q *261:10 46.41 
2 *261:10 *261:14 16.2014 
3 *261:14 *1035:A2 26.0036 
4 *261:14 *1032:B 26.0243 
5 *261:10 *1036:B 38 
*END

*D_NET *262 0.00191751
*CONN
*I *1035:B1 I *D sky130_fd_sc_hd__a21oi_1
*I *1036:C I *D sky130_fd_sc_hd__and3_1
*I *1149:Q O *D sky130_fd_sc_hd__dfrtp_1
*CAP
1 *1035:B1 0
2 *1036:C 0.000127977
3 *1149:Q 0.000387354
4 *262:10 0.000127977
5 *262:8 0.000387354
6 *262:8 *269:97 0
7 *262:8 *335:50 0.00015192
8 *262:8 *335:60 0.000219707
9 *262:8 *335:72 5.56306e-05
10 *1035:A1 *262:8 1.14452e-05
11 *1035:A2 *1036:C 2.32004e-05
12 *260:10 *262:8 0.000179712
13 *260:36 *1036:C 0.000106046
14 *261:10 *262:8 0.000139193
*RES
1 *1149:Q *262:8 49.0614 
2 *262:8 *262:10 15 
3 *262:10 *1036:C 25.1543 
4 *262:10 *1035:B1 23 
*END

*D_NET *263 0.000524216
*CONN
*I *1042:A I *D sky130_fd_sc_hd__xor2_1
*I *1150:Q O *D sky130_fd_sc_hd__dfrtp_1
*CAP
1 *1042:A 0
2 *1150:Q 0.000262108
3 *263:8 0.000262108
*RES
1 *1150:Q *263:8 27.93 
2 *263:8 *1042:A 23 
*END

*D_NET *264 0.00417522
*CONN
*I *1102:B2 I *D sky130_fd_sc_hd__a32o_1
*I *1013:A1_N I *D sky130_fd_sc_hd__a2bb2o_4
*I *1107:A2 I *D sky130_fd_sc_hd__a311o_1
*I *1140:Q O *D sky130_fd_sc_hd__dfrtp_1
*CAP
1 *1102:B2 0
2 *1013:A1_N 0
3 *1107:A2 0
4 *1140:Q 0.000491867
5 *264:35 3.90494e-05
6 *264:24 0.000217329
7 *264:16 0.000915034
8 *264:10 0.00115052
9 *264:10 *1157:RESET_B 0
10 *264:10 *274:8 0
11 *264:10 *311:34 0
12 *264:10 *347:16 0
13 *264:16 *274:8 0
14 *264:16 *320:6 1.76557e-05
15 *264:24 *271:73 0.000116314
16 *264:24 *317:39 5.56203e-05
17 *264:35 *1055:C 6.16439e-05
18 *264:35 *317:14 4.6318e-06
19 *264:35 *317:39 2.03327e-05
20 *213:25 *264:10 8.94487e-05
21 *213:25 *264:16 0.000138718
22 *225:10 *264:16 2.29192e-05
23 *225:16 *264:16 0.000587795
24 *225:16 *264:24 0.000223692
25 *232:10 *264:10 2.26489e-05
*RES
1 *1140:Q *264:10 46.99 
2 *264:10 *264:16 25.15 
3 *264:16 *264:24 34.0807 
4 *264:24 *1107:A2 23 
5 *264:16 *264:35 30.8493 
6 *264:35 *1013:A1_N 23 
7 *264:10 *1102:B2 38 
*END

*D_NET *265 0.00195394
*CONN
*I *985:A I *D sky130_fd_sc_hd__inv_2
*I *1218:A I *D sky130_fd_sc_hd__dlygate4sd3_1
*I *1119:Q O *D sky130_fd_sc_hd__dfrtp_1
*CAP
1 *985:A 0.000562074
2 *1218:A 0.000169103
3 *1119:Q 0.000122931
4 *265:8 0.000854108
5 *985:A *333:105 0
6 *1218:A *1016:A1 3.7122e-06
7 *265:8 *333:34 5.21024e-05
8 *265:8 *333:105 0
9 *1014:A1 *985:A 6.17437e-06
10 *1014:A2 *985:A 0.000183733
11 *243:16 *985:A 0
12 *243:16 *265:8 0
*RES
1 *1119:Q *265:8 40.2579 
2 *265:8 *1218:A 41.0036 
3 *265:8 *985:A 48.8129 
*END

*D_NET *266 0.00106807
*CONN
*I *1084:A1 I *D sky130_fd_sc_hd__o2111a_1
*I *1217:A I *D sky130_fd_sc_hd__dlygate4sd3_1
*I *1120:Q O *D sky130_fd_sc_hd__dfrtp_1
*CAP
1 *1084:A1 0.000107771
2 *1217:A 8.81407e-05
3 *1120:Q 9.29211e-05
4 *266:8 0.000288833
5 *1084:A1 *270:23 0.000194318
6 *1217:A *1156:RESET_B 4.96717e-05
7 *266:8 *270:23 0.000194309
8 *266:8 *333:20 5.21024e-05
9 *146:46 *1084:A1 0
*RES
1 *1120:Q *266:8 40.61 
2 *266:8 *1217:A 39.5743 
3 *266:8 *1084:A1 40.61 
*END

*D_NET *267 0.0119672
*CONN
*I *1201:A I *D sky130_fd_sc_hd__clkbuf_16
*I *1199:A I *D sky130_fd_sc_hd__clkbuf_16
*I *1198:A I *D sky130_fd_sc_hd__clkbuf_16
*I *1200:A I *D sky130_fd_sc_hd__clkbuf_16
*I *1197:X O *D sky130_fd_sc_hd__clkbuf_16
*CAP
1 *1201:A 0
2 *1199:A 0
3 *1198:A 0.00043
4 *1200:A 0.000491168
5 *1197:X 0
6 *267:51 0.000517517
7 *267:40 0.00101553
8 *267:25 0.00229586
9 *267:8 0.00160952
10 *267:6 0.00078554
11 *1198:A *281:44 0
12 *1200:A *1030:A2 0.000244924
13 *1200:A *281:102 6.4393e-05
14 *267:8 *284:28 0.000135547
15 *267:25 *1021:D 0.000128391
16 *267:25 *281:44 0.000125488
17 *267:25 *281:50 2.61526e-05
18 *267:25 *281:102 0.000139051
19 *267:25 *282:34 0.000427833
20 *267:25 *282:36 0.000138444
21 *267:25 *283:34 2.02872e-05
22 *267:25 *283:41 0.000566283
23 *267:25 *283:54 5.50049e-05
24 *267:40 *1040:A2 0
25 *267:40 *1081:A1 0
26 *267:40 *281:44 0
27 *267:40 *320:70 0
28 *267:40 *320:72 0
29 *267:51 *1222:A 0
30 *267:51 *271:36 0.000259146
31 *267:51 *271:38 0.000130423
32 *267:51 *271:48 0.000152886
33 *1025:A *1200:A 5.50106e-05
34 *118:49 *267:8 0.000101564
35 *118:49 *267:51 0.000262862
36 *125:12 *1200:A 2.72055e-05
37 *125:12 *267:8 0.000118422
38 *125:12 *267:51 0.000150461
39 *148:10 *1200:A 0.000218952
40 *148:10 *267:8 0.000301954
41 *148:16 *1200:A 9.45591e-05
42 *149:10 *1200:A 0.000267173
43 *150:65 *267:40 0
44 *154:10 *267:40 3.98835e-05
45 *155:28 *267:40 0.000406434
46 *162:8 *1198:A 0
47 *162:8 *267:40 0
48 *180:10 *267:40 0.000163361
49 *239:54 *267:40 0
*RES
1 *1197:X *267:6 38 
2 *267:6 *267:8 7.18786 
3 *267:8 *1200:A 49.6829 
4 *267:8 *267:25 49.6786 
5 *267:25 *1198:A 44.7114 
6 *267:25 *267:40 34.5129 
7 *267:40 *1199:A 23 
8 *267:6 *267:51 29.3343 
9 *267:51 *1201:A 23 
*END

*D_NET *268 0.0182421
*CONN
*I *1122:CLK I *D sky130_fd_sc_hd__dfrtp_2
*I *1131:CLK I *D sky130_fd_sc_hd__dfrtp_2
*I *1132:CLK I *D sky130_fd_sc_hd__dfrtp_1
*I *1123:CLK I *D sky130_fd_sc_hd__dfrtp_1
*I *1121:CLK I *D sky130_fd_sc_hd__dfrtp_4
*I *1153:CLK I *D sky130_fd_sc_hd__dfrtp_1
*I *1202:A I *D sky130_fd_sc_hd__clkbuf_4
*I *1134:CLK I *D sky130_fd_sc_hd__dfrtp_1
*I *1137:CLK I *D sky130_fd_sc_hd__dfrtp_1
*I *1135:CLK I *D sky130_fd_sc_hd__dfrtp_1
*I *1138:CLK I *D sky130_fd_sc_hd__dfrtp_1
*I *1136:CLK I *D sky130_fd_sc_hd__dfrtp_1
*I *1139:CLK I *D sky130_fd_sc_hd__dfrtp_1
*I *1198:X O *D sky130_fd_sc_hd__clkbuf_16
*CAP
1 *1122:CLK 0.000256639
2 *1131:CLK 8.91027e-05
3 *1132:CLK 4.05012e-05
4 *1123:CLK 0
5 *1121:CLK 9.68031e-05
6 *1153:CLK 0
7 *1202:A 0.000268976
8 *1134:CLK 0.000437871
9 *1137:CLK 0
10 *1135:CLK 0.000602209
11 *1138:CLK 0
12 *1136:CLK 0
13 *1139:CLK 0.000386718
14 *1198:X 0.000517369
15 *268:125 0.000975615
16 *268:119 0.00130839
17 *268:108 0.000653704
18 *268:104 0.000547213
19 *268:85 0.00103228
20 *268:76 0.000834515
21 *268:59 0.00149248
22 *268:50 0.000269896
23 *268:44 0.000803643
24 *268:42 0.000939722
25 *268:20 0.000512689
26 *268:18 0.00104282
27 *268:16 0.000601848
28 *268:10 0.000469725
29 *268:8 0.000517369
30 *1121:CLK *332:8 6.70363e-05
31 *1131:CLK *1131:RESET_B 5.12254e-05
32 *1134:CLK *1134:D 1.10317e-05
33 *1135:CLK *1135:D 1.73399e-05
34 *1139:CLK *290:10 4.90994e-05
35 *1139:CLK *310:44 0
36 *1139:CLK *332:44 7.91596e-05
37 *1139:CLK *332:52 0.000748
38 *268:8 *326:34 0
39 *268:8 *332:36 0
40 *268:8 *332:38 0
41 *268:16 *332:38 8.05114e-05
42 *268:18 *332:38 3.0647e-05
43 *268:18 *332:40 0.00029669
44 *268:18 *332:44 4.32475e-05
45 *268:20 *332:44 7.10099e-05
46 *268:42 *1135:RESET_B 8.12008e-05
47 *268:44 *1135:RESET_B 9.00168e-05
48 *268:59 *1135:RESET_B 0.000161588
49 *268:85 *334:12 9.63918e-05
50 *268:104 *334:12 8.15327e-05
51 *1086:A *1122:CLK 5.3304e-05
52 *1086:A *268:16 0.000268074
53 *1088:A1 *1122:CLK 8.60475e-05
54 *1131:D *1131:CLK 3.28726e-05
55 *115:10 *268:18 0
56 *115:16 *268:18 0
57 *115:75 *268:8 3.47781e-05
58 *116:69 *268:18 4.08537e-05
59 *150:12 *1131:CLK 3.34129e-05
60 *156:8 *268:8 0
61 *162:8 *268:8 0
62 *199:20 *1122:CLK 0.00020843
63 *199:35 *1122:CLK 3.75171e-05
64 *199:35 *268:16 0.000164291
65 *199:35 *268:18 0.000434994
66 *204:8 *1139:CLK 0
67 *204:8 *268:18 0
68 *204:8 *268:20 0
69 *239:54 *268:8 0
70 *252:6 *268:125 9.36953e-05
71 *252:14 *1121:CLK 0
72 *252:14 *268:119 0
73 *256:8 *268:50 0
*RES
1 *1198:X *268:8 46.2443 
2 *268:8 *268:10 15 
3 *268:10 *268:16 20.2614 
4 *268:16 *268:18 9.65286 
5 *268:18 *268:20 2.25786 
6 *268:20 *1139:CLK 48.8543 
7 *268:20 *1136:CLK 38 
8 *268:18 *268:42 23.2443 
9 *268:42 *268:44 3.95643 
10 *268:44 *268:50 34.7229 
11 *268:50 *1138:CLK 23 
12 *268:44 *268:59 5.40643 
13 *268:59 *1135:CLK 31.7829 
14 *268:59 *268:76 26.7657 
15 *268:76 *1137:CLK 38 
16 *268:76 *268:85 3.66643 
17 *268:85 *1134:CLK 45.9336 
18 *268:85 *268:104 22.6436 
19 *268:104 *268:108 17.61 
20 *268:108 *1202:A 42.4329 
21 *268:108 *268:119 4.37071 
22 *268:119 *268:125 28.3814 
23 *268:125 *1153:CLK 23 
24 *268:119 *1121:CLK 39.9057 
25 *268:104 *1123:CLK 23 
26 *268:42 *1132:CLK 23.8493 
27 *268:16 *1131:CLK 40.0507 
28 *268:10 *1122:CLK 28.4064 
*END

*D_NET *269 0.0150982
*CONN
*I *1130:CLK I *D sky130_fd_sc_hd__dfrtp_1
*I *1151:CLK I *D sky130_fd_sc_hd__dfrtp_1
*I *1128:CLK I *D sky130_fd_sc_hd__dfrtp_2
*I *1127:CLK I *D sky130_fd_sc_hd__dfrtp_2
*I *1129:CLK I *D sky130_fd_sc_hd__dfrtp_1
*I *1142:CLK I *D sky130_fd_sc_hd__dfrtp_1
*I *1149:CLK I *D sky130_fd_sc_hd__dfrtp_1
*I *1148:CLK I *D sky130_fd_sc_hd__dfrtp_1
*I *1147:CLK I *D sky130_fd_sc_hd__dfrtp_1
*I *1150:CLK I *D sky130_fd_sc_hd__dfrtp_1
*I *1152:CLK I *D sky130_fd_sc_hd__dfrtp_1
*I *1154:CLK I *D sky130_fd_sc_hd__dfrtp_1
*I *1199:X O *D sky130_fd_sc_hd__clkbuf_16
*CAP
1 *1130:CLK 0.000801902
2 *1151:CLK 0
3 *1128:CLK 0
4 *1127:CLK 0
5 *1129:CLK 0
6 *1142:CLK 0
7 *1149:CLK 0
8 *1148:CLK 0
9 *1147:CLK 0
10 *1150:CLK 0
11 *1152:CLK 0
12 *1154:CLK 0.000202242
13 *1199:X 2.30556e-05
14 *269:128 0.000337385
15 *269:112 0.000584613
16 *269:104 0.000940156
17 *269:97 0.000168491
18 *269:91 0.000830697
19 *269:84 0.000199583
20 *269:76 0.000939827
21 *269:67 0.000563099
22 *269:56 0.000394786
23 *269:47 0.00066365
24 *269:38 0.000527411
25 *269:18 0.00065826
26 *269:16 0.00107998
27 *269:12 0.0015528
28 *269:6 0.00154543
29 *1130:CLK *986:A 1.76557e-05
30 *1130:CLK *1064:A 2.93845e-05
31 *1130:CLK *320:64 0.000347205
32 *1154:CLK *286:10 0
33 *1154:CLK *339:10 4.21594e-06
34 *269:12 *338:10 6.64089e-05
35 *269:16 *338:10 6.18894e-05
36 *269:18 *339:10 0.000109173
37 *269:38 *297:10 2.75733e-06
38 *269:47 *297:10 3.34818e-06
39 *269:84 *303:10 5.00935e-05
40 *269:91 *1149:RESET_B 2.56078e-05
41 *269:91 *335:82 0.000298766
42 *269:104 *1128:RESET_B 6.87362e-05
43 *269:104 *335:82 0.000341402
44 *269:112 *1142:RESET_B 0
45 *269:112 *347:8 0.000648236
46 *269:128 *335:26 0
47 *269:128 *335:40 3.7566e-05
48 *269:128 *338:10 0.000110521
49 *1064:C *1130:CLK 6.8923e-05
50 *1130:D *1130:CLK 7.53384e-06
51 *1246:A *269:16 6.17437e-06
52 *1247:A *269:18 7.53721e-05
53 *55:17 *269:18 0
54 *66:13 *269:67 0.000183171
55 *68:13 *269:47 0.000208735
56 *112:13 *269:47 7.76035e-05
57 *112:13 *269:56 0.000222104
58 *181:10 *1130:CLK 1.21972e-05
59 *262:8 *269:97 0
*RES
1 *1199:X *269:6 23.4971 
2 *269:6 *269:12 12.9257 
3 *269:12 *269:16 21.815 
4 *269:16 *269:18 9.30071 
5 *269:18 *1154:CLK 41.5836 
6 *269:18 *1152:CLK 38 
7 *269:16 *269:38 2.25786 
8 *269:38 *1150:CLK 38 
9 *269:38 *269:47 8.24429 
10 *269:47 *1147:CLK 38 
11 *269:47 *269:56 5.77929 
12 *269:56 *1148:CLK 38 
13 *269:56 *269:67 17.9621 
14 *269:67 *1149:CLK 23 
15 *269:67 *269:76 7.31214 
16 *269:76 *269:84 33.7079 
17 *269:84 *1142:CLK 23 
18 *269:76 *269:91 7.29143 
19 *269:91 *269:97 32.9621 
20 *269:97 *1129:CLK 23 
21 *269:91 *269:104 8.72071 
22 *269:104 *269:112 45.1421 
23 *269:112 *1127:CLK 23 
24 *269:104 *1128:CLK 23 
25 *269:12 *269:128 36.4836 
26 *269:128 *1151:CLK 23 
27 *269:6 *1130:CLK 37.9143 
*END

*D_NET *270 0.0127841
*CONN
*I *1141:CLK I *D sky130_fd_sc_hd__dfrtp_1
*I *1155:CLK I *D sky130_fd_sc_hd__dfrtp_1
*I *1133:CLK I *D sky130_fd_sc_hd__dfrtp_1
*I *1144:CLK I *D sky130_fd_sc_hd__dfrtp_1
*I *1143:CLK I *D sky130_fd_sc_hd__dfrtp_1
*I *1145:CLK I *D sky130_fd_sc_hd__dfrtp_1
*I *1146:CLK I *D sky130_fd_sc_hd__dfrtp_1
*I *1120:CLK I *D sky130_fd_sc_hd__dfrtp_1
*I *1119:CLK I *D sky130_fd_sc_hd__dfrtp_1
*I *1203:A I *D sky130_fd_sc_hd__clkinv_2
*I *1200:X O *D sky130_fd_sc_hd__clkbuf_16
*CAP
1 *1141:CLK 0.000673079
2 *1155:CLK 0
3 *1133:CLK 0
4 *1144:CLK 0.000805967
5 *1143:CLK 0
6 *1145:CLK 0
7 *1146:CLK 0.000301381
8 *1120:CLK 0.000154345
9 *1119:CLK 0.000158525
10 *1203:A 0
11 *1200:X 0
12 *270:102 0.000191508
13 *270:96 0.00122751
14 *270:73 0.000130681
15 *270:67 0.000991362
16 *270:60 0.000265925
17 *270:51 0.000683305
18 *270:47 0.00061684
19 *270:36 0.000814274
20 *270:23 0.000674279
21 *270:14 0.000257744
22 *270:6 0.000926195
23 *270:4 0.000729422
24 *1119:CLK *310:95 0
25 *1119:CLK *333:20 1.97329e-05
26 *1144:CLK *1144:D 8.1796e-05
27 *1144:CLK *1145:RESET_B 2.8521e-05
28 *1144:CLK *333:66 9.91798e-05
29 *1144:CLK *333:80 0.000207295
30 *270:23 *1156:RESET_B 0.000401816
31 *270:23 *310:95 0
32 *270:23 *333:20 4.99753e-06
33 *270:36 *1120:RESET_B 2.56078e-05
34 *270:36 *333:34 7.59794e-05
35 *270:47 *1133:RESET_B 0
36 *270:47 *333:20 0
37 *270:51 *1133:RESET_B 0
38 *270:60 *1146:RESET_B 2.56078e-05
39 *270:60 *333:80 7.88926e-05
40 *270:67 *333:80 7.58011e-05
41 *270:73 *1133:RESET_B 0
42 *270:73 *329:10 0.000168744
43 *270:102 *1155:RESET_B 0
44 *996:A *270:102 0.000221193
45 *1084:A1 *270:23 0.000194318
46 *120:6 *1120:CLK 0.000107135
47 *120:6 *270:36 0.000319063
48 *133:8 *270:47 0
49 *133:8 *270:51 0
50 *140:10 *270:23 7.70494e-05
51 *146:46 *270:14 0.000166532
52 *146:46 *270:23 0
53 *226:31 *270:14 0.000168754
54 *239:14 *270:102 0.000110127
55 *248:10 *1144:CLK 5.25848e-05
56 *249:10 *1144:CLK 0.000103647
57 *249:10 *270:60 3.22879e-05
58 *249:10 *270:67 0.000103637
59 *254:8 *270:96 3.71369e-05
60 *254:10 *270:102 0
61 *266:8 *270:23 0.000194309
*RES
1 *1200:X *270:4 23 
2 *270:4 *270:6 5.38571 
3 *270:6 *270:14 35.2614 
4 *270:14 *1203:A 23 
5 *270:6 *270:23 23.9486 
6 *270:23 *1119:CLK 40.9621 
7 *270:23 *270:36 21.3386 
8 *270:36 *1120:CLK 26.48 
9 *270:36 *270:47 23.5964 
10 *270:47 *270:51 17.9621 
11 *270:51 *1146:CLK 28.3857 
12 *270:51 *270:60 4.43286 
13 *270:60 *1145:CLK 23 
14 *270:60 *270:67 2.05071 
15 *270:67 *270:73 32.9621 
16 *270:73 *1143:CLK 23 
17 *270:67 *1144:CLK 41.2493 
18 *270:47 *1133:CLK 38 
19 *270:4 *270:96 4.93 
20 *270:96 *270:102 34.7229 
21 *270:102 *1155:CLK 23 
22 *270:96 *1141:CLK 32.0936 
*END

*D_NET *271 0.0135716
*CONN
*I *1126:CLK I *D sky130_fd_sc_hd__dfrtp_1
*I *1140:CLK I *D sky130_fd_sc_hd__dfrtp_1
*I *1157:CLK I *D sky130_fd_sc_hd__dfrtp_1
*I *1204:A I *D sky130_fd_sc_hd__clkinvlp_4
*I *1158:CLK I *D sky130_fd_sc_hd__dfrtp_1
*I *1124:CLK I *D sky130_fd_sc_hd__dfrtp_1
*I *1156:CLK I *D sky130_fd_sc_hd__dfrtp_1
*I *1125:CLK I *D sky130_fd_sc_hd__dfrtp_1
*I *1201:X O *D sky130_fd_sc_hd__clkbuf_16
*CAP
1 *1126:CLK 0
2 *1140:CLK 0.000175467
3 *1157:CLK 0
4 *1204:A 0
5 *1158:CLK 0
6 *1124:CLK 0
7 *1156:CLK 8.81129e-05
8 *1125:CLK 0
9 *1201:X 3.06701e-05
10 *271:97 0.000523956
11 *271:82 0.000797367
12 *271:73 0.000841326
13 *271:59 0.000322175
14 *271:48 0.000491363
15 *271:38 0.0008659
16 *271:36 0.000227834
17 *271:18 0.000594816
18 *271:14 0.00107818
19 *271:12 0.000920612
20 *271:6 0.00112394
21 *1140:CLK *325:22 2.64616e-05
22 *1156:CLK *285:28 0.000157938
23 *1156:CLK *327:52 9.67842e-05
24 *271:6 *327:33 1.32939e-05
25 *271:12 *327:33 8.32663e-05
26 *271:14 *982:A 1.58805e-05
27 *271:14 *284:18 0
28 *271:14 *326:10 0.000153218
29 *271:14 *326:16 0.000161121
30 *271:14 *327:33 0
31 *271:14 *327:37 0.000154926
32 *271:18 *982:A 5.09782e-05
33 *271:18 *1084:B1 0.000272321
34 *271:18 *284:18 0
35 *271:18 *326:95 0.000583768
36 *271:48 *336:10 0.00041353
37 *271:59 *336:10 0
38 *271:59 *336:20 0
39 *271:59 *336:34 0
40 *271:73 *317:14 0
41 *271:73 *317:39 6.69592e-05
42 *271:73 *325:18 0.000273604
43 *271:82 *325:18 0.00019747
44 *271:97 *1126:RESET_B 7.3572e-05
45 *271:97 *276:12 2.93747e-05
46 *271:97 *325:18 6.25829e-05
47 *271:97 *325:132 0.000181943
48 *271:97 *336:42 7.68044e-05
49 *271:97 *336:56 0.000175684
50 *1082:A2 *271:59 0
51 *1107:C1 *271:73 0
52 *1115:A *271:73 0
53 *1126:D *271:97 2.64616e-05
54 *118:49 *271:48 0.000225275
55 *125:12 *271:18 0
56 *139:38 *271:73 0
57 *146:16 *271:18 7.76364e-06
58 *167:25 *271:59 0
59 *217:12 *271:12 0
60 *217:12 *271:14 0
61 *219:10 *271:18 8.4047e-05
62 *220:10 *271:14 0.000187996
63 *220:29 *271:12 5.46706e-05
64 *220:29 *271:14 0.000589151
65 *223:10 *271:73 0.000334234
66 *226:31 *271:18 0
67 *264:24 *271:73 0.000116314
68 *267:51 *271:36 0.000259146
69 *267:51 *271:38 0.000130423
70 *267:51 *271:48 0.000152886
*RES
1 *1201:X *271:6 23.6214 
2 *271:6 *271:12 21.235 
3 *271:12 *271:14 11.4136 
4 *271:14 *271:18 28.8786 
5 *271:18 *1125:CLK 23 
6 *271:14 *1156:CLK 40.0507 
7 *271:12 *271:36 18.9564 
8 *271:36 *271:38 1.57429 
9 *271:38 *271:48 41.9107 
10 *271:48 *1124:CLK 23 
11 *271:38 *271:59 35.7793 
12 *271:59 *1158:CLK 23 
13 *271:36 *1204:A 23 
14 *271:6 *271:73 31.6957 
15 *271:73 *1157:CLK 38 
16 *271:73 *271:82 2.61 
17 *271:82 *1140:CLK 41.0036 
18 *271:82 *271:97 27.035 
19 *271:97 *1126:CLK 23 
*END

*D_NET *272 0.00569955
*CONN
*I *1002:B I *D sky130_fd_sc_hd__nor4b_2
*I *1113:A1 I *D sky130_fd_sc_hd__a2111o_1
*I *1211:A I *D sky130_fd_sc_hd__clkbuf_4
*I *1155:Q O *D sky130_fd_sc_hd__dfrtp_1
*CAP
1 *1002:B 0
2 *1113:A1 0
3 *1211:A 1.80505e-05
4 *1155:Q 0.000457248
5 *272:44 0.000148077
6 *272:33 6.25347e-05
7 *272:25 0.00130231
8 *272:10 0.001567
9 *1211:A *330:51 5.50049e-05
10 *272:10 *994:C 0
11 *272:10 *285:18 0
12 *272:25 *1007:A 0
13 *272:25 *273:36 9.5877e-05
14 *272:25 *327:101 9.44487e-05
15 *272:25 *330:64 0
16 *272:25 *330:75 0
17 *272:25 *330:116 6.7177e-06
18 *272:33 *273:21 6.16531e-05
19 *272:33 *273:36 9.41704e-05
20 *1008:A *272:10 0.000276877
21 *1103:A1 *272:25 8.09334e-05
22 *1113:D1 *272:25 0.000213069
23 *1113:D1 *272:33 9.5877e-05
24 *138:12 *272:10 2.54046e-05
25 *169:16 *1211:A 2.93747e-05
26 *170:23 *272:33 6.16439e-05
27 *170:23 *272:44 0.000369939
28 *210:8 *272:10 0
29 *214:8 *272:25 6.69899e-05
30 *227:6 *272:25 9.67842e-05
31 *228:23 *272:44 0.000369939
32 *238:31 *272:10 4.96264e-05
*RES
1 *1155:Q *272:10 45.8093 
2 *272:10 *1211:A 38.6214 
3 *272:10 *272:25 34.8443 
4 *272:25 *272:33 31.9471 
5 *272:33 *1113:A1 23 
6 *272:25 *272:44 35.075 
7 *272:44 *1002:B 23 
*END

*D_NET *273 0.00354713
*CONN
*I *1002:A I *D sky130_fd_sc_hd__nor4b_2
*I *1113:C1 I *D sky130_fd_sc_hd__a2111o_1
*I *1210:A I *D sky130_fd_sc_hd__buf_2
*I *1156:Q O *D sky130_fd_sc_hd__dfrtp_1
*CAP
1 *1002:A 0
2 *1113:C1 5.43738e-05
3 *1210:A 0.00011396
4 *1156:Q 0
5 *273:36 0.000414392
6 *273:21 0.000996596
7 *273:6 0.00064179
8 *1210:A *285:28 4.79544e-05
9 *1210:A *330:12 7.53384e-06
10 *273:21 *327:23 8.72173e-05
11 *273:21 *330:12 0
12 *273:36 *274:8 1.83667e-05
13 *273:36 *275:21 0
14 *1113:D1 *1113:C1 2.64616e-05
15 *1113:D1 *273:36 1.41129e-05
16 *170:23 *273:21 1.22803e-05
17 *228:16 *273:21 0
18 *228:23 *273:36 0.000342143
19 *241:10 *1210:A 5.03449e-05
20 *241:10 *273:21 6.07929e-05
21 *241:34 *273:21 0.000308624
22 *243:10 *1210:A 9.84851e-05
23 *254:10 *1210:A 0
24 *254:10 *273:21 0
25 *254:23 *273:21 0
26 *272:25 *273:36 9.5877e-05
27 *272:33 *273:21 6.16531e-05
28 *272:33 *273:36 9.41704e-05
*RES
1 *1156:Q *273:6 38 
2 *273:6 *1210:A 41.2521 
3 *273:6 *273:21 26.4136 
4 *273:21 *1113:C1 23.6214 
5 *273:21 *273:36 37.25 
6 *273:36 *1002:A 23 
*END

*D_NET *274 0.00223138
*CONN
*I *1209:A I *D sky130_fd_sc_hd__clkbuf_2
*I *1002:C I *D sky130_fd_sc_hd__nor4b_2
*I *1157:Q O *D sky130_fd_sc_hd__dfrtp_1
*CAP
1 *1209:A 8.05751e-05
2 *1002:C 0.000224229
3 *1157:Q 0.000602123
4 *274:10 0.000304804
5 *274:8 0.000602123
6 *1002:C *1002:D_N 0
7 *1002:C *275:17 8.59258e-05
8 *1209:A *275:17 5.12328e-05
9 *274:8 *275:21 2.99716e-05
10 *274:8 *310:133 4.18957e-05
11 *1107:A1 *274:8 3.35885e-05
12 *170:23 *274:8 0
13 *213:25 *274:8 0
14 *225:10 *274:8 0.000110922
15 *228:23 *274:8 4.5628e-05
16 *264:10 *274:8 0
17 *264:16 *274:8 0
18 *273:36 *274:8 1.83667e-05
*RES
1 *1157:Q *274:8 49.0614 
2 *274:8 *274:10 15 
3 *274:10 *1002:C 26.5007 
4 *274:10 *1209:A 24.5743 
*END

*D_NET *275 0.00832549
*CONN
*I *993:B I *D sky130_fd_sc_hd__and2b_1
*I *998:A I *D sky130_fd_sc_hd__or4bb_4
*I *1003:A I *D sky130_fd_sc_hd__or4b_4
*I *1208:A I *D sky130_fd_sc_hd__clkbuf_2
*I *1158:Q O *D sky130_fd_sc_hd__dfrtp_1
*CAP
1 *993:B 0.000424895
2 *998:A 0.000148624
3 *1003:A 0.000142471
4 *1208:A 2.1727e-05
5 *1158:Q 0.000239918
6 *275:21 0.000816134
7 *275:17 0.00148897
8 *275:6 0.000800677
9 *993:B *993:A_N 0.000206378
10 *993:B *997:B 2.28308e-05
11 *993:B *328:10 5.3304e-05
12 *993:B *328:102 0.000552468
13 *998:A *998:C_N 0.000119467
14 *1003:A *285:28 6.27973e-05
15 *1003:A *330:19 0.000139357
16 *1208:A *1002:D_N 4.00259e-06
17 *275:17 *317:10 0.000182832
18 *275:21 *328:10 0.000233453
19 *275:21 *328:12 0.000204346
20 *275:21 *328:14 0.000153218
21 *275:21 *328:16 0.000262178
22 *275:21 *328:20 0.000161121
23 *1002:C *275:17 8.59258e-05
24 *1047:A *1003:A 0.000187986
25 *1047:A *275:21 0.000468765
26 *1112:D_N *998:A 0.000479335
27 *1209:A *275:17 5.12328e-05
28 *213:25 *275:21 1.22803e-05
29 *227:19 *275:21 8.68081e-05
30 *236:10 *993:B 0.000274078
31 *239:14 *1003:A 8.68903e-05
32 *239:14 *275:21 2.60152e-05
33 *239:32 *998:A 9.50411e-05
34 *273:36 *275:21 0
35 *274:8 *275:21 2.99716e-05
*RES
1 *1158:Q *275:6 26.9564 
2 *275:6 *1208:A 23.4971 
3 *275:6 *275:17 8.74143 
4 *275:17 *275:21 29.935 
5 *275:21 *1003:A 42.1843 
6 *275:21 *998:A 43.3857 
7 *275:17 *993:B 33.9579 
*END

*D_NET *276 0.00163009
*CONN
*I *1220:A I *D sky130_fd_sc_hd__dlygate4sd3_1
*I *1009:A I *D sky130_fd_sc_hd__and2_1
*I *1126:Q O *D sky130_fd_sc_hd__dfrtp_1
*CAP
1 *1220:A 7.0119e-05
2 *1009:A 0
3 *1126:Q 0
4 *276:12 0.000522968
5 *276:4 0.000593087
6 *1220:A *336:56 1.94812e-05
7 *276:12 *325:132 0.000393021
8 *276:12 *336:56 2.03764e-06
9 *271:97 *276:12 2.93747e-05
*RES
1 *1126:Q *276:4 23 
2 *276:4 *276:12 41.455 
3 *276:12 *1009:A 23 
4 *276:4 *1220:A 24.4707 
*END

*D_NET *277 0.00782328
*CONN
*I *1052:A1 I *D sky130_fd_sc_hd__o211a_1
*I *1061:A1 I *D sky130_fd_sc_hd__mux2_1
*I *1056:A I *D sky130_fd_sc_hd__or4_1
*I *1074:A1 I *D sky130_fd_sc_hd__o21ai_1
*I *1073:A I *D sky130_fd_sc_hd__or3_1
*I *1066:A I *D sky130_fd_sc_hd__and2_1
*I *1057:B1_N I *D sky130_fd_sc_hd__o21ba_1
*I *1065:A I *D sky130_fd_sc_hd__nor2_1
*I *1127:Q O *D sky130_fd_sc_hd__dfrtp_2
*CAP
1 *1052:A1 0
2 *1061:A1 0.000556388
3 *1056:A 0
4 *1074:A1 0
5 *1073:A 0
6 *1066:A 0
7 *1057:B1_N 0
8 *1065:A 0
9 *1127:Q 0
10 *277:89 0.000352492
11 *277:47 0.000412125
12 *277:35 0.000509964
13 *277:26 0.000201167
14 *277:20 0.000172654
15 *277:18 0.000179861
16 *277:16 0.000335565
17 *277:10 0.000954876
18 *277:4 0.000525951
19 *1061:A1 *336:42 9.67842e-05
20 *277:10 *1127:RESET_B 9.98995e-05
21 *277:10 *336:34 1.12487e-05
22 *277:10 *347:12 9.84851e-05
23 *277:16 *1051:B 5.50049e-05
24 *277:16 *1051:C 4.34745e-05
25 *277:16 *325:35 0
26 *277:16 *336:34 0.000186687
27 *277:18 *1051:B 8.43466e-05
28 *277:18 *1051:C 0.000141052
29 *277:18 *279:43 0.000488848
30 *277:18 *280:38 0.000234006
31 *277:20 *279:36 0.000143655
32 *277:20 *279:43 0.000127821
33 *277:20 *280:38 6.17437e-06
34 *277:20 *325:79 0.000159174
35 *277:26 *1073:C 7.08619e-05
36 *277:26 *279:23 6.33627e-05
37 *277:26 *279:36 8.34104e-06
38 *277:26 *325:79 0.000240324
39 *277:35 *1073:C 0
40 *277:35 *278:35 1.51028e-05
41 *277:35 *279:23 0.000137651
42 *277:47 *1057:A1 5.37348e-06
43 *277:47 *1066:B 3.70187e-05
44 *277:47 *278:35 3.70094e-05
45 *277:47 *319:6 3.03718e-05
46 *277:47 *319:21 5.67058e-05
47 *277:47 *324:67 0.000166307
48 *277:89 *325:35 7.75329e-06
49 *277:89 *347:12 0.000315852
50 *1053:A2 *277:89 0
51 *1061:S *1061:A1 8.47188e-05
52 *1076:C1 *277:47 5.67058e-05
53 *170:12 *277:89 6.07611e-06
54 *171:8 *277:89 9.32613e-05
55 *178:14 *1061:A1 5.50106e-05
56 *178:14 *277:47 6.68167e-05
57 *182:8 *277:47 5.21127e-05
58 *183:10 *277:47 3.884e-05
*RES
1 *1127:Q *277:4 23 
2 *277:4 *277:10 19.06 
3 *277:10 *277:16 20.6964 
4 *277:16 *277:18 6.33857 
5 *277:18 *277:20 3.00357 
6 *277:20 *277:26 3.99786 
7 *277:26 *1065:A 23 
8 *277:26 *277:35 2.07143 
9 *277:35 *277:47 38.9486 
10 *277:47 *1057:B1_N 23 
11 *277:35 *1066:A 23 
12 *277:20 *1073:A 23 
13 *277:18 *1074:A1 23 
14 *277:16 *1056:A 23 
15 *277:10 *1061:A1 45.7679 
16 *277:4 *277:89 38.2029 
17 *277:89 *1052:A1 23 
*END

*D_NET *278 0.00491556
*CONN
*I *1069:A1 I *D sky130_fd_sc_hd__mux2_1
*I *1051:A I *D sky130_fd_sc_hd__nor3_1
*I *1056:B I *D sky130_fd_sc_hd__or4_1
*I *1074:A2 I *D sky130_fd_sc_hd__o21ai_1
*I *1073:B I *D sky130_fd_sc_hd__or3_1
*I *1065:B I *D sky130_fd_sc_hd__nor2_1
*I *1066:B I *D sky130_fd_sc_hd__and2_1
*I *1128:Q O *D sky130_fd_sc_hd__dfrtp_2
*CAP
1 *1069:A1 2.95294e-05
2 *1051:A 0.000240104
3 *1056:B 0
4 *1074:A2 0
5 *1073:B 0
6 *1065:B 0
7 *1066:B 8.10272e-05
8 *1128:Q 0.000345699
9 *278:56 0.000669923
10 *278:49 0.000592693
11 *278:42 0.00040315
12 *278:35 5.34645e-05
13 *278:27 0.000370548
14 *278:12 0.000297851
15 *278:10 0.000515246
16 *1051:A *1051:B 9.45591e-05
17 *1066:B *279:23 2.93747e-05
18 *278:27 *279:23 9.67842e-05
19 *278:42 *279:23 0.000316412
20 *278:42 *279:36 1.58749e-05
21 *278:49 *279:36 7.42621e-05
22 *278:49 *279:43 5.25848e-05
23 *278:56 *1051:B 5.25848e-05
24 *278:56 *279:43 0.000292591
25 *170:6 *1051:A 1.02949e-05
26 *177:31 *1069:A1 5.50049e-05
27 *178:14 *278:10 9.84851e-05
28 *178:14 *278:12 0
29 *178:14 *278:35 3.83778e-05
30 *277:35 *278:35 1.51028e-05
31 *277:47 *1066:B 3.70187e-05
32 *277:47 *278:35 3.70094e-05
*RES
1 *1128:Q *278:10 42.9093 
2 *278:10 *278:12 2.25786 
3 *278:12 *1066:B 39.8229 
4 *278:12 *278:27 16.0979 
5 *278:27 *278:35 31.3775 
6 *278:35 *1065:B 23 
7 *278:27 *278:42 3.95643 
8 *278:42 *1073:B 23 
9 *278:42 *278:49 2.52714 
10 *278:49 *1074:A2 23 
11 *278:49 *278:56 6.815 
12 *278:56 *1056:B 23 
13 *278:56 *1051:A 26.8529 
14 *278:10 *1069:A1 38.6214 
*END

*D_NET *279 0.00449581
*CONN
*I *1051:B I *D sky130_fd_sc_hd__nor3_1
*I *1056:C I *D sky130_fd_sc_hd__or4_1
*I *1074:B1 I *D sky130_fd_sc_hd__o21ai_1
*I *1073:C I *D sky130_fd_sc_hd__or3_1
*I *1077:A1 I *D sky130_fd_sc_hd__mux2_1
*I *1129:Q O *D sky130_fd_sc_hd__dfrtp_1
*CAP
1 *1051:B 7.25445e-05
2 *1056:C 0
3 *1074:B1 0
4 *1073:C 3.00385e-05
5 *1077:A1 0
6 *1129:Q 0.000224129
7 *279:43 0.00019403
8 *279:36 0.000146086
9 *279:23 0.000608195
10 *279:12 0.000553556
11 *279:10 0.000224129
12 *1051:B *1051:C 4.95081e-05
13 *1051:A *1051:B 9.45591e-05
14 *1066:B *279:23 2.93747e-05
15 *1069:A0 *279:10 1.21972e-05
16 *170:6 *1051:B 1.76557e-05
17 *177:31 *279:10 6.17437e-06
18 *183:10 *279:23 1.39317e-05
19 *185:8 *279:10 0.000138718
20 *277:16 *1051:B 5.50049e-05
21 *277:18 *1051:B 8.43466e-05
22 *277:18 *279:43 0.000488848
23 *277:20 *279:36 0.000143655
24 *277:20 *279:43 0.000127821
25 *277:26 *1073:C 7.08619e-05
26 *277:26 *279:23 6.33627e-05
27 *277:26 *279:36 8.34104e-06
28 *277:35 *1073:C 0
29 *277:35 *279:23 0.000137651
30 *278:27 *279:23 9.67842e-05
31 *278:42 *279:23 0.000316412
32 *278:42 *279:36 1.58749e-05
33 *278:49 *279:36 7.42621e-05
34 *278:49 *279:43 5.25848e-05
35 *278:56 *1051:B 5.25848e-05
36 *278:56 *279:43 0.000292591
*RES
1 *1129:Q *279:10 41.0036 
2 *279:10 *279:12 15 
3 *279:12 *1077:A1 23 
4 *279:12 *279:23 12.268 
5 *279:23 *1073:C 24.3827 
6 *279:23 *279:36 1.87982 
7 *279:36 *1074:B1 23 
8 *279:36 *279:43 6.815 
9 *279:43 *1056:C 23 
10 *279:43 *1051:B 26.0036 
*END

*D_NET *280 0.00572881
*CONN
*I *1051:C I *D sky130_fd_sc_hd__nor3_1
*I *1056:D I *D sky130_fd_sc_hd__or4_1
*I *1080:C1 I *D sky130_fd_sc_hd__o211a_1
*I *986:A I *D sky130_fd_sc_hd__inv_2
*I *1130:Q O *D sky130_fd_sc_hd__dfrtp_1
*CAP
1 *1051:C 0.000150824
2 *1056:D 0
3 *1080:C1 0.000104078
4 *986:A 0.000336667
5 *1130:Q 0.000434092
6 *280:38 0.000569593
7 *280:19 0.000953062
8 *280:6 0.00120097
9 *1080:C1 *302:18 1.56273e-05
10 *1080:C1 *302:28 7.31551e-05
11 *1080:C1 *325:63 5.3304e-05
12 *280:6 *1130:RESET_B 0.000134437
13 *280:19 *1080:A1 3.70094e-05
14 *280:19 *1080:A2 3.83059e-05
15 *280:19 *324:16 0.0001642
16 *280:19 *324:23 5.31444e-05
17 *280:38 *1080:A1 2.46345e-05
18 *280:38 *325:67 3.72639e-05
19 *1051:B *1051:C 4.95081e-05
20 *1075:B1 *1080:C1 3.61695e-05
21 *1075:B2 *1080:C1 9.75779e-05
22 *1080:B1 *1080:C1 5.50106e-05
23 *1130:CLK *986:A 1.76557e-05
24 *1130:D *986:A 0.000139352
25 *163:14 *280:19 0
26 *170:6 *1051:C 1.32314e-05
27 *195:14 *280:19 0.000376514
28 *196:10 *280:19 0.000138718
29 *277:16 *1051:C 4.34745e-05
30 *277:18 *1051:C 0.000141052
31 *277:18 *280:38 0.000234006
32 *277:20 *280:38 6.17437e-06
*RES
1 *1130:Q *280:6 28.8621 
2 *280:6 *986:A 27.8057 
3 *280:6 *280:19 26.0614 
4 *280:19 *1080:C1 41.0243 
5 *280:19 *280:38 21.96 
6 *280:38 *1056:D 23 
7 *280:38 *1051:C 26.5007 
*END

*D_NET *281 0.00951811
*CONN
*I *1019:A I *D sky130_fd_sc_hd__nor2_1
*I *1020:A I *D sky130_fd_sc_hd__or3_1
*I *1021:A I *D sky130_fd_sc_hd__nor4_1
*I *1030:A1 I *D sky130_fd_sc_hd__a2111o_1
*I *1022:A I *D sky130_fd_sc_hd__or4_1
*I *1109:D_N I *D sky130_fd_sc_hd__or4b_1
*I *1043:A1 I *D sky130_fd_sc_hd__o31a_1
*I *1038:A1 I *D sky130_fd_sc_hd__o21ai_1
*I *1027:A1_N I *D sky130_fd_sc_hd__a2bb2o_1
*I *1029:A0 I *D sky130_fd_sc_hd__mux2_1
*I *1121:Q O *D sky130_fd_sc_hd__dfrtp_4
*CAP
1 *1019:A 3.21736e-05
2 *1020:A 0
3 *1021:A 0
4 *1030:A1 0
5 *1022:A 0.000324562
6 *1109:D_N 2.42998e-05
7 *1043:A1 0
8 *1038:A1 0
9 *1027:A1_N 3.33534e-05
10 *1029:A0 8.92671e-05
11 *1121:Q 0
12 *281:102 0.00057575
13 *281:74 0.000675061
14 *281:65 0.00052742
15 *281:57 0.00091983
16 *281:50 0.000346872
17 *281:44 0.000610249
18 *281:36 0.000545155
19 *281:20 0.000250244
20 *281:16 0.000380816
21 *281:4 0.000359938
22 *1019:A *320:95 2.64616e-05
23 *1022:A *1109:A 0.000217656
24 *1022:A *283:66 0.000147837
25 *1022:A *284:18 0.000141052
26 *281:16 *1121:RESET_B 1.49237e-06
27 *281:16 *320:95 6.17437e-06
28 *281:16 *332:24 0.000101058
29 *281:20 *300:33 0
30 *281:36 *320:95 0.000220047
31 *281:44 *326:77 2.67602e-05
32 *281:50 *283:34 6.13092e-05
33 *281:50 *283:41 6.07175e-05
34 *281:57 *283:41 0.000356724
35 *281:65 *282:21 1.01436e-05
36 *281:65 *282:30 7.39034e-05
37 *281:65 *282:61 0.00010394
38 *281:65 *282:76 5.01986e-05
39 *281:74 *1043:B1 0.000128391
40 *281:102 *1021:D 0.000230604
41 *281:102 *283:41 4.5051e-05
42 *281:102 *283:54 2.4754e-05
43 *1028:A2 *281:20 0.000186679
44 *1029:A1 *1029:A0 2.93747e-05
45 *1044:A1 *281:65 5.3304e-05
46 *1044:A1 *281:74 4.5707e-05
47 *1045:B1 *1019:A 6.17437e-06
48 *1198:A *281:44 0
49 *1200:A *281:102 6.4393e-05
50 *1265:A *1022:A 5.24812e-05
51 *1265:A *281:74 1.14876e-05
52 *125:12 *281:102 0.000163352
53 *144:8 *281:44 6.63698e-05
54 *148:10 *281:102 1.02387e-05
55 *149:32 *281:65 0
56 *149:50 *1027:A1_N 8.1228e-05
57 *149:50 *1029:A0 9.77405e-05
58 *149:50 *281:20 1.54487e-05
59 *150:59 *1019:A 2.02872e-05
60 *150:59 *281:16 5.71036e-05
61 *150:59 *281:36 0.000213872
62 *150:65 *281:44 6.25829e-05
63 *156:8 *281:44 0
64 *159:22 *281:16 2.07357e-05
65 *219:10 *1022:A 2.18506e-05
66 *239:46 *281:16 5.884e-05
67 *253:6 *1027:A1_N 3.51563e-05
68 *253:6 *1029:A0 0.000123744
69 *267:25 *281:44 0.000125488
70 *267:25 *281:50 2.61526e-05
71 *267:25 *281:102 0.000139051
72 *267:40 *281:44 0
*RES
1 *1121:Q *281:4 23 
2 *281:4 *281:16 49.4743 
3 *281:16 *281:20 17.61 
4 *281:20 *1029:A0 25.5271 
5 *281:20 *1027:A1_N 23.9373 
6 *281:4 *281:36 4.43286 
7 *281:36 *281:44 38.3064 
8 *281:44 *281:50 3.99786 
9 *281:50 *1038:A1 23 
10 *281:50 *281:57 3.95643 
11 *281:57 *281:65 33.9357 
12 *281:65 *1043:A1 23 
13 *281:65 *281:74 5.28214 
14 *281:74 *1109:D_N 23.4971 
15 *281:74 *1022:A 29.38 
16 *281:57 *281:102 41.9521 
17 *281:102 *1030:A1 23 
18 *281:57 *1021:A 23 
19 *281:44 *1020:A 23 
20 *281:36 *1019:A 23.6214 
*END

*D_NET *282 0.0083228
*CONN
*I *1022:B I *D sky130_fd_sc_hd__or4_1
*I *1109:A I *D sky130_fd_sc_hd__or4b_1
*I *1043:A2 I *D sky130_fd_sc_hd__o31a_1
*I *1038:A2 I *D sky130_fd_sc_hd__o21ai_1
*I *1020:B I *D sky130_fd_sc_hd__or3_1
*I *1019:B I *D sky130_fd_sc_hd__nor2_1
*I *1021:B I *D sky130_fd_sc_hd__nor4_1
*I *1034:A1 I *D sky130_fd_sc_hd__a22o_1
*I *1122:Q O *D sky130_fd_sc_hd__dfrtp_2
*CAP
1 *1022:B 0.000470931
2 *1109:A 0.000111699
3 *1043:A2 3.27104e-05
4 *1038:A2 0
5 *1020:B 0
6 *1019:B 0
7 *1021:B 0
8 *1034:A1 0.000244161
9 *1122:Q 0.00053693
10 *282:76 0.000987869
11 *282:61 0.000489082
12 *282:44 0.000265258
13 *282:36 0.00038016
14 *282:34 0.000421511
15 *282:30 0.00040815
16 *282:21 0.000190188
17 *282:10 0.00092087
18 *1022:B *283:66 4.6318e-06
19 *1022:B *300:33 9.0331e-06
20 *1109:A *283:66 9.17998e-05
21 *1109:A *284:40 3.09722e-05
22 *282:10 *1122:RESET_B 0
23 *282:21 *1021:D 0
24 *282:30 *1021:D 0
25 *282:30 *283:54 2.71291e-05
26 *282:44 *320:95 8.10902e-05
27 *282:61 *283:54 5.31444e-05
28 *282:76 *1021:D 0
29 *282:76 *283:54 4.6318e-06
30 *282:76 *300:33 0.000140185
31 *282:76 *326:28 0
32 *1022:A *1109:A 0.000217656
33 *1044:A1 *1043:A2 5.50106e-05
34 *1045:A1 *282:44 2.96051e-05
35 *1045:B1 *282:44 0.000141835
36 *1265:A *1022:B 0.00022109
37 *118:49 *1022:B 7.57281e-06
38 *122:8 *282:10 0
39 *149:12 *1034:A1 2.18506e-05
40 *149:32 *282:21 0
41 *149:32 *282:44 0
42 *153:6 *1034:A1 0.000443673
43 *156:8 *282:44 0.000167391
44 *160:8 *282:44 0.000167443
45 *165:10 *282:44 0
46 *199:20 *282:10 0.000143071
47 *267:25 *282:34 0.000427833
48 *267:25 *282:36 0.000138444
49 *281:65 *282:21 1.01436e-05
50 *281:65 *282:30 7.39034e-05
51 *281:65 *282:61 0.00010394
52 *281:65 *282:76 5.01986e-05
*RES
1 *1122:Q *282:10 48.44 
2 *282:10 *1034:A1 43.3857 
3 *282:10 *282:21 2.25786 
4 *282:21 *1021:B 38 
5 *282:21 *282:30 1.20143 
6 *282:30 *282:34 19.9093 
7 *282:34 *282:36 1.57429 
8 *282:36 *282:44 36.7736 
9 *282:44 *1019:B 23 
10 *282:36 *1020:B 23 
11 *282:34 *1038:A2 23 
12 *282:30 *282:61 1.55357 
13 *282:61 *1043:A2 38.6214 
14 *282:61 *282:76 9.94002 
15 *282:76 *1109:A 48.8689 
16 *282:76 *1022:B 49.4418 
*END

*D_NET *283 0.00598591
*CONN
*I *1043:A3 I *D sky130_fd_sc_hd__o31a_1
*I *1109:B I *D sky130_fd_sc_hd__or4b_1
*I *1022:C I *D sky130_fd_sc_hd__or4_1
*I *1021:C I *D sky130_fd_sc_hd__nor4_1
*I *1038:B1 I *D sky130_fd_sc_hd__o21ai_1
*I *1020:C I *D sky130_fd_sc_hd__or3_1
*I *1041:A0 I *D sky130_fd_sc_hd__mux2_1
*I *1123:Q O *D sky130_fd_sc_hd__dfrtp_1
*CAP
1 *1043:A3 0
2 *1109:B 0
3 *1022:C 0
4 *1021:C 0
5 *1038:B1 0
6 *1020:C 0
7 *1041:A0 0
8 *1123:Q 0.000206863
9 *283:66 0.000159115
10 *283:58 0.000441207
11 *283:54 0.000428223
12 *283:41 0.000281175
13 *283:34 0.000180341
14 *283:25 0.000313024
15 *283:8 0.00047459
16 *283:8 *1123:RESET_B 1.24376e-05
17 *283:8 *332:36 0.000137651
18 *283:25 *326:34 3.47879e-05
19 *283:54 *1021:D 0
20 *283:66 *1021:D 2.96154e-05
21 *283:66 *284:40 2.24608e-05
22 *1022:A *283:66 0.000147837
23 *1022:B *283:66 4.6318e-06
24 *1034:B1 *283:25 9.84851e-05
25 *1041:A1 *283:8 0.000488848
26 *1041:A1 *283:25 5.67058e-05
27 *1041:S *283:25 1.98161e-05
28 *1044:A1 *283:58 3.17027e-05
29 *1109:A *283:66 9.17998e-05
30 *1265:A *283:58 0.000311554
31 *1265:A *283:66 0.000351828
32 *123:8 *283:8 0.00014698
33 *145:8 *283:54 0.000113153
34 *156:8 *283:25 6.4393e-05
35 *160:8 *283:25 6.16439e-05
36 *267:25 *283:34 2.02872e-05
37 *267:25 *283:41 0.000566283
38 *267:25 *283:54 5.50049e-05
39 *281:50 *283:34 6.13092e-05
40 *281:50 *283:41 6.07175e-05
41 *281:57 *283:41 0.000356724
42 *281:102 *283:41 4.5051e-05
43 *281:102 *283:54 2.4754e-05
44 *282:30 *283:54 2.71291e-05
45 *282:61 *283:54 5.31444e-05
46 *282:76 *283:54 4.6318e-06
*RES
1 *1123:Q *283:8 29.8357 
2 *283:8 *1041:A0 23 
3 *283:8 *283:25 35.5514 
4 *283:25 *1020:C 23 
5 *283:25 *283:34 1.11857 
6 *283:34 *1038:B1 23 
7 *283:34 *283:41 6.33857 
8 *283:41 *1021:C 23 
9 *283:41 *283:54 32.8793 
10 *283:54 *283:58 4.45357 
11 *283:58 *283:66 34.8057 
12 *283:66 *1022:C 23 
13 *283:58 *1109:B 23 
14 *283:54 *1043:A3 23 
*END

*D_NET *284 0.00590021
*CONN
*I *1222:A I *D sky130_fd_sc_hd__dlygate4sd3_1
*I *1022:D I *D sky130_fd_sc_hd__or4_1
*I *1109:C I *D sky130_fd_sc_hd__or4b_1
*I *1043:B1 I *D sky130_fd_sc_hd__o31a_1
*I *1021:D I *D sky130_fd_sc_hd__nor4_1
*I *1124:Q O *D sky130_fd_sc_hd__dfrtp_1
*CAP
1 *1222:A 0.000142045
2 *1022:D 0
3 *1109:C 0
4 *1043:B1 5.43531e-05
5 *1021:D 0.000245064
6 *1124:Q 0.000161268
7 *284:40 0.000629278
8 *284:30 0.000416587
9 *284:28 0.000283831
10 *284:18 0.000714746
11 *284:8 0.000820954
12 *284:28 *326:28 5.79715e-05
13 *1022:A *284:18 0.000141052
14 *1044:A1 *1043:B1 1.32314e-05
15 *1050:A1 *1222:A 9.84794e-05
16 *1109:A *284:40 3.09722e-05
17 *1265:A *1043:B1 0.000119313
18 *1265:A *284:18 1.76557e-05
19 *118:49 *1021:D 0
20 *118:49 *284:30 0.000163352
21 *118:49 *284:40 4.93359e-05
22 *125:12 *1222:A 7.70737e-05
23 *125:12 *284:18 0.000652459
24 *125:12 *284:28 6.08751e-05
25 *145:8 *1021:D 0
26 *148:10 *284:28 9.41704e-05
27 *219:10 *284:18 0.000181131
28 *220:10 *284:18 0
29 *220:29 *1222:A 0
30 *220:29 *284:18 0
31 *267:8 *284:28 0.000135547
32 *267:25 *1021:D 0.000128391
33 *267:51 *1222:A 0
34 *271:14 *284:18 0
35 *271:18 *284:18 0
36 *281:74 *1043:B1 0.000128391
37 *281:102 *1021:D 0.000230604
38 *282:21 *1021:D 0
39 *282:30 *1021:D 0
40 *282:76 *1021:D 0
41 *283:54 *1021:D 0
42 *283:66 *1021:D 2.96154e-05
43 *283:66 *284:40 2.24608e-05
*RES
1 *1124:Q *284:8 40.0507 
2 *284:8 *284:18 26.7657 
3 *284:18 *284:28 48.9564 
4 *284:28 *284:30 2.25786 
5 *284:30 *284:40 5.92429 
6 *284:40 *1021:D 43.8414 
7 *284:40 *1043:B1 40.5271 
8 *284:30 *1109:C 38 
9 *284:18 *1022:D 23 
10 *284:8 *1222:A 41.0036 
*END

*D_NET *285 0.0088251
*CONN
*I *1104:A1 I *D sky130_fd_sc_hd__a21o_1
*I *1024:A_N I *D sky130_fd_sc_hd__and3b_1
*I *1110:B I *D sky130_fd_sc_hd__and4_1
*I *1223:X O *D sky130_fd_sc_hd__buf_1
*CAP
1 *1104:A1 2.1727e-05
2 *1024:A_N 4.35412e-05
3 *1110:B 0
4 *1223:X 0.000125693
5 *285:28 0.00151401
6 *285:18 0.00287437
7 *285:8 0.00150786
8 *1024:A_N *1024:C 5.67058e-05
9 *1024:A_N *326:91 7.42621e-05
10 *1024:A_N *327:52 8.6949e-05
11 *285:18 *1049:A 0.000137737
12 *285:18 *1159:A 0.00025214
13 *285:18 *1254:A 0.000230604
14 *285:18 *1258:A 0.00019747
15 *285:18 *299:8 0.000124732
16 *285:18 *330:34 3.00757e-05
17 *285:18 *330:64 0
18 *285:18 *330:75 0
19 *285:18 *330:88 0
20 *285:28 *1003:D_N 2.30292e-05
21 *285:28 *326:91 5.50049e-05
22 *285:28 *327:52 4.04206e-05
23 *285:28 *330:19 2.50973e-05
24 *285:28 *330:34 0.000122821
25 bvalid *285:18 0
26 rdata[2] *285:18 0
27 *1003:A *285:28 6.27973e-05
28 *1008:A *285:18 0.000182826
29 *1008:B *1104:A1 0
30 *1008:B *285:18 4.04888e-05
31 *1104:A2 *285:18 5.50106e-05
32 *1104:A2 *285:28 1.24376e-05
33 *1110:D *285:28 5.3304e-05
34 *1156:CLK *285:28 0.000157938
35 *1156:D *285:28 4.06849e-05
36 *1210:A *285:28 4.79544e-05
37 *1223:A *285:18 0
38 *1237:A *285:18 0
39 *134:10 *285:28 0.000315857
40 *243:10 *285:28 0.000311554
41 *272:10 *285:18 0
*RES
1 *1223:X *285:8 39.5743 
2 *285:8 *285:18 45.3879 
3 *285:18 *285:28 24.7743 
4 *285:28 *1110:B 23 
5 *285:28 *1024:A_N 25.0714 
6 *285:18 *1104:A1 23.4971 
*END

*D_NET *286 0.000768989
*CONN
*I *1154:D I *D sky130_fd_sc_hd__dfrtp_1
*I *1224:X O *D sky130_fd_sc_hd__clkbuf_1
*CAP
1 *1154:D 0
2 *1224:X 0.00031356
3 *286:10 0.00031356
4 *286:10 *339:10 0.000141869
5 *1154:CLK *286:10 0
*RES
1 *1224:X *286:10 43.4686 
2 *286:10 *1154:D 38 
*END

*D_NET *287 0.00208826
*CONN
*I *1141:D I *D sky130_fd_sc_hd__dfrtp_1
*I *1225:X O *D sky130_fd_sc_hd__clkbuf_1
*CAP
1 *1141:D 0
2 *1225:X 0.000647092
3 *287:10 0.000647092
4 *287:10 *1155:RESET_B 0
5 *287:10 *309:19 0.000794077
6 *287:10 *333:105 0
*RES
1 *1225:X *287:10 48.7507 
2 *287:10 *1141:D 38 
*END

*D_NET *288 0.000313176
*CONN
*I *1134:D I *D sky130_fd_sc_hd__dfrtp_1
*I *1226:X O *D sky130_fd_sc_hd__clkbuf_1
*CAP
1 *1134:D 1.47919e-05
2 *1226:X 0.00012233
3 *288:10 0.000137122
4 *1134:CLK *1134:D 1.10317e-05
5 *1226:A *288:10 2.79004e-05
*RES
1 *1226:X *288:10 39.8229 
2 *288:10 *1134:D 38.2123 
*END

*D_NET *289 0.000259338
*CONN
*I *1135:D I *D sky130_fd_sc_hd__dfrtp_1
*I *1227:X O *D sky130_fd_sc_hd__clkbuf_1
*CAP
1 *1135:D 3.23287e-05
2 *1227:X 8.86702e-05
3 *289:8 0.000120999
4 *1135:CLK *1135:D 1.73399e-05
5 *59:17 *289:8 0
*RES
1 *1227:X *289:8 39.5536 
2 *289:8 *1135:D 38.6214 
*END

*D_NET *290 0.000801519
*CONN
*I *1136:D I *D sky130_fd_sc_hd__dfrtp_1
*I *1228:X O *D sky130_fd_sc_hd__clkbuf_1
*CAP
1 *1136:D 0
2 *1228:X 0.000357286
3 *290:10 0.000357286
4 *290:10 *310:44 0
5 *1139:CLK *290:10 4.90994e-05
6 *1228:A *290:10 1.94812e-05
7 *204:8 *290:10 1.83667e-05
*RES
1 *1228:X *290:10 43.945 
2 *290:10 *1136:D 38 
*END

*D_NET *291 0.000554283
*CONN
*I *1143:D I *D sky130_fd_sc_hd__dfrtp_1
*I *1229:X O *D sky130_fd_sc_hd__clkbuf_1
*CAP
1 *1143:D 0
2 *1229:X 0.000267401
3 *291:10 0.000267401
4 *291:10 *329:10 0
5 *1229:A *291:10 1.94812e-05
*RES
1 *1229:X *291:10 41.9564 
2 *291:10 *1143:D 38 
*END

*D_NET *292 0.00108739
*CONN
*I *1144:D I *D sky130_fd_sc_hd__dfrtp_1
*I *1230:X O *D sky130_fd_sc_hd__clkbuf_1
*CAP
1 *1144:D 0.000407418
2 *1230:X 9.53785e-05
3 *292:8 0.000502797
4 *1144:CLK *1144:D 8.1796e-05
*RES
1 *1230:X *292:8 39.5536 
2 *292:8 *1144:D 45.2914 
*END

*D_NET *293 0.000243762
*CONN
*I *1147:D I *D sky130_fd_sc_hd__dfrtp_1
*I *1231:X O *D sky130_fd_sc_hd__clkbuf_1
*CAP
1 *1147:D 0
2 *1231:X 7.13589e-05
3 *293:8 7.13589e-05
4 *293:8 *302:8 8.62876e-05
5 *112:13 *293:8 1.47563e-05
*RES
1 *1231:X *293:8 39.5536 
2 *293:8 *1147:D 38 
*END

*D_NET *294 0.000865192
*CONN
*I *1148:D I *D sky130_fd_sc_hd__dfrtp_1
*I *1232:X O *D sky130_fd_sc_hd__clkbuf_1
*CAP
1 *1148:D 4.01848e-05
2 *1232:X 0.000130298
3 *294:8 0.000170483
4 *294:8 *295:10 0.000196549
5 *66:13 *294:8 0.000327676
*RES
1 *1232:X *294:8 42.3707 
2 *294:8 *1148:D 38.6214 
*END

*D_NET *295 0.000909256
*CONN
*I *1149:D I *D sky130_fd_sc_hd__dfrtp_1
*I *1233:X O *D sky130_fd_sc_hd__clkbuf_1
*CAP
1 *1149:D 0
2 *1233:X 0.000337211
3 *295:10 0.000337211
4 *66:13 *295:10 3.82852e-05
5 *294:8 *295:10 0.000196549
*RES
1 *1233:X *295:10 44.0486 
2 *295:10 *1149:D 38 
*END

*D_NET *296 0.000980779
*CONN
*I *1137:D I *D sky130_fd_sc_hd__dfrtp_1
*I *1234:X O *D sky130_fd_sc_hd__clkbuf_1
*CAP
1 *1137:D 0
2 *1234:X 0.000452714
3 *296:10 0.000452714
4 *296:10 *334:12 7.53522e-05
*RES
1 *1234:X *296:10 31.41 
2 *296:10 *1137:D 23 
*END

*D_NET *297 0.00036149
*CONN
*I *1150:D I *D sky130_fd_sc_hd__dfrtp_1
*I *1235:X O *D sky130_fd_sc_hd__clkbuf_1
*CAP
1 *1150:D 0
2 *1235:X 0.000146861
3 *297:10 0.000146861
4 *68:13 *297:10 6.16635e-05
5 *269:38 *297:10 2.75733e-06
6 *269:47 *297:10 3.34818e-06
*RES
1 *1235:X *297:10 40.5271 
2 *297:10 *1150:D 38 
*END

*D_NET *298 0.00180883
*CONN
*I *1140:D I *D sky130_fd_sc_hd__dfrtp_1
*I *1236:X O *D sky130_fd_sc_hd__clkbuf_1
*CAP
1 *1140:D 0
2 *1236:X 0
3 *298:10 0.000724232
4 *298:6 0.000724232
5 *298:10 *314:8 0
6 *298:10 *315:27 0.000278731
7 *298:10 *325:132 0
8 *231:8 *298:10 8.16356e-05
*RES
1 *1236:X *298:6 38 
2 *298:6 *298:10 30.6393 
3 *298:10 *1140:D 23 
*END

*D_NET *299 0.00198041
*CONN
*I *1100:A2 I *D sky130_fd_sc_hd__o21ai_1
*I *1049:A I *D sky130_fd_sc_hd__and2_1
*I *1237:X O *D sky130_fd_sc_hd__clkbuf_1
*CAP
1 *1100:A2 0.000212571
2 *1049:A 0.000264867
3 *1237:X 0.000191267
4 *299:8 0.000668706
5 *1100:A2 *301:8 0.000149822
6 bresp *1049:A 0.000135884
7 *1237:A *299:8 6.54744e-05
8 *1239:A *1049:A 1.09783e-05
9 *1239:A *299:8 1.83667e-05
10 *285:18 *1049:A 0.000137737
11 *285:18 *299:8 0.000124732
*RES
1 *1237:X *299:8 43.075 
2 *299:8 *1049:A 44.525 
3 *299:8 *1100:A2 42.4329 
*END

*D_NET *300 0.00805353
*CONN
*I *1215:A I *D sky130_fd_sc_hd__clkbuf_4
*I *1216:A I *D sky130_fd_sc_hd__buf_2
*I *1214:A I *D sky130_fd_sc_hd__clkbuf_2
*I *1238:X O *D sky130_fd_sc_hd__buf_1
*CAP
1 *1215:A 0.000408146
2 *1216:A 0
3 *1214:A 0
4 *1238:X 5.45698e-05
5 *300:33 0.00162635
6 *300:21 0.00300932
7 *300:12 0.000310372
8 *300:6 0.00133977
9 *300:12 *334:58 0.000146634
10 *300:12 *334:73 0
11 *300:12 *340:10 0
12 *300:21 *1121:RESET_B 4.12021e-05
13 *300:33 *326:28 0.000130187
14 *1022:B *300:33 9.0331e-06
15 *1031:A *1215:A 3.7122e-06
16 *74:11 *300:33 0.00050427
17 *118:49 *300:33 0
18 *149:50 *1215:A 3.68039e-05
19 *152:8 *1215:A 8.62876e-05
20 *251:6 *1215:A 7.45621e-05
21 *252:14 *1215:A 0.000106394
22 *252:14 *300:33 2.57346e-05
23 *281:20 *300:33 0
24 *282:76 *300:33 0.000140185
*RES
1 *1238:X *300:6 23.6214 
2 *300:6 *300:12 36.8357 
3 *300:12 *1214:A 23 
4 *300:6 *300:21 27.5321 
5 *300:21 *300:33 36.6958 
6 *300:33 *1216:A 23 
7 *300:21 *1215:A 45.8507 
*END

*D_NET *301 0.00133613
*CONN
*I *1101:A1 I *D sky130_fd_sc_hd__a32o_1
*I *1239:X O *D sky130_fd_sc_hd__clkbuf_1
*CAP
1 *1101:A1 0
2 *1239:X 0.000522693
3 *301:8 0.000522693
4 *301:8 *1100:B1 1.32939e-05
5 *1100:A2 *301:8 0.000149822
6 *1101:B1 *301:8 0.000121526
7 *1101:B2 *301:8 6.09861e-06
*RES
1 *1239:X *301:8 30.7886 
2 *301:8 *1101:A1 23 
*END

*D_NET *302 0.00861814
*CONN
*I *1106:A_N I *D sky130_fd_sc_hd__and3b_1
*I *1105:A_N I *D sky130_fd_sc_hd__nand2b_1
*I *1240:X O *D sky130_fd_sc_hd__buf_1
*CAP
1 *1106:A_N 2.27699e-05
2 *1105:A_N 0
3 *1240:X 3.55839e-05
4 *302:34 0.000169101
5 *302:28 0.00072898
6 *302:18 0.00280696
7 *302:8 0.00230544
8 *1106:A_N *317:47 3.34247e-05
9 *302:18 *1067:A1 2.18409e-05
10 *302:18 *1075:A2_N 1.56273e-05
11 *302:18 *1147:RESET_B 4.83893e-05
12 *302:18 *324:33 6.3494e-05
13 *302:18 *324:37 1.5769e-05
14 *302:18 *324:48 0.000487395
15 *302:18 *325:94 2.64616e-05
16 *302:28 *317:47 4.57742e-05
17 *302:28 *324:33 0.00020897
18 *302:28 *325:63 0.000351765
19 *302:34 *1054:A 4.6318e-06
20 *302:34 *325:37 0.000116413
21 *1067:B1 *302:18 0.000267173
22 *1075:B1 *302:18 9.72057e-06
23 *1075:B1 *302:28 0.000111596
24 *1075:B2 *302:18 7.53384e-06
25 *1075:B2 *302:28 9.24795e-06
26 *1080:B1 *302:28 3.04516e-05
27 *1080:C1 *302:18 1.56273e-05
28 *1080:C1 *302:28 7.31551e-05
29 *1106:C *1106:A_N 9.84851e-05
30 *1106:C *302:28 0.000311554
31 *112:13 *302:8 8.85189e-05
32 *167:25 *302:34 0
33 *167:36 *302:34 0
34 *293:8 *302:8 8.62876e-05
*RES
1 *1240:X *302:8 39.2014 
2 *302:8 *302:18 48.9093 
3 *302:18 *302:28 15.2457 
4 *302:28 *302:34 33.3143 
5 *302:34 *1105:A_N 23 
6 *302:28 *1106:A_N 24.0979 
*END

*D_NET *303 0.00102862
*CONN
*I *1142:D I *D sky130_fd_sc_hd__dfrtp_1
*I *1241:X O *D sky130_fd_sc_hd__clkbuf_1
*CAP
1 *1142:D 0
2 *1241:X 0.000489263
3 *303:10 0.000489263
4 *269:84 *303:10 5.00935e-05
*RES
1 *1241:X *303:10 30.4571 
2 *303:10 *1142:D 23 
*END

*D_NET *304 0.000660868
*CONN
*I *1251:A I *D sky130_fd_sc_hd__buf_2
*I *1010:X O *D sky130_fd_sc_hd__and2_1
*CAP
1 *1251:A 0
2 *1010:X 0.000307991
3 *304:10 0.000307991
4 *304:10 *1252:A 0
5 *304:10 *318:8 0
6 *304:10 *332:56 0
7 *1010:A *304:10 1.94812e-05
8 *247:10 *304:10 2.54046e-05
*RES
1 *1010:X *304:10 43.6964 
2 *304:10 *1251:A 38 
*END

*D_NET *305 0.00194351
*CONN
*I *1252:A I *D sky130_fd_sc_hd__buf_2
*I *1011:X O *D sky130_fd_sc_hd__and2_1
*CAP
1 *1252:A 0.000454192
2 *1011:X 0.000299214
3 *305:8 0.000753406
4 *1252:A *306:10 0
5 *305:8 *310:24 0.000393293
6 *1012:B *1252:A 4.3407e-05
7 *247:10 *1252:A 0
8 *304:10 *1252:A 0
*RES
1 *1011:X *305:8 42.4329 
2 *305:8 *1252:A 45.8921 
*END

*D_NET *306 0.000652352
*CONN
*I *1253:A I *D sky130_fd_sc_hd__buf_2
*I *1012:X O *D sky130_fd_sc_hd__and2_1
*CAP
1 *1253:A 0
2 *1012:X 0.000324068
3 *306:10 0.000324068
4 *306:10 *337:8 0
5 *1245:A *306:10 4.21594e-06
6 *1252:A *306:10 0
*RES
1 *1012:X *306:10 43.6964 
2 *306:10 *1253:A 38 
*END

*D_NET *307 0.000207335
*CONN
*I *1138:D I *D sky130_fd_sc_hd__dfrtp_1
*I *1242:X O *D sky130_fd_sc_hd__clkbuf_1
*CAP
1 *1138:D 0
2 *1242:X 0.000103667
3 *307:8 0.000103667
*RES
1 *1242:X *307:8 39.9057 
2 *307:8 *1138:D 38 
*END

*D_NET *308 0.00050437
*CONN
*I *1254:A I *D sky130_fd_sc_hd__buf_2
*I *1008:X O *D sky130_fd_sc_hd__or2_1
*CAP
1 *1254:A 0.000136883
2 *1008:X 0.000136883
3 *285:18 *1254:A 0.000230604
*RES
1 *1008:X *1254:A 49.48 
*END

*D_NET *309 0.0027221
*CONN
*I *1255:A I *D sky130_fd_sc_hd__buf_2
*I *1099:A1 I *D sky130_fd_sc_hd__a21o_1
*I *996:Y O *D sky130_fd_sc_hd__nor2_1
*CAP
1 *1255:A 0
2 *1099:A1 0
3 *996:Y 0.000289288
4 *309:19 0.000500404
5 *309:6 0.000789692
6 PWRITE *309:19 2.74987e-05
7 *1023:A1 *309:6 2.18506e-05
8 *1225:A *309:19 1.19796e-05
9 *138:12 *309:19 0.000230604
10 *239:14 *309:6 5.67058e-05
11 *287:10 *309:19 0.000794077
*RES
1 *996:Y *309:6 27.9093 
2 *309:6 *1099:A1 23 
3 *309:6 *309:19 44.2929 
4 *309:19 *1255:A 23 
*END

*D_NET *310 0.0225428
*CONN
*I *1205:A I *D sky130_fd_sc_hd__buf_6
*I *1055:D I *D sky130_fd_sc_hd__nor4_1
*I *1108:A2 I *D sky130_fd_sc_hd__a21o_1
*I *1097:A2 I *D sky130_fd_sc_hd__a221o_1
*I *1087:A2 I *D sky130_fd_sc_hd__a221o_1
*I *1026:B I *D sky130_fd_sc_hd__nor2_2
*I *1092:A2 I *D sky130_fd_sc_hd__a221o_1
*I *1256:A I *D sky130_fd_sc_hd__buf_2
*I *1004:Y O *D sky130_fd_sc_hd__inv_2
*CAP
1 *1205:A 0
2 *1055:D 0
3 *1108:A2 3.28483e-05
4 *1097:A2 6.63992e-05
5 *1087:A2 0
6 *1026:B 0
7 *1092:A2 0
8 *1256:A 0
9 *1004:Y 0.000107668
10 *310:133 0.000362242
11 *310:118 0.000196156
12 *310:110 0.00112155
13 *310:95 0.00170524
14 *310:79 0.000663697
15 *310:58 0.000927747
16 *310:44 0.000471838
17 *310:34 0.000968693
18 *310:24 0.000984262
19 *310:20 0.00171936
20 *310:8 0.00264652
21 *310:8 *321:12 0.000139352
22 *310:20 *1133:RESET_B 0.000111023
23 *310:20 *321:12 0.000195236
24 *310:34 *1122:RESET_B 7.81176e-05
25 *310:34 *1136:RESET_B 7.51159e-05
26 *310:44 *332:44 5.0135e-05
27 *310:58 *1122:RESET_B 0.000326857
28 *310:79 *1026:A 0.00014196
29 *310:79 *326:34 0
30 *310:95 *1156:RESET_B 2.44393e-05
31 *310:95 *341:10 0.000140958
32 *310:110 *317:10 0.000138718
33 *310:110 *320:18 9.41704e-05
34 *310:118 *1055:C 0.000227695
35 *310:118 *317:10 4.77554e-05
36 *310:133 *320:6 9.71387e-05
37 *310:133 *320:18 0.00030805
38 arready *310:44 5.41385e-05
39 *1014:A1 *310:95 0
40 *1017:A1 *310:20 6.17437e-06
41 *1086:A *310:79 7.38076e-05
42 *1092:C1 *310:34 0.000173663
43 *1092:C1 *310:44 1.70074e-05
44 *1097:B1 *1097:A2 0
45 *1097:B1 *310:24 2.32101e-05
46 *1107:A1 *310:118 9.58714e-05
47 *1107:A1 *310:133 1.01436e-05
48 *1107:B1 *310:118 1.57571e-05
49 *1119:CLK *310:95 0
50 *1133:D *310:20 0.000180812
51 *1139:CLK *310:44 0
52 *115:8 *310:79 0.000128401
53 *115:10 *310:79 2.22079e-05
54 *115:39 *310:34 6.7177e-06
55 *115:75 *310:79 3.98859e-05
56 *118:33 *310:24 0.000262864
57 *139:38 *310:95 0.00124392
58 *139:38 *310:110 0.000999405
59 *140:10 *310:95 0.000327903
60 *142:10 *310:20 0.000239021
61 *142:10 *310:95 0.000296947
62 *150:12 *310:79 0.000147996
63 *150:85 *310:58 0.000524337
64 *150:101 *310:34 0.000997243
65 *150:101 *310:44 3.32734e-05
66 *150:101 *310:58 0.000114092
67 *169:16 *1108:A2 9.58714e-05
68 *199:35 *310:79 0.000398503
69 *200:8 *310:79 6.23206e-05
70 *201:6 *310:79 0.000570592
71 *209:16 *1097:A2 0.00010018
72 *209:16 *310:20 5.30436e-05
73 *222:8 *310:110 0.000138727
74 *225:16 *310:133 5.50106e-05
75 *228:23 *310:133 8.72173e-05
76 *238:31 *1108:A2 9.58714e-05
77 *241:10 *310:95 0
78 *241:34 *310:95 0
79 *241:34 *310:110 0
80 *241:34 *310:118 4.18957e-05
81 *243:16 *310:95 0
82 *246:8 *310:44 0.000113153
83 *249:10 *310:20 8.9458e-05
84 *270:23 *310:95 0
85 *274:8 *310:133 4.18957e-05
86 *290:10 *310:44 0
87 *305:8 *310:24 0.000393293
*RES
1 *1004:Y *310:8 39.5743 
2 *310:8 *310:20 38.7593 
3 *310:20 *310:24 21.3386 
4 *310:24 *310:34 30.6704 
5 *310:34 *310:44 39.6425 
6 *310:44 *1256:A 23 
7 *310:34 *1092:A2 23 
8 *310:24 *310:58 23.9486 
9 *310:58 *1026:B 23 
10 *310:58 *310:79 48.3218 
11 *310:79 *1087:A2 23 
12 *310:20 *1097:A2 25.6618 
13 *310:8 *310:95 27.26 
14 *310:95 *1108:A2 39.0979 
15 *310:95 *310:110 29.6243 
16 *310:110 *310:118 34.4121 
17 *310:118 *1055:D 23 
18 *310:110 *310:133 36.2557 
19 *310:133 *1205:A 23 
*END

*D_NET *311 0.00363533
*CONN
*I *1257:A I *D sky130_fd_sc_hd__buf_2
*I *1102:B1 I *D sky130_fd_sc_hd__a32o_1
*I *1055:A I *D sky130_fd_sc_hd__nor4_1
*I *999:Y O *D sky130_fd_sc_hd__inv_2
*CAP
1 *1257:A 0
2 *1102:B1 2.01803e-05
3 *1055:A 7.34929e-05
4 *999:Y 0
5 *311:34 0.000796567
6 *311:13 0.000975921
7 *311:4 0.000232667
8 *1055:A *1206:A 9.67842e-05
9 *311:34 *347:16 4.21594e-06
10 *311:34 *347:26 0.000179451
11 *1102:A2 *1102:B1 2.02517e-05
12 *1102:A2 *311:34 0.00023481
13 *1107:A1 *1055:A 4.75087e-05
14 *1107:B1 *1055:A 0.000268873
15 *1107:B1 *311:13 0.0002568
16 *1107:B1 *311:34 0
17 *1117:A2 *311:34 5.50106e-05
18 *213:6 *311:13 1.56762e-05
19 *213:6 *311:34 0.000228001
20 *225:10 *1102:B1 1.45295e-05
21 *225:10 *311:13 6.88358e-05
22 *225:10 *311:34 2.25419e-05
23 *241:53 *1055:A 2.32101e-05
24 *264:10 *311:34 0
*RES
1 *999:Y *311:4 23 
2 *311:4 *1055:A 26.0036 
3 *311:4 *311:13 4.43286 
4 *311:13 *1102:B1 23.7768 
5 *311:13 *311:34 47.2136 
6 *311:34 *1257:A 23 
*END

*D_NET *312 0.00191058
*CONN
*I *1049:B I *D sky130_fd_sc_hd__and2_1
*I *1258:A I *D sky130_fd_sc_hd__buf_2
*I *1159:A I *D sky130_fd_sc_hd__clkbuf_1
*I *1005:X O *D sky130_fd_sc_hd__and4bb_1
*CAP
1 *1049:B 0
2 *1258:A 0.000200184
3 *1159:A 0.000140226
4 *1005:X 0.000250629
5 *312:10 0.000340411
6 *312:8 0.000250629
7 *1159:A *330:64 0
8 *1258:A *330:75 0
9 *312:8 *1001:A 9.84794e-05
10 *312:8 *1001:B 5.50106e-05
11 *169:8 *1159:A 7.03869e-05
12 *242:6 *312:8 5.50106e-05
13 *285:18 *1159:A 0.00025214
14 *285:18 *1258:A 0.00019747
*RES
1 *1005:X *312:8 27.93 
2 *312:8 *312:10 15 
3 *312:10 *1159:A 41.3143 
4 *312:10 *1258:A 42.1843 
5 *312:8 *1049:B 23 
*END

*D_NET *313 0.000147136
*CONN
*I *1259:A I *D sky130_fd_sc_hd__buf_2
*I *1159:X O *D sky130_fd_sc_hd__clkbuf_1
*CAP
1 *1259:A 7.35678e-05
2 *1159:X 7.35678e-05
*RES
1 *1159:X *1259:A 47.4707 
*END

*D_NET *314 0.000245322
*CONN
*I *1260:A I *D sky130_fd_sc_hd__buf_2
*I *1009:X O *D sky130_fd_sc_hd__and2_1
*CAP
1 *1260:A 0
2 *1009:X 0.000122661
3 *314:8 0.000122661
4 *314:8 *316:10 0
5 *70:9 *314:8 0
6 *298:10 *314:8 0
*RES
1 *1009:X *314:8 40.2579 
2 *314:8 *1260:A 38 
*END

*D_NET *315 0.0058213
*CONN
*I *1160:A I *D sky130_fd_sc_hd__clkbuf_1
*I *1206:A I *D sky130_fd_sc_hd__buf_2
*I *1000:X O *D sky130_fd_sc_hd__and4bb_1
*CAP
1 *1160:A 0
2 *1206:A 3.81754e-05
3 *1000:X 0.000475397
4 *315:27 0.00154881
5 *315:10 0.00206239
6 *315:10 *1000:D 2.02872e-05
7 *315:10 *1055:C 0
8 *315:10 *327:19 0.000111852
9 *315:10 *327:84 5.50106e-05
10 *315:27 *1055:C 0
11 *315:27 *1157:RESET_B 9.95713e-05
12 *315:27 *316:10 1.73399e-05
13 *315:27 *325:14 3.31683e-05
14 *315:27 *325:132 5.50049e-05
15 *315:27 *336:56 3.14274e-05
16 *1055:A *1206:A 9.67842e-05
17 *1107:A1 *1206:A 2.02872e-05
18 *1107:C1 *315:27 0
19 *136:10 *315:27 0
20 *170:23 *315:10 0.000190838
21 *170:23 *315:27 0.000183169
22 *231:8 *315:27 0.000166522
23 *241:34 *315:10 0.00012304
24 *241:53 *1206:A 5.3304e-05
25 *241:53 *315:10 0.000160191
26 *298:10 *315:27 0.000278731
*RES
1 *1000:X *315:10 47.5907 
2 *315:10 *1206:A 39.0979 
3 *315:10 *315:27 47.5007 
4 *315:27 *1160:A 23 
*END

*D_NET *316 0.000358191
*CONN
*I *1262:A I *D sky130_fd_sc_hd__buf_2
*I *1160:X O *D sky130_fd_sc_hd__clkbuf_1
*CAP
1 *1262:A 0
2 *1160:X 0.000170425
3 *316:10 0.000170425
4 *314:8 *316:10 0
5 *315:27 *316:10 1.73399e-05
*RES
1 *1160:X *316:10 40.8793 
2 *316:10 *1262:A 38 
*END

*D_NET *317 0.00713205
*CONN
*I *1055:C I *D sky130_fd_sc_hd__nor4_1
*I *1106:B I *D sky130_fd_sc_hd__and3b_1
*I *1058:A2 I *D sky130_fd_sc_hd__o21ba_1
*I *1266:A I *D sky130_fd_sc_hd__clkbuf_2
*I *1118:A1 I *D sky130_fd_sc_hd__a211o_1
*I *1002:Y O *D sky130_fd_sc_hd__nor4b_2
*CAP
1 *1055:C 0.000126555
2 *1106:B 0
3 *1058:A2 0
4 *1266:A 0.000155426
5 *1118:A1 0.000254512
6 *1002:Y 0.000150541
7 *317:47 0.000574251
8 *317:39 0.00125071
9 *317:14 0.00120249
10 *317:10 0.00039319
11 *1118:A1 *320:18 0.000722609
12 *317:10 *327:6 3.22879e-05
13 *317:10 *327:19 7.4416e-05
14 *317:39 *325:14 9.84794e-05
15 *317:47 *1054:A 1.14452e-05
16 *317:47 *325:37 0.000151907
17 *1105:B *1266:A 7.82647e-05
18 *1106:A_N *317:47 3.34247e-05
19 *1106:C *317:39 4.04598e-06
20 *1106:C *317:47 5.31757e-05
21 *1107:B1 *1055:C 5.50106e-05
22 *1107:C1 *1055:C 2.08324e-05
23 *1107:C1 *317:39 8.16149e-05
24 *1115:A *317:39 3.53051e-05
25 *1249:A *1266:A 9.67842e-05
26 *173:6 *1266:A 7.44161e-06
27 *174:14 *1266:A 5.67058e-05
28 *174:14 *317:47 0
29 *176:10 *1266:A 9.67842e-05
30 *216:12 *317:39 4.7967e-05
31 *225:16 *1118:A1 0.000376789
32 *241:34 *317:10 3.71198e-05
33 *264:24 *317:39 5.56203e-05
34 *264:35 *1055:C 6.16439e-05
35 *264:35 *317:14 4.6318e-06
36 *264:35 *317:39 2.03327e-05
37 *271:73 *317:14 0
38 *271:73 *317:39 6.69592e-05
39 *275:17 *317:10 0.000182832
40 *302:28 *317:47 4.57742e-05
41 *310:110 *317:10 0.000138718
42 *310:118 *1055:C 0.000227695
43 *310:118 *317:10 4.77554e-05
44 *315:10 *1055:C 0
45 *315:27 *1055:C 0
*RES
1 *1002:Y *317:10 42.4846 
2 *317:10 *317:14 2.2475 
3 *317:14 *1118:A1 47.3836 
4 *317:14 *317:39 28.2571 
5 *317:39 *317:47 36.6907 
6 *317:47 *1266:A 26.9771 
7 *317:47 *1058:A2 23 
8 *317:39 *1106:B 23 
9 *317:10 *1055:C 42.1118 
*END

*D_NET *318 0.000207335
*CONN
*I *1139:D I *D sky130_fd_sc_hd__dfrtp_1
*I *1243:X O *D sky130_fd_sc_hd__clkbuf_1
*CAP
1 *1139:D 0
2 *1243:X 0.000103667
3 *318:8 0.000103667
4 *304:10 *318:8 0
*RES
1 *1243:X *318:8 39.9057 
2 *318:8 *1139:D 38 
*END

*D_NET *319 0.00355679
*CONN
*I *1068:A2 I *D sky130_fd_sc_hd__a211o_1
*I *1076:A2 I *D sky130_fd_sc_hd__a211o_1
*I *1060:B1 I *D sky130_fd_sc_hd__a221o_1
*I *1249:X O *D sky130_fd_sc_hd__buf_1
*CAP
1 *1068:A2 1.70779e-05
2 *1076:A2 0.000210717
3 *1060:B1 0
4 *1249:X 0.000905326
5 *319:21 0.000445536
6 *319:12 8.8737e-05
7 *319:6 0.0012118
8 *319:6 *1057:A1 0.000102093
9 *319:6 *324:8 0.000104651
10 *319:6 *324:67 3.22879e-05
11 *1076:A1 *1076:A2 2.08774e-05
12 *1076:C1 *1068:A2 4.00259e-06
13 *1076:C1 *1076:A2 8.46751e-05
14 *1076:C1 *319:21 0.000164364
15 *175:8 *319:12 3.5664e-05
16 *178:14 *319:12 0
17 *192:10 *1076:A2 3.57247e-05
18 *233:10 *1076:A2 6.17437e-06
19 *277:47 *319:6 3.03718e-05
20 *277:47 *319:21 5.67058e-05
*RES
1 *1249:X *319:6 35.5321 
2 *319:6 *319:12 31.5536 
3 *319:12 *1060:B1 23 
4 *319:6 *319:21 4.45357 
5 *319:21 *1076:A2 27.1221 
6 *319:21 *1068:A2 23.4971 
*END

*D_NET *320 0.01596
*CONN
*I *1013:B1 I *D sky130_fd_sc_hd__a2bb2o_4
*I *1060:A2 I *D sky130_fd_sc_hd__a221o_1
*I *1064:A I *D sky130_fd_sc_hd__and3_1
*I *1072:A I *D sky130_fd_sc_hd__and3_1
*I *1031:B I *D sky130_fd_sc_hd__and2_1
*I *1027:B1 I *D sky130_fd_sc_hd__a2bb2o_1
*I *1045:A2 I *D sky130_fd_sc_hd__a221o_1
*I *1040:A2 I *D sky130_fd_sc_hd__a221o_1
*I *1081:A1 I *D sky130_fd_sc_hd__a311o_1
*I *1054:C I *D sky130_fd_sc_hd__nor3_1
*I *1205:X O *D sky130_fd_sc_hd__buf_6
*CAP
1 *1013:B1 0
2 *1060:A2 0
3 *1064:A 3.57483e-05
4 *1072:A 1.9139e-05
5 *1031:B 9.76007e-05
6 *1027:B1 0
7 *1045:A2 9.28416e-06
8 *1040:A2 0.000218486
9 *1081:A1 0.000391709
10 *1054:C 0
11 *1205:X 0.000127018
12 *320:95 0.000856555
13 *320:72 0.00117837
14 *320:70 0.000236565
15 *320:68 0.0004366
16 *320:64 0.000574983
17 *320:43 0.000786302
18 *320:41 0.00043464
19 *320:31 0.00113136
20 *320:18 0.00137301
21 *320:6 0.000713758
22 *1045:A2 *326:28 7.27694e-06
23 *320:18 *1054:A 0.000130968
24 *320:31 *324:16 0.000156669
25 *320:95 *326:28 0.000114366
26 *1013:A2_N *320:18 5.12254e-05
27 *1013:B2 *320:6 5.50049e-05
28 *1013:B2 *320:18 2.18506e-05
29 *1019:A *320:95 2.64616e-05
30 *1027:A2_N *320:72 5.94125e-05
31 *1027:B2 *320:68 0.000149341
32 *1027:B2 *320:70 8.30744e-05
33 *1031:A *1031:B 2.93845e-05
34 *1039:B1 *1040:A2 5.3304e-05
35 *1045:A1 *320:95 2.03764e-06
36 *1045:B1 *320:95 8.70838e-05
37 *1059:C *320:31 5.3304e-05
38 *1060:B2 *320:41 0
39 *1063:A *1072:A 5.50049e-05
40 *1063:B *1072:A 5.3304e-05
41 *1079:B *1081:A1 1.22822e-05
42 *1118:A1 *320:18 0.000722609
43 *1130:CLK *1064:A 2.93845e-05
44 *1130:CLK *320:64 0.000347205
45 *139:16 *320:18 0.00131617
46 *139:16 *320:31 6.76661e-05
47 *139:38 *320:18 9.84794e-05
48 *143:10 *320:95 5.50106e-05
49 *149:32 *320:95 1.13579e-05
50 *155:28 *320:64 0.000216721
51 *155:28 *320:68 0.000196822
52 *155:28 *320:70 8.29059e-05
53 *159:22 *320:70 0
54 *161:10 *1040:A2 0.00011631
55 *163:14 *320:95 8.72235e-06
56 *166:8 *320:95 4.6318e-06
57 *172:8 *320:18 2.18409e-05
58 *172:8 *320:31 1.32314e-05
59 *173:14 *320:31 1.46594e-05
60 *178:8 *320:31 8.1796e-05
61 *179:10 *1081:A1 3.70094e-05
62 *179:10 *320:41 0.000101708
63 *179:10 *320:43 7.70737e-05
64 *180:10 *1081:A1 0
65 *181:10 *320:41 0
66 *186:12 *1081:A1 0.000143655
67 *193:8 *1081:A1 0.000484512
68 *195:14 *1081:A1 2.02517e-05
69 *196:10 *1081:A1 0.000184527
70 *225:16 *320:6 5.91638e-05
71 *225:16 *320:18 6.8276e-05
72 *230:8 *320:41 0
73 *234:10 *320:41 0.000139647
74 *239:46 *1040:A2 0.000215228
75 *239:46 *320:72 0.000101991
76 *239:54 *1040:A2 3.47781e-05
77 *241:53 *320:18 6.82611e-05
78 *250:21 *320:68 3.3746e-05
79 *250:58 *320:64 0.000103019
80 *250:58 *320:68 3.47781e-05
81 *264:16 *320:6 1.76557e-05
82 *267:40 *1040:A2 0
83 *267:40 *1081:A1 0
84 *267:40 *320:70 0
85 *267:40 *320:72 0
86 *281:16 *320:95 6.17437e-06
87 *281:36 *320:95 0.000220047
88 *282:44 *320:95 8.10902e-05
89 *310:110 *320:18 9.41704e-05
90 *310:133 *320:6 9.71387e-05
91 *310:133 *320:18 0.00030805
*RES
1 *1205:X *320:6 26.0036 
2 *320:6 *320:18 22.4129 
3 *320:18 *1054:C 23 
4 *320:18 *320:31 15.5513 
5 *320:31 *320:41 21.8409 
6 *320:41 *320:43 1.20143 
7 *320:43 *1081:A1 48.0464 
8 *320:43 *320:64 36.9186 
9 *320:64 *320:68 6.04857 
10 *320:68 *320:70 2.96214 
11 *320:70 *320:72 2.25786 
12 *320:72 *1040:A2 42.6504 
13 *320:72 *320:95 43.8993 
14 *320:95 *1045:A2 38.1709 
15 *320:70 *1027:B1 38 
16 *320:68 *1031:B 39.5743 
17 *320:64 *1072:A 38.6214 
18 *320:41 *1064:A 38.6214 
19 *320:31 *1060:A2 23 
20 *320:6 *1013:B1 23 
*END

*D_NET *321 0.0019211
*CONN
*I *1015:S I *D sky130_fd_sc_hd__mux2_1
*I *1017:S I *D sky130_fd_sc_hd__mux2_1
*I *1264:X O *D sky130_fd_sc_hd__dlygate4sd1_1
*CAP
1 *1015:S 0
2 *1017:S 0
3 *1264:X 0
4 *321:25 0.000324039
5 *321:12 0.00035918
6 *321:4 0.00068322
7 *321:12 *1133:RESET_B 0
8 *1004:A *321:12 5.41288e-05
9 *1004:A *321:25 4.5051e-05
10 *1264:A *321:25 7.59794e-05
11 *141:10 *321:25 0
12 *243:16 *321:25 1.97329e-05
13 *248:10 *321:25 1.37349e-05
14 *258:10 *321:25 1.14452e-05
15 *310:8 *321:12 0.000139352
16 *310:20 *321:12 0.000195236
*RES
1 *1264:X *321:4 23 
2 *321:4 *321:12 37.6229 
3 *321:12 *1017:S 23 
4 *321:4 *321:25 36.1936 
5 *321:25 *1015:S 23 
*END

*D_NET *322 0.00178339
*CONN
*I *1099:A2 I *D sky130_fd_sc_hd__a21o_1
*I *1250:X O *D sky130_fd_sc_hd__clkbuf_1
*CAP
1 *1099:A2 0
2 *1250:X 0.000735906
3 *322:14 0.000735906
4 *322:14 *1155:RESET_B 0.000169665
5 *322:14 *323:23 9.91798e-05
6 *138:12 *322:14 0
7 *210:8 *322:14 0
8 *226:40 *322:14 4.27353e-05
*RES
1 *1250:X *322:14 49.6207 
2 *322:14 *1099:A2 38 
*END

*D_NET *323 0.00302425
*CONN
*I *1023:A2 I *D sky130_fd_sc_hd__o211a_4
*I *1250:A I *D sky130_fd_sc_hd__clkbuf_1
*I *1265:X O *D sky130_fd_sc_hd__clkbuf_1
*CAP
1 *1023:A2 0
2 *1250:A 0
3 *1265:X 0.000641753
4 *323:23 0.000181317
5 *323:10 0.00082307
6 *146:10 *323:10 0.000312342
7 *146:46 *323:10 0.000213069
8 *226:40 *323:10 0.000267369
9 *226:40 *323:23 0.000148688
10 *243:10 *323:23 7.30978e-05
11 *243:12 *323:23 1.44546e-05
12 *254:10 *323:23 0.000249909
13 *322:14 *323:23 9.91798e-05
*RES
1 *1265:X *323:10 36.5264 
2 *323:10 *1250:A 23 
3 *323:10 *323:23 36.3179 
4 *323:23 *1023:A2 23 
*END

*D_NET *324 0.00945665
*CONN
*I *1080:A2 I *D sky130_fd_sc_hd__o211a_1
*I *1075:A2_N I *D sky130_fd_sc_hd__a2bb2oi_1
*I *1057:A2 I *D sky130_fd_sc_hd__o21ba_1
*I *1263:A I *D sky130_fd_sc_hd__buf_2
*I *1067:A2 I *D sky130_fd_sc_hd__o22a_1
*I *1054:B I *D sky130_fd_sc_hd__nor3_1
*I *1266:X O *D sky130_fd_sc_hd__clkbuf_2
*CAP
1 *1080:A2 6.28525e-05
2 *1075:A2_N 1.37321e-05
3 *1057:A2 0
4 *1263:A 0.000320213
5 *1067:A2 0
6 *1054:B 0
7 *1266:X 0.000315238
8 *324:67 0.000136323
9 *324:48 0.00128715
10 *324:37 0.00121884
11 *324:33 0.000359351
12 *324:23 0.00036992
13 *324:16 0.000785526
14 *324:8 0.00117779
15 *1080:A2 *1057:A1 0
16 *1080:A2 *1080:A1 1.14452e-05
17 *324:16 *1057:A1 0
18 *324:23 *1057:A1 0
19 *324:37 *1067:A1 0.000140259
20 *324:37 *325:94 4.08664e-05
21 *324:48 *1147:RESET_B 1.67826e-05
22 *324:48 *335:50 9.74235e-05
23 *1067:B1 *324:37 2.32004e-05
24 *1067:B1 *324:48 5.10686e-05
25 *1249:A *324:8 3.22879e-05
26 *139:16 *324:16 7.67536e-05
27 *155:18 *324:48 0.000662496
28 *173:6 *324:8 9.84851e-05
29 *173:14 *324:16 0.000136738
30 *178:14 *324:16 0
31 *178:14 *324:67 0
32 *184:10 *324:48 9.84851e-05
33 *189:8 *1080:A2 4.6318e-06
34 *191:10 *324:33 5.67058e-05
35 *191:10 *324:37 0.000126056
36 *191:10 *324:48 0.000140259
37 *191:10 *324:67 3.56433e-05
38 *260:10 *324:48 5.3304e-05
39 *277:47 *324:67 0.000166307
40 *280:19 *1080:A2 3.83059e-05
41 *280:19 *324:16 0.0001642
42 *280:19 *324:23 5.31444e-05
43 *302:18 *1075:A2_N 1.56273e-05
44 *302:18 *324:33 6.3494e-05
45 *302:18 *324:37 1.5769e-05
46 *302:18 *324:48 0.000487395
47 *302:28 *324:33 0.00020897
48 *319:6 *324:8 0.000104651
49 *319:6 *324:67 3.22879e-05
50 *320:31 *324:16 0.000156669
*RES
1 *1266:X *324:8 43.8621 
2 *324:8 *324:16 27.6357 
3 *324:16 *1054:B 23 
4 *324:8 *324:23 1.55357 
5 *324:23 *324:33 20.0957 
6 *324:33 *324:37 3.50071 
7 *324:37 *1067:A2 23 
8 *324:37 *324:48 39.1943 
9 *324:48 *1263:A 43.8621 
10 *324:37 *324:67 33.3764 
11 *324:67 *1057:A2 23 
12 *324:33 *1075:A2_N 23.4971 
13 *324:23 *1080:A2 39.2014 
*END

*D_NET *325 0.0152917
*CONN
*I *1055:B I *D sky130_fd_sc_hd__nor4_1
*I *1009:B I *D sky130_fd_sc_hd__and2_1
*I *1080:A1 I *D sky130_fd_sc_hd__o211a_1
*I *1261:A I *D sky130_fd_sc_hd__buf_2
*I *1075:A1_N I *D sky130_fd_sc_hd__a2bb2oi_1
*I *1067:A1 I *D sky130_fd_sc_hd__o22a_1
*I *1057:A1 I *D sky130_fd_sc_hd__o21ba_1
*I *1058:A1 I *D sky130_fd_sc_hd__o21ba_1
*I *1054:A I *D sky130_fd_sc_hd__nor3_1
*I *1052:C1 I *D sky130_fd_sc_hd__o211a_1
*I *1206:X O *D sky130_fd_sc_hd__buf_2
*CAP
1 *1055:B 0
2 *1009:B 0
3 *1080:A1 2.91298e-05
4 *1261:A 0
5 *1075:A1_N 0
6 *1067:A1 3.62475e-05
7 *1057:A1 0.000239402
8 *1058:A1 2.95011e-05
9 *1054:A 0.000245579
10 *1052:C1 6.67411e-05
11 *1206:X 9.9598e-05
12 *325:132 0.000662302
13 *325:112 0.00114876
14 *325:94 6.12544e-05
15 *325:79 0.000632876
16 *325:67 0.00161792
17 *325:63 0.000787499
18 *325:37 0.00045624
19 *325:35 0.00109528
20 *325:22 0.000930122
21 *325:18 0.00153034
22 *325:14 0.000554738
23 *325:6 0.000393233
24 *325:35 *336:34 0
25 PWDATA[10] *325:112 4.6318e-06
26 *1052:A2 *1052:C1 4.00259e-06
27 *1052:A2 *325:22 0.000177899
28 *1061:S *325:112 0
29 *1067:B1 *1067:A1 9.84851e-05
30 *1080:A2 *1057:A1 0
31 *1080:A2 *1080:A1 1.14452e-05
32 *1080:C1 *325:63 5.3304e-05
33 *1082:A2 *1054:A 0
34 *1105:B *1058:A1 5.50106e-05
35 *1106:C *325:63 0.000227208
36 *1107:B1 *325:6 0.000141954
37 *1107:C1 *325:14 0
38 *1107:C1 *325:18 0
39 *1140:CLK *325:22 2.64616e-05
40 *127:10 *325:112 6.93449e-05
41 *136:10 *325:18 5.21127e-05
42 *167:25 *1054:A 0
43 *170:12 *325:35 0.000308661
44 *174:8 *325:35 0
45 *174:14 *325:37 0
46 *177:19 *325:67 0
47 *177:19 *325:112 0
48 *178:14 *1057:A1 0.000244517
49 *178:14 *325:67 0
50 *178:14 *325:79 0.000128583
51 *178:14 *325:112 0
52 *189:8 *1080:A1 1.06693e-05
53 *189:8 *325:79 0
54 *190:8 *325:67 8.62876e-05
55 *215:10 *1054:A 0
56 *216:12 *325:14 6.88885e-05
57 *271:73 *325:18 0.000273604
58 *271:82 *325:18 0.00019747
59 *271:97 *325:18 6.25829e-05
60 *271:97 *325:132 0.000181943
61 *276:12 *325:132 0.000393021
62 *277:16 *325:35 0
63 *277:20 *325:79 0.000159174
64 *277:26 *325:79 0.000240324
65 *277:47 *1057:A1 5.37348e-06
66 *277:89 *325:35 7.75329e-06
67 *280:19 *1080:A1 3.70094e-05
68 *280:38 *1080:A1 2.46345e-05
69 *280:38 *325:67 3.72639e-05
70 *298:10 *325:132 0
71 *302:18 *1067:A1 2.18409e-05
72 *302:18 *325:94 2.64616e-05
73 *302:28 *325:63 0.000351765
74 *302:34 *1054:A 4.6318e-06
75 *302:34 *325:37 0.000116413
76 *315:27 *325:14 3.31683e-05
77 *315:27 *325:132 5.50049e-05
78 *317:39 *325:14 9.84794e-05
79 *317:47 *1054:A 1.14452e-05
80 *317:47 *325:37 0.000151907
81 *319:6 *1057:A1 0.000102093
82 *320:18 *1054:A 0.000130968
83 *324:16 *1057:A1 0
84 *324:23 *1057:A1 0
85 *324:37 *1067:A1 0.000140259
86 *324:37 *325:94 4.08664e-05
*RES
1 *1206:X *325:6 24.5743 
2 *325:6 *325:14 35.51 
3 *325:14 *325:18 21.8357 
4 *325:18 *325:22 25.6264 
5 *325:22 *1052:C1 24.1186 
6 *325:22 *325:35 20.4271 
7 *325:35 *325:37 4.01857 
8 *325:37 *1054:A 42.3086 
9 *325:37 *1058:A1 38.6214 
10 *325:35 *325:63 40.15 
11 *325:63 *325:67 2.175 
12 *325:67 *325:79 36.9807 
13 *325:79 *1057:A1 43.365 
14 *325:79 *325:94 15.6214 
15 *325:94 *1067:A1 24.5743 
16 *325:94 *1075:A1_N 23 
17 *325:67 *325:112 36.1907 
18 *325:112 *1261:A 23 
19 *325:63 *1080:A1 38.8493 
20 *325:18 *325:132 29.1479 
21 *325:132 *1009:B 23 
22 *325:6 *1055:B 23 
*END

*D_NET *326 0.0152363
*CONN
*I *1111:A2 I *D sky130_fd_sc_hd__a31o_1
*I *1024:B I *D sky130_fd_sc_hd__and3b_1
*I *1110:C I *D sky130_fd_sc_hd__and4_1
*I *1030:A2 I *D sky130_fd_sc_hd__a2111o_1
*I *1084:B1 I *D sky130_fd_sc_hd__o2111a_1
*I *1044:B1 I *D sky130_fd_sc_hd__o21a_1
*I *1033:A1 I *D sky130_fd_sc_hd__a221o_1
*I *1026:A I *D sky130_fd_sc_hd__nor2_2
*I *1096:A I *D sky130_fd_sc_hd__and3_1
*I *1091:A I *D sky130_fd_sc_hd__and3_1
*I *1207:X O *D sky130_fd_sc_hd__buf_2
*CAP
1 *1111:A2 4.47304e-05
2 *1024:B 2.00578e-05
3 *1110:C 0
4 *1030:A2 0.000142103
5 *1084:B1 0.000447917
6 *1044:B1 0
7 *1033:A1 0
8 *1026:A 3.08662e-05
9 *1096:A 0
10 *1091:A 0.000103579
11 *1207:X 0.000208454
12 *326:95 0.000904474
13 *326:91 0.000660284
14 *326:77 0.000641893
15 *326:38 0.00043985
16 *326:34 0.00118789
17 *326:30 0.0015997
18 *326:28 0.00103494
19 *326:18 0.00128102
20 *326:16 0.000319148
21 *326:10 0.00051496
22 *326:10 *327:37 0.000161121
23 *326:16 *1024:C 0.000216471
24 *326:16 *327:37 0.000161121
25 *326:16 *327:52 0.000228001
26 *326:18 *1024:C 1.24376e-05
27 *326:34 *1122:RESET_B 0
28 *326:38 *1122:RESET_B 0
29 *326:91 *1024:C 0.000133937
30 *1024:A_N *326:91 7.42621e-05
31 *1025:A *1030:A2 5.50106e-05
32 *1025:A *1084:B1 3.0647e-05
33 *1025:A *326:95 1.12487e-05
34 *1030:B1 *1030:A2 2.02872e-05
35 *1030:C1 *1030:A2 7.06812e-05
36 *1039:A1 *326:77 5.50049e-05
37 *1039:A2 *326:77 0.000110389
38 *1045:A1 *326:28 2.45549e-06
39 *1045:A2 *326:28 7.27694e-06
40 *1085:D *1084:B1 0.000143655
41 *1089:A *1091:A 5.67058e-05
42 *1091:B *1091:A 1.32939e-05
43 *1111:A3 *1111:A2 5.3304e-05
44 *1111:B1 *1111:A2 1.24376e-05
45 *1200:A *1030:A2 0.000244924
46 *115:10 *326:34 0
47 *115:10 *326:38 0
48 *115:31 *1091:A 0.00031495
49 *116:21 *326:38 0
50 *122:8 *326:34 0.000105975
51 *125:12 *1084:B1 0
52 *125:12 *326:95 0
53 *139:44 *1084:B1 9.15544e-05
54 *139:48 *1084:B1 6.08751e-05
55 *143:10 *326:77 0.00016775
56 *147:10 *326:95 4.84045e-05
57 *148:10 *326:28 1.14876e-05
58 *148:16 *1030:A2 0.000141954
59 *149:32 *326:28 0.000243015
60 *149:32 *326:34 0
61 *150:12 *1026:A 7.88926e-05
62 *150:65 *326:77 0.000138807
63 *156:8 *326:77 8.86335e-05
64 *160:8 *326:34 0.000292846
65 *165:10 *326:30 3.22879e-05
66 *220:10 *326:16 9.58714e-05
67 *226:16 *1111:A2 9.41704e-05
68 *226:31 *1084:B1 3.22879e-05
69 *239:44 *1111:A2 8.48502e-06
70 *268:8 *326:34 0
71 *271:14 *326:10 0.000153218
72 *271:14 *326:16 0.000161121
73 *271:18 *1084:B1 0.000272321
74 *271:18 *326:95 0.000583768
75 *281:44 *326:77 2.67602e-05
76 *282:76 *326:28 0
77 *283:25 *326:34 3.47879e-05
78 *284:28 *326:28 5.79715e-05
79 *285:28 *326:91 5.50049e-05
80 *300:33 *326:28 0.000130187
81 *310:79 *1026:A 0.00014196
82 *310:79 *326:34 0
83 *320:95 *326:28 0.000114366
*RES
1 *1207:X *326:10 41.8321 
2 *326:10 *326:16 22.1671 
3 *326:16 *326:18 0.621429 
4 *326:18 *326:28 45.515 
5 *326:28 *326:30 2.52714 
6 *326:30 *326:34 29.5829 
7 *326:34 *326:38 21.1314 
8 *326:38 *1091:A 26.48 
9 *326:38 *1096:A 23 
10 *326:34 *1026:A 39.5743 
11 *326:30 *326:77 41.2893 
12 *326:77 *1033:A1 23 
13 *326:28 *1044:B1 23 
14 *326:18 *326:91 5.98643 
15 *326:91 *326:95 22.8921 
16 *326:95 *1084:B1 46.5757 
17 *326:95 *1030:A2 42.5986 
18 *326:91 *1110:C 23 
19 *326:16 *1024:B 23.4971 
20 *326:10 *1111:A2 39.0979 
*END

*D_NET *327 0.012287
*CONN
*I *997:A_N I *D sky130_fd_sc_hd__and2b_1
*I *1005:C I *D sky130_fd_sc_hd__and4bb_1
*I *1007:A I *D sky130_fd_sc_hd__nor2_1
*I *1000:B_N I *D sky130_fd_sc_hd__and4bb_1
*I *1113:B1 I *D sky130_fd_sc_hd__a2111o_1
*I *1114:A1 I *D sky130_fd_sc_hd__o31ai_1
*I *1110:A I *D sky130_fd_sc_hd__and4_1
*I *1024:C I *D sky130_fd_sc_hd__and3b_1
*I *982:A I *D sky130_fd_sc_hd__inv_2
*I *1002:D_N I *D sky130_fd_sc_hd__nor4b_2
*I *1208:X O *D sky130_fd_sc_hd__clkbuf_2
*CAP
1 *997:A_N 0.000127704
2 *1005:C 2.99249e-05
3 *1007:A 0.000407629
4 *1000:B_N 0
5 *1113:B1 2.95366e-05
6 *1114:A1 0
7 *1110:A 0
8 *1024:C 7.17533e-05
9 *982:A 0.000178677
10 *1002:D_N 2.1727e-05
11 *1208:X 2.61564e-05
12 *327:101 0.000705697
13 *327:97 0.000900746
14 *327:84 0.00062849
15 *327:52 0.00013001
16 *327:37 0.000618199
17 *327:33 0.00111508
18 *327:23 0.000879345
19 *327:19 0.000387191
20 *327:6 0.000195486
21 *997:A_N *330:88 5.50106e-05
22 *1005:C *331:71 1.59094e-05
23 *1007:A *330:34 0.000163361
24 *1007:A *330:45 0.000129513
25 *1007:A *330:116 5.01986e-05
26 *1007:A *330:131 5.40866e-05
27 *327:84 *1000:D 0.000221992
28 *327:97 *1000:D 0.000506062
29 *327:97 *1100:B1 0.000311554
30 *327:97 *331:93 0.000193375
31 *327:101 *330:75 0
32 *1002:C *1002:D_N 0
33 *1024:A_N *1024:C 5.67058e-05
34 *1024:A_N *327:52 8.6949e-05
35 *1101:A2 *327:97 6.97953e-05
36 *1101:A3 *327:97 5.50106e-05
37 *1101:B2 *997:A_N 9.39262e-05
38 *1101:B2 *327:101 4.6318e-06
39 *1104:B1 *1007:A 0
40 *1113:D1 *1113:B1 5.3304e-05
41 *1113:D1 *327:33 5.3304e-05
42 *1116:B *997:A_N 8.16356e-05
43 *1156:CLK *327:52 9.67842e-05
44 *1208:A *1002:D_N 4.00259e-06
45 *146:10 *982:A 5.50049e-05
46 *146:16 *982:A 0.000216721
47 *146:16 *327:37 0.00021356
48 *146:33 *327:33 6.07611e-06
49 *146:33 *327:37 0
50 *146:46 *982:A 0.000140259
51 *170:23 *327:19 6.7177e-06
52 *170:23 *327:23 5.40762e-05
53 *210:8 *1007:A 4.6318e-06
54 *217:12 *327:33 3.81554e-05
55 *219:10 *982:A 8.4047e-05
56 *220:10 *327:52 2.18409e-05
57 *226:16 *982:A 3.22879e-05
58 *226:23 *982:A 2.18409e-05
59 *239:89 *327:37 9.67719e-05
60 *241:34 *327:19 0.000127272
61 *241:34 *327:23 0.000274553
62 *242:6 *1005:C 5.50106e-05
63 *242:23 *997:A_N 1.12487e-05
64 *242:23 *1005:C 1.38978e-05
65 *242:23 *1007:A 2.31209e-05
66 *242:23 *327:101 0.000209102
67 *244:23 *1007:A 4.32372e-05
68 *271:6 *327:33 1.32939e-05
69 *271:12 *327:33 8.32663e-05
70 *271:14 *982:A 1.58805e-05
71 *271:14 *327:33 0
72 *271:14 *327:37 0.000154926
73 *271:18 *982:A 5.09782e-05
74 *272:25 *1007:A 0
75 *272:25 *327:101 9.44487e-05
76 *273:21 *327:23 8.72173e-05
77 *285:28 *327:52 4.04206e-05
78 *315:10 *327:19 0.000111852
79 *315:10 *327:84 5.50106e-05
80 *317:10 *327:6 3.22879e-05
81 *317:10 *327:19 7.4416e-05
82 *326:10 *327:37 0.000161121
83 *326:16 *1024:C 0.000216471
84 *326:16 *327:37 0.000161121
85 *326:16 *327:52 0.000228001
86 *326:18 *1024:C 1.24376e-05
87 *326:91 *1024:C 0.000133937
*RES
1 *1208:X *327:6 23.6214 
2 *327:6 *1002:D_N 23.4971 
3 *327:6 *327:19 18.48 
4 *327:19 *327:23 18.6664 
5 *327:23 *327:33 26.6207 
6 *327:33 *327:37 9.69429 
7 *327:37 *982:A 43.0129 
8 *327:37 *327:52 18.0036 
9 *327:52 *1024:C 26.3764 
10 *327:52 *1110:A 23 
11 *327:33 *1114:A1 38 
12 *327:23 *1113:B1 23.6214 
13 *327:19 *327:84 17.5271 
14 *327:84 *1000:B_N 23 
15 *327:84 *327:97 27.0971 
16 *327:97 *327:101 6.57679 
17 *327:101 *1007:A 46.4204 
18 *327:101 *1005:C 38.9425 
19 *327:97 *997:A_N 41.2314 
*END

*D_NET *328 0.0108981
*CONN
*I *993:A_N I *D sky130_fd_sc_hd__and2b_1
*I *997:B I *D sky130_fd_sc_hd__and2b_1
*I *1000:C I *D sky130_fd_sc_hd__and4bb_1
*I *983:A I *D sky130_fd_sc_hd__inv_2
*I *1005:B_N I *D sky130_fd_sc_hd__and4bb_1
*I *995:A_N I *D sky130_fd_sc_hd__nand3b_4
*I *994:A_N I *D sky130_fd_sc_hd__and3b_1
*I *1006:B I *D sky130_fd_sc_hd__or3b_1
*I *1003:C I *D sky130_fd_sc_hd__or4b_4
*I *998:C_N I *D sky130_fd_sc_hd__or4bb_4
*I *1209:X O *D sky130_fd_sc_hd__clkbuf_2
*CAP
1 *993:A_N 0.000112793
2 *997:B 1.85078e-05
3 *1000:C 0.000199282
4 *983:A 0
5 *1005:B_N 0.00015707
6 *995:A_N 2.32701e-05
7 *994:A_N 0.000353104
8 *1006:B 0
9 *1003:C 0
10 *998:C_N 0.000113747
11 *1209:X 0
12 *328:102 0.000267079
13 *328:52 0.000203484
14 *328:44 0.000690456
15 *328:37 0.000109892
16 *328:31 0.000344691
17 *328:20 0.000291081
18 *328:16 0.000235897
19 *328:14 0.000396148
20 *328:12 0.000184098
21 *328:10 0.000403689
22 *328:4 0.000258942
23 *993:A_N *330:88 0.000387766
24 *994:A_N *994:B 0.000126046
25 *994:A_N *994:C 0.000187129
26 *994:A_N *1006:C_N 5.50106e-05
27 *994:A_N *331:40 0.000170394
28 *1000:C *1000:D 0.000518494
29 *1000:C *330:100 0.00030894
30 *1005:B_N *331:71 9.67842e-05
31 *328:16 *331:12 0
32 *328:16 *331:67 0
33 *328:37 *1003:D_N 2.54046e-05
34 *328:37 *331:14 7.75329e-06
35 *328:37 *331:16 2.61699e-05
36 *328:44 *331:40 9.67842e-05
37 *328:52 *1003:D_N 4.6318e-06
38 *328:52 *331:14 1.58805e-05
39 *328:52 *331:16 4.18957e-05
40 *328:102 *330:88 0.000313249
41 *328:102 *330:100 9.16557e-05
42 *993:B *993:A_N 0.000206378
43 *993:B *997:B 2.28308e-05
44 *993:B *328:10 5.3304e-05
45 *993:B *328:102 0.000552468
46 *998:A *998:C_N 0.000119467
47 *1047:C *1005:B_N 0.000269555
48 *1104:B1 *328:52 5.31444e-05
49 *1112:D_N *998:C_N 1.5769e-05
50 *1112:D_N *328:31 6.16164e-05
51 *1112:D_N *328:44 4.38084e-05
52 *1112:D_N *328:52 9.67842e-05
53 *167:69 *1005:B_N 0.000228909
54 *167:69 *328:14 0
55 *169:16 *995:A_N 5.3304e-05
56 *213:25 *328:10 0.000244517
57 *213:25 *328:12 0.000218952
58 *213:25 *328:14 1.14452e-05
59 *238:8 *994:A_N 5.50106e-05
60 *238:31 *995:A_N 5.3304e-05
61 *239:8 *328:16 6.16531e-05
62 *239:8 *328:20 0.000126343
63 *239:14 *328:20 3.47781e-05
64 *239:14 *328:37 5.93278e-05
65 *239:32 *998:C_N 0.000264559
66 *239:32 *328:31 5.3304e-05
67 *244:23 *328:52 8.60475e-05
68 *275:21 *328:10 0.000233453
69 *275:21 *328:12 0.000204346
70 *275:21 *328:14 0.000153218
71 *275:21 *328:16 0.000262178
72 *275:21 *328:20 0.000161121
*RES
1 *1209:X *328:4 23 
2 *328:4 *328:10 18.9357 
3 *328:10 *328:12 2.96214 
4 *328:12 *328:14 2.25786 
5 *328:14 *328:16 3.66643 
6 *328:16 *328:20 17.2579 
7 *328:20 *998:C_N 26.5007 
8 *328:20 *328:31 2.05071 
9 *328:31 *328:37 32.61 
10 *328:37 *1003:C 23 
11 *328:31 *328:44 2.52714 
12 *328:44 *328:52 33.6043 
13 *328:52 *1006:B 23 
14 *328:44 *994:A_N 30.7886 
15 *328:16 *995:A_N 38.6214 
16 *328:14 *1005:B_N 43.3857 
17 *328:12 *983:A 38 
18 *328:10 *1000:C 43.8621 
19 *328:4 *328:102 6.33857 
20 *328:102 *997:B 23.4971 
21 *328:102 *993:A_N 27.4329 
*END

*D_NET *329 0.000745046
*CONN
*I *1145:D I *D sky130_fd_sc_hd__dfrtp_1
*I *1244:X O *D sky130_fd_sc_hd__clkbuf_1
*CAP
1 *1145:D 0
2 *1244:X 0.00027841
3 *329:10 0.00027841
4 *1244:A *329:10 1.94812e-05
5 *270:73 *329:10 0.000168744
6 *291:10 *329:10 0
*RES
1 *1244:X *329:10 42.9921 
2 *329:10 *1145:D 38 
*END

*D_NET *330 0.0106277
*CONN
*I *1005:A_N I *D sky130_fd_sc_hd__and4bb_1
*I *995:C I *D sky130_fd_sc_hd__nand3b_4
*I *992:A I *D sky130_fd_sc_hd__and2_1
*I *1000:A_N I *D sky130_fd_sc_hd__and4bb_1
*I *1100:A1 I *D sky130_fd_sc_hd__o21ai_1
*I *1001:A I *D sky130_fd_sc_hd__nor2_1
*I *994:C I *D sky130_fd_sc_hd__and3b_1
*I *1006:C_N I *D sky130_fd_sc_hd__or3b_1
*I *1003:B I *D sky130_fd_sc_hd__or4b_4
*I *998:D_N I *D sky130_fd_sc_hd__or4bb_4
*I *1210:X O *D sky130_fd_sc_hd__buf_2
*CAP
1 *1005:A_N 0
2 *995:C 1.91252e-05
3 *992:A 0
4 *1000:A_N 0
5 *1100:A1 0
6 *1001:A 4.56652e-05
7 *994:C 0.000202657
8 *1006:C_N 1.49804e-05
9 *1003:B 0
10 *998:D_N 0
11 *1210:X 0
12 *330:131 0.000140137
13 *330:116 0.000237055
14 *330:100 0.000505351
15 *330:88 0.000978617
16 *330:75 0.000788825
17 *330:64 0.000582566
18 *330:51 0.000701252
19 *330:45 0.000411469
20 *330:34 0.000567471
21 *330:19 0.000707961
22 *330:12 0.000202302
23 *330:4 0.000414195
24 *1006:C_N *994:B 5.50106e-05
25 *330:34 *1003:D_N 5.50106e-05
26 *330:100 *1000:D 6.53382e-05
27 *330:100 *331:106 7.91596e-05
28 *993:A_N *330:88 0.000387766
29 *994:A_N *994:C 0.000187129
30 *994:A_N *1006:C_N 5.50106e-05
31 *997:A_N *330:88 5.50106e-05
32 *1000:C *330:100 0.00030894
33 *1003:A *330:19 0.000139357
34 *1007:A *330:34 0.000163361
35 *1007:A *330:45 0.000129513
36 *1007:A *330:116 5.01986e-05
37 *1007:A *330:131 5.40866e-05
38 *1008:A *330:34 2.24973e-05
39 *1008:A *330:45 5.49603e-05
40 *1047:C *330:131 5.3304e-05
41 *1101:B2 *330:75 0
42 *1101:B2 *330:88 0
43 *1104:A2 *330:34 1.94812e-05
44 *1104:B1 *330:131 0.000188926
45 *1159:A *330:64 0
46 *1210:A *330:12 7.53384e-06
47 *1211:A *330:51 5.50049e-05
48 *1258:A *330:75 0
49 *169:8 *330:64 7.03869e-05
50 *169:16 *995:C 5.3304e-05
51 *169:16 *330:51 9.32275e-05
52 *169:16 *330:116 0.000181125
53 *212:10 *330:100 5.50106e-05
54 *213:25 *330:100 0.000107651
55 *238:31 *995:C 5.50106e-05
56 *238:31 *330:45 7.48331e-05
57 *238:31 *330:51 5.3304e-05
58 *238:31 *330:116 0.000204367
59 *242:23 *330:131 4.6318e-06
60 *243:10 *330:12 3.17516e-05
61 *243:10 *330:19 4.75206e-05
62 *244:23 *330:34 0.000111852
63 *254:10 *330:12 8.93766e-05
64 *272:10 *994:C 0
65 *272:25 *330:64 0
66 *272:25 *330:75 0
67 *272:25 *330:116 6.7177e-06
68 *273:21 *330:12 0
69 *285:18 *330:34 3.00757e-05
70 *285:18 *330:64 0
71 *285:18 *330:75 0
72 *285:18 *330:88 0
73 *285:28 *330:19 2.50973e-05
74 *285:28 *330:34 0.000122821
75 *312:8 *1001:A 9.84794e-05
76 *327:101 *330:75 0
77 *328:102 *330:88 0.000313249
78 *328:102 *330:100 9.16557e-05
*RES
1 *1210:X *330:4 23 
2 *330:4 *330:12 33.7079 
3 *330:12 *998:D_N 23 
4 *330:4 *330:19 3.95643 
5 *330:19 *1003:B 23 
6 *330:19 *330:34 24.2386 
7 *330:34 *1006:C_N 38.6214 
8 *330:34 *330:45 1.90571 
9 *330:45 *330:51 33.9564 
10 *330:51 *994:C 41.2521 
11 *330:51 *330:64 4.01857 
12 *330:64 *1001:A 39.0979 
13 *330:64 *330:75 5.77929 
14 *330:75 *1100:A1 38 
15 *330:75 *330:88 25.8543 
16 *330:88 *330:100 40.4193 
17 *330:100 *1000:A_N 23 
18 *330:88 *992:A 23 
19 *330:45 *330:116 17.9 
20 *330:116 *995:C 23.6214 
21 *330:116 *330:131 33.2314 
22 *330:131 *1005:A_N 23 
*END

*D_NET *331 0.0112297
*CONN
*I *1100:B1 I *D sky130_fd_sc_hd__o21ai_1
*I *992:B I *D sky130_fd_sc_hd__and2_1
*I *1000:D I *D sky130_fd_sc_hd__and4bb_1
*I *1005:D I *D sky130_fd_sc_hd__and4bb_1
*I *1001:B I *D sky130_fd_sc_hd__nor2_1
*I *995:B I *D sky130_fd_sc_hd__nand3b_4
*I *1006:A I *D sky130_fd_sc_hd__or3b_1
*I *994:B I *D sky130_fd_sc_hd__and3b_1
*I *998:B I *D sky130_fd_sc_hd__or4bb_4
*I *1003:D_N I *D sky130_fd_sc_hd__or4b_4
*I *1211:X O *D sky130_fd_sc_hd__clkbuf_4
*CAP
1 *1100:B1 0.000238353
2 *992:B 0
3 *1000:D 0.000243401
4 *1005:D 0
5 *1001:B 0.000106713
6 *995:B 0
7 *1006:A 0
8 *994:B 0.000202964
9 *998:B 0.000575414
10 *1003:D_N 0.000126362
11 *1211:X 0.000341623
12 *331:106 0.000156857
13 *331:93 0.000464237
14 *331:89 0.000548197
15 *331:71 0.000403132
16 *331:67 0.000690159
17 *331:40 0.000285282
18 *331:16 0.00074379
19 *331:14 0.000280642
20 *331:12 0.000292918
21 *331:6 0.000626104
22 *994:A_N *994:B 0.000126046
23 *994:A_N *331:40 0.000170394
24 *1000:C *1000:D 0.000518494
25 *1005:B_N *331:71 9.67842e-05
26 *1005:C *331:71 1.59094e-05
27 *1006:C_N *994:B 5.50106e-05
28 *1047:C *331:71 4.33105e-05
29 *1101:A2 *331:106 0
30 *1101:B1 *1100:B1 1.76557e-05
31 *1101:B2 *1100:B1 0.00010018
32 *1104:B1 *331:12 0
33 *1104:B1 *331:14 0
34 *1104:B1 *331:67 0.000105165
35 *1104:B1 *331:89 5.31444e-05
36 *1112:D_N *998:B 0.000776756
37 *1112:D_N *331:40 9.62764e-05
38 *167:69 *331:89 0
39 *169:16 *331:6 0.000231246
40 *169:16 *331:12 5.41385e-05
41 *212:10 *1000:D 2.9938e-05
42 *212:10 *1100:B1 0.000172996
43 *212:10 *331:89 0
44 *212:10 *331:93 0.000185428
45 *213:25 *331:89 0
46 *213:25 *331:106 0
47 *239:8 *331:12 0
48 *239:8 *331:14 0
49 *239:14 *1003:D_N 0
50 *242:6 *1001:B 4.79544e-05
51 *242:6 *331:71 1.7316e-05
52 *242:23 *331:89 0
53 *244:23 *994:B 0.000180212
54 *244:23 *331:40 4.66047e-05
55 *285:28 *1003:D_N 2.30292e-05
56 *301:8 *1100:B1 1.32939e-05
57 *312:8 *1001:B 5.50106e-05
58 *315:10 *1000:D 2.02872e-05
59 *327:84 *1000:D 0.000221992
60 *327:97 *1000:D 0.000506062
61 *327:97 *1100:B1 0.000311554
62 *327:97 *331:93 0.000193375
63 *328:16 *331:12 0
64 *328:16 *331:67 0
65 *328:37 *1003:D_N 2.54046e-05
66 *328:37 *331:14 7.75329e-06
67 *328:37 *331:16 2.61699e-05
68 *328:44 *331:40 9.67842e-05
69 *328:52 *1003:D_N 4.6318e-06
70 *328:52 *331:14 1.58805e-05
71 *328:52 *331:16 4.18957e-05
72 *330:34 *1003:D_N 5.50106e-05
73 *330:100 *1000:D 6.53382e-05
74 *330:100 *331:106 7.91596e-05
*RES
1 *1211:X *331:6 27.9093 
2 *331:6 *331:12 17.2993 
3 *331:12 *331:14 2.61 
4 *331:14 *331:16 1.20143 
5 *331:16 *1003:D_N 40.175 
6 *331:16 *998:B 46.7207 
7 *331:14 *331:40 18.0036 
8 *331:40 *994:B 27.8264 
9 *331:40 *1006:A 23 
10 *331:12 *995:B 38 
11 *331:6 *331:67 17.9621 
12 *331:67 *331:71 18.9564 
13 *331:71 *1001:B 25.4236 
14 *331:71 *1005:D 23 
15 *331:67 *331:89 19.3707 
16 *331:89 *331:93 2.9 
17 *331:93 *1000:D 31.7207 
18 *331:93 *331:106 32.61 
19 *331:106 *992:B 23 
20 *331:89 *1100:B1 29.3593 
*END

*D_NET *332 0.0176134
*CONN
*I *1134:RESET_B I *D sky130_fd_sc_hd__dfrtp_1
*I *1131:RESET_B I *D sky130_fd_sc_hd__dfrtp_2
*I *1135:RESET_B I *D sky130_fd_sc_hd__dfrtp_1
*I *1132:RESET_B I *D sky130_fd_sc_hd__dfrtp_1
*I *1139:RESET_B I *D sky130_fd_sc_hd__dfrtp_1
*I *1122:RESET_B I *D sky130_fd_sc_hd__dfrtp_2
*I *1136:RESET_B I *D sky130_fd_sc_hd__dfrtp_1
*I *1138:RESET_B I *D sky130_fd_sc_hd__dfrtp_1
*I *1123:RESET_B I *D sky130_fd_sc_hd__dfrtp_1
*I *1121:RESET_B I *D sky130_fd_sc_hd__dfrtp_4
*I *1212:X O *D sky130_fd_sc_hd__clkbuf_4
*CAP
1 *1134:RESET_B 0.000642511
2 *1131:RESET_B 8.66623e-05
3 *1135:RESET_B 0.000961721
4 *1132:RESET_B 0.000961721
5 *1139:RESET_B 0.000178288
6 *1122:RESET_B 0.000845683
7 *1136:RESET_B 7.28353e-05
8 *1138:RESET_B 0.00021635
9 *1123:RESET_B 8.11308e-05
10 *1121:RESET_B 0.000959246
11 *1212:X 0.000125425
12 *332:56 0.00103255
13 *332:52 0.000756009
14 *332:44 0.000934834
15 *332:40 0.000606713
16 *332:38 0.00074516
17 *332:36 0.00114411
18 *332:24 0.000661849
19 *332:8 0.000698968
20 *1134:RESET_B *334:32 0.000224605
21 *1121:CLK *332:8 6.70363e-05
22 *1131:CLK *1131:RESET_B 5.12254e-05
23 *1131:D *1131:RESET_B 4.41205e-05
24 *1139:CLK *332:44 7.91596e-05
25 *1139:CLK *332:52 0.000748
26 *115:39 *1122:RESET_B 0
27 *116:8 *1135:RESET_B 0
28 *116:21 *1122:RESET_B 0
29 *121:10 *332:8 6.93449e-05
30 *122:8 *1122:RESET_B 1.14452e-05
31 *123:8 *1123:RESET_B 0.000178388
32 *123:8 *332:36 0.00012612
33 *150:12 *1131:RESET_B 0.000260557
34 *150:12 *332:40 0
35 *150:29 *332:24 9.78737e-05
36 *150:38 *332:24 2.24048e-05
37 *150:59 *332:24 4.67488e-05
38 *159:22 *332:24 0.000136486
39 *199:20 *1122:RESET_B 0.000178818
40 *199:35 *332:38 1.69668e-05
41 *205:8 *332:40 0.000127263
42 *205:8 *332:44 0.000168744
43 *239:46 *332:24 7.09173e-05
44 *239:54 *332:24 0.000426784
45 *239:54 *332:36 0.000133553
46 *239:54 *332:38 7.45997e-05
47 *247:10 *1122:RESET_B 0
48 *252:14 *332:8 0
49 *252:38 *332:24 6.16531e-05
50 *255:10 *1134:RESET_B 0.000799819
51 *268:8 *332:36 0
52 *268:8 *332:38 0
53 *268:16 *332:38 8.05114e-05
54 *268:18 *332:38 3.0647e-05
55 *268:18 *332:40 0.00029669
56 *268:18 *332:44 4.32475e-05
57 *268:20 *332:44 7.10099e-05
58 *268:42 *1135:RESET_B 8.12008e-05
59 *268:44 *1135:RESET_B 9.00168e-05
60 *268:59 *1135:RESET_B 0.000161588
61 *281:16 *1121:RESET_B 1.49237e-06
62 *281:16 *332:24 0.000101058
63 *282:10 *1122:RESET_B 0
64 *283:8 *1123:RESET_B 1.24376e-05
65 *283:8 *332:36 0.000137651
66 *300:21 *1121:RESET_B 4.12021e-05
67 *304:10 *332:56 0
68 *310:34 *1122:RESET_B 7.81176e-05
69 *310:34 *1136:RESET_B 7.51159e-05
70 *310:44 *332:44 5.0135e-05
71 *310:58 *1122:RESET_B 0.000326857
72 *326:34 *1122:RESET_B 0
73 *326:38 *1122:RESET_B 0
*RES
1 *1212:X *332:8 40.9621 
2 *332:8 *1121:RESET_B 22.5918 
3 *1121:RESET_B *332:24 40.2225 
4 *332:24 *1123:RESET_B 1.97821 
5 *332:24 *332:36 20.2407 
6 *332:36 *332:38 5.77929 
7 *332:38 *332:40 7.89214 
8 *332:40 *332:44 20.4271 
9 *332:44 *1138:RESET_B 3.4075 
10 *332:44 *332:52 10.15 
11 *332:52 *332:56 16.9057 
12 *332:56 *1136:RESET_B 16.5018 
13 *332:56 *1122:RESET_B 32.8868 
14 *332:52 *1139:RESET_B 2.93107 
15 *332:40 *1132:RESET_B 15 
16 *1132:RESET_B *1135:RESET_B 16.7371 
17 *332:38 *1131:RESET_B 17.9311 
18 *332:36 *1134:RESET_B 30.3182 
*END

*D_NET *333 0.0121112
*CONN
*I *1155:RESET_B I *D sky130_fd_sc_hd__dfrtp_1
*I *1141:RESET_B I *D sky130_fd_sc_hd__dfrtp_1
*I *1144:RESET_B I *D sky130_fd_sc_hd__dfrtp_1
*I *1133:RESET_B I *D sky130_fd_sc_hd__dfrtp_1
*I *1146:RESET_B I *D sky130_fd_sc_hd__dfrtp_1
*I *1145:RESET_B I *D sky130_fd_sc_hd__dfrtp_1
*I *1143:RESET_B I *D sky130_fd_sc_hd__dfrtp_1
*I *1119:RESET_B I *D sky130_fd_sc_hd__dfrtp_1
*I *1120:RESET_B I *D sky130_fd_sc_hd__dfrtp_1
*I *1125:RESET_B I *D sky130_fd_sc_hd__dfrtp_1
*I *1213:X O *D sky130_fd_sc_hd__clkbuf_4
*CAP
1 *1155:RESET_B 0.000289481
2 *1141:RESET_B 0
3 *1144:RESET_B 0
4 *1133:RESET_B 0.00055853
5 *1146:RESET_B 2.86451e-05
6 *1145:RESET_B 4.42216e-06
7 *1143:RESET_B 2.03292e-05
8 *1119:RESET_B 3.59851e-05
9 *1120:RESET_B 2.86451e-05
10 *1125:RESET_B 0.000247408
11 *1213:X 0
12 *333:105 0.000896226
13 *333:80 0.0012064
14 *333:66 0.000842842
15 *333:52 0.000636596
16 *333:46 0.000901258
17 *333:44 0.0014334
18 *333:34 0.000830538
19 *333:20 0.000755365
20 *333:4 0.000502048
21 *1125:RESET_B *1213:A 1.14154e-05
22 *1125:RESET_B *334:36 0.00065613
23 *333:20 *1156:RESET_B 8.84817e-06
24 *333:20 *334:36 5.14746e-06
25 *333:34 *1016:A1 0.000141954
26 *985:A *333:105 0
27 *1016:A0 *333:34 0.000139357
28 *1016:S *333:34 0.000225863
29 *1018:A0 *333:34 5.3304e-05
30 *1119:CLK *333:20 1.97329e-05
31 *1133:D *1133:RESET_B 0.000127537
32 *1144:CLK *1145:RESET_B 2.8521e-05
33 *1144:CLK *333:66 9.91798e-05
34 *1144:CLK *333:80 0.000207295
35 *119:10 *333:34 0.00014196
36 *125:12 *1125:RESET_B 0.000127537
37 *134:10 *1155:RESET_B 0
38 *140:16 *333:34 4.75206e-05
39 *210:8 *1155:RESET_B 0
40 *239:14 *1155:RESET_B 0
41 *243:16 *333:34 0
42 *258:10 *1143:RESET_B 4.83893e-05
43 *258:10 *333:52 9.84851e-05
44 *258:10 *333:66 3.31683e-05
45 *259:8 *333:46 0
46 *265:8 *333:34 5.21024e-05
47 *265:8 *333:105 0
48 *266:8 *333:20 5.21024e-05
49 *270:23 *333:20 4.99753e-06
50 *270:36 *1120:RESET_B 2.56078e-05
51 *270:36 *333:34 7.59794e-05
52 *270:47 *1133:RESET_B 0
53 *270:47 *333:20 0
54 *270:51 *1133:RESET_B 0
55 *270:60 *1146:RESET_B 2.56078e-05
56 *270:60 *333:80 7.88926e-05
57 *270:67 *333:80 7.58011e-05
58 *270:73 *1133:RESET_B 0
59 *270:102 *1155:RESET_B 0
60 *287:10 *1155:RESET_B 0
61 *287:10 *333:105 0
62 *310:20 *1133:RESET_B 0.000111023
63 *321:12 *1133:RESET_B 0
64 *322:14 *1155:RESET_B 0.000169665
*RES
1 *1213:X *333:4 23 
2 *333:4 *1125:RESET_B 8.7725 
3 *333:4 *333:20 34.1843 
4 *333:20 *1120:RESET_B 0.548929 
5 *333:20 *333:34 41.5793 
6 *333:34 *1119:RESET_B 0.548929 
7 *333:34 *333:44 20.3857 
8 *333:44 *333:46 9.65286 
9 *333:46 *333:52 22.2914 
10 *333:52 *1143:RESET_B 0.548929 
11 *333:52 *333:66 33.9564 
12 *333:66 *1145:RESET_B 0.548929 
13 *333:66 *333:80 10.8129 
14 *333:80 *1146:RESET_B 0.548929 
15 *333:80 *1133:RESET_B 40.7611 
16 *333:46 *1144:RESET_B 15 
17 *333:44 *333:105 11.4136 
18 *333:105 *1141:RESET_B 15 
19 *333:105 *1155:RESET_B 20.7793 
*END

*D_NET *334 0.0146747
*CONN
*I *1212:A I *D sky130_fd_sc_hd__clkbuf_4
*I *1153:RESET_B I *D sky130_fd_sc_hd__dfrtp_1
*I *1156:RESET_B I *D sky130_fd_sc_hd__dfrtp_1
*I *1213:A I *D sky130_fd_sc_hd__clkbuf_4
*I *1137:RESET_B I *D sky130_fd_sc_hd__dfrtp_1
*I *1214:X O *D sky130_fd_sc_hd__clkbuf_2
*CAP
1 *1212:A 0
2 *1153:RESET_B 0
3 *1156:RESET_B 0.000805106
4 *1213:A 2.0995e-05
5 *1137:RESET_B 3.60243e-05
6 *1214:X 0
7 *334:73 0.000621084
8 *334:58 0.000804881
9 *334:36 0.0014976
10 *334:32 0.00253363
11 *334:26 0.00241684
12 *334:12 0.00153629
13 *334:6 0.00112934
14 *334:73 *1154:RESET_B 2.8521e-05
15 *1087:B2 *334:26 0.000100337
16 *1125:RESET_B *1213:A 1.14154e-05
17 *1125:RESET_B *334:36 0.00065613
18 *1134:RESET_B *334:32 0.000224605
19 *1217:A *1156:RESET_B 4.96717e-05
20 *74:11 *334:73 0.000104107
21 *118:49 *334:32 8.62783e-05
22 *125:12 *334:36 3.44502e-05
23 *139:38 *1156:RESET_B 0.000393767
24 *140:10 *1156:RESET_B 3.83778e-05
25 *146:46 *1156:RESET_B 0
26 *150:29 *334:26 8.50457e-05
27 *199:10 *334:32 9.41704e-05
28 *200:8 *334:26 3.93003e-05
29 *226:16 *1156:RESET_B 0
30 *226:31 *1156:RESET_B 0
31 *239:54 *334:26 2.29192e-05
32 *245:10 *334:26 1.41322e-05
33 *253:6 *334:73 0.00044956
34 *268:85 *334:12 9.63918e-05
35 *268:104 *334:12 8.15327e-05
36 *270:23 *1156:RESET_B 0.000401816
37 *296:10 *334:12 7.53522e-05
38 *300:12 *334:58 0.000146634
39 *300:12 *334:73 0
40 *310:95 *1156:RESET_B 2.44393e-05
41 *333:20 *1156:RESET_B 8.84817e-06
42 *333:20 *334:36 5.14746e-06
*RES
1 *1214:X *334:6 38 
2 *334:6 *334:12 30.4321 
3 *334:12 *1137:RESET_B 0.776786 
4 *334:12 *334:26 37.54 
5 *334:26 *334:32 39.6914 
6 *334:32 *334:36 25.6264 
7 *334:36 *1213:A 23.4971 
8 *334:36 *1156:RESET_B 45.8257 
9 *334:6 *334:58 4.64 
10 *334:58 *1153:RESET_B 15 
11 *334:58 *334:73 28.485 
12 *334:73 *1212:A 23 
*END

*D_NET *335 0.00935135
*CONN
*I *1128:RESET_B I *D sky130_fd_sc_hd__dfrtp_2
*I *1142:RESET_B I *D sky130_fd_sc_hd__dfrtp_1
*I *1129:RESET_B I *D sky130_fd_sc_hd__dfrtp_1
*I *1149:RESET_B I *D sky130_fd_sc_hd__dfrtp_1
*I *1148:RESET_B I *D sky130_fd_sc_hd__dfrtp_1
*I *1147:RESET_B I *D sky130_fd_sc_hd__dfrtp_1
*I *1150:RESET_B I *D sky130_fd_sc_hd__dfrtp_1
*I *1151:RESET_B I *D sky130_fd_sc_hd__dfrtp_1
*I *1154:RESET_B I *D sky130_fd_sc_hd__dfrtp_1
*I *1152:RESET_B I *D sky130_fd_sc_hd__dfrtp_1
*I *1215:X O *D sky130_fd_sc_hd__clkbuf_4
*CAP
1 *1128:RESET_B 0.000417132
2 *1142:RESET_B 0.00053126
3 *1129:RESET_B 0.000104382
4 *1149:RESET_B 3.27288e-05
5 *1148:RESET_B 4.08008e-05
6 *1147:RESET_B 1.86827e-05
7 *1150:RESET_B 4.08008e-05
8 *1151:RESET_B 0.000123835
9 *1154:RESET_B 0.000148708
10 *1152:RESET_B 6.84887e-05
11 *1215:X 0.000187965
12 *335:84 0.000635642
13 *335:82 0.00103869
14 *335:72 0.00075274
15 *335:60 0.000381185
16 *335:50 0.000703301
17 *335:40 0.000846389
18 *335:26 0.000691239
19 *335:14 0.000353211
20 *335:6 0.000256454
21 *1142:RESET_B *347:8 0.000132572
22 *335:26 *338:10 1.14452e-05
23 *335:40 *338:10 0.00031868
24 *1035:A1 *335:50 2.74584e-05
25 *128:10 *1129:RESET_B 0
26 *158:12 *335:50 0
27 *251:6 *335:6 9.71035e-05
28 *262:8 *335:50 0.00015192
29 *262:8 *335:60 0.000219707
30 *262:8 *335:72 5.56306e-05
31 *269:91 *1149:RESET_B 2.56078e-05
32 *269:91 *335:82 0.000298766
33 *269:104 *1128:RESET_B 6.87362e-05
34 *269:104 *335:82 0.000341402
35 *269:112 *1142:RESET_B 0
36 *269:128 *335:26 0
37 *269:128 *335:40 3.7566e-05
38 *302:18 *1147:RESET_B 4.83893e-05
39 *324:48 *1147:RESET_B 1.67826e-05
40 *324:48 *335:50 9.74235e-05
41 *334:73 *1154:RESET_B 2.8521e-05
*RES
1 *1215:X *335:6 26.9564 
2 *335:6 *1152:RESET_B 1.02536 
3 *335:6 *335:14 15 
4 *335:14 *1154:RESET_B 17.4546 
5 *335:14 *335:26 4.01857 
6 *335:26 *1151:RESET_B 16.9782 
7 *335:26 *335:40 8.30643 
8 *335:40 *1150:RESET_B 15.5489 
9 *335:40 *335:50 9.65286 
10 *335:50 *1147:RESET_B 15.5489 
11 *335:50 *335:60 5.77929 
12 *335:60 *1148:RESET_B 15.5489 
13 *335:60 *335:72 16.9057 
14 *335:72 *1149:RESET_B 0.548929 
15 *335:72 *335:82 13.0293 
16 *335:82 *335:84 15 
17 *335:84 *1129:RESET_B 16.5536 
18 *335:84 *1142:RESET_B 24.8082 
19 *335:82 *1128:RESET_B 6.43179 
*END

*D_NET *336 0.0101672
*CONN
*I *1124:RESET_B I *D sky130_fd_sc_hd__dfrtp_1
*I *1127:RESET_B I *D sky130_fd_sc_hd__dfrtp_2
*I *1140:RESET_B I *D sky130_fd_sc_hd__dfrtp_1
*I *1157:RESET_B I *D sky130_fd_sc_hd__dfrtp_1
*I *1126:RESET_B I *D sky130_fd_sc_hd__dfrtp_1
*I *1158:RESET_B I *D sky130_fd_sc_hd__dfrtp_1
*I *1130:RESET_B I *D sky130_fd_sc_hd__dfrtp_1
*I *1216:X O *D sky130_fd_sc_hd__buf_2
*CAP
1 *1124:RESET_B 2.89601e-05
2 *1127:RESET_B 0.000160312
3 *1140:RESET_B 0
4 *1157:RESET_B 0.000137577
5 *1126:RESET_B 3.67665e-05
6 *1158:RESET_B 0.000414331
7 *1130:RESET_B 9.45915e-05
8 *1216:X 0.000195269
9 *336:56 0.00117102
10 *336:42 0.00154332
11 *336:34 0.00143335
12 *336:20 0.00131105
13 *336:10 0.000548463
14 *336:8 0.000581306
15 *336:56 *987:A 2.93845e-05
16 *1061:A1 *336:42 9.67842e-05
17 *1061:S *1127:RESET_B 0
18 *1061:S *336:34 0
19 *1081:C1 *336:10 9.46108e-05
20 *1081:C1 *336:20 3.96053e-05
21 *1081:C1 *336:34 1.02387e-05
22 *1082:A2 *336:34 0.000251644
23 *1126:D *336:42 5.50106e-05
24 *1220:A *336:56 1.94812e-05
25 *1249:A *336:34 5.72749e-05
26 *118:49 *1124:RESET_B 2.5343e-05
27 *118:49 *336:8 0.000159558
28 *118:49 *336:10 1.50266e-05
29 *124:10 *336:8 0
30 *173:14 *336:34 0
31 *173:20 *336:34 5.21024e-05
32 *174:8 *336:34 3.04021e-05
33 *174:14 *336:34 8.72985e-05
34 *176:10 *336:34 0.000136486
35 *176:14 *336:34 4.57131e-05
36 *177:19 *336:34 0
37 *264:10 *1157:RESET_B 0
38 *271:48 *336:10 0.00041353
39 *271:59 *336:10 0
40 *271:59 *336:20 0
41 *271:59 *336:34 0
42 *271:97 *1126:RESET_B 7.3572e-05
43 *271:97 *336:42 7.68044e-05
44 *271:97 *336:56 0.000175684
45 *276:12 *336:56 2.03764e-06
46 *277:10 *1127:RESET_B 9.98995e-05
47 *277:10 *336:34 1.12487e-05
48 *277:16 *336:34 0.000186687
49 *280:6 *1130:RESET_B 0.000134437
50 *315:27 *1157:RESET_B 9.95713e-05
51 *315:27 *336:56 3.14274e-05
52 *325:35 *336:34 0
*RES
1 *1216:X *336:8 42.5468 
2 *336:8 *336:10 9.47679 
3 *336:10 *1130:RESET_B 16.9782 
4 *336:10 *336:20 1.90571 
5 *336:20 *1158:RESET_B 21.7425 
6 *336:20 *336:34 17.8143 
7 *336:34 *336:42 23.41 
8 *336:42 *1126:RESET_B 1.99893 
9 *336:42 *336:56 30.0386 
10 *336:56 *1157:RESET_B 18.6664 
11 *336:56 *1140:RESET_B 15 
12 *336:34 *1127:RESET_B 18.6664 
13 *336:8 *1124:RESET_B 15.9425 
*END

*D_NET *337 0.000470834
*CONN
*I *1146:D I *D sky130_fd_sc_hd__dfrtp_1
*I *1245:X O *D sky130_fd_sc_hd__clkbuf_1
*CAP
1 *1146:D 0
2 *1245:X 0.000235417
3 *337:8 0.000235417
4 *306:10 *337:8 0
*RES
1 *1245:X *337:8 42.3707 
2 *337:8 *1146:D 38 
*END

*D_NET *338 0.00183731
*CONN
*I *1151:D I *D sky130_fd_sc_hd__dfrtp_1
*I *1246:X O *D sky130_fd_sc_hd__clkbuf_1
*CAP
1 *1151:D 0
2 *1246:X 0.000634185
3 *338:10 0.000634185
4 *269:12 *338:10 6.64089e-05
5 *269:16 *338:10 6.18894e-05
6 *269:128 *338:10 0.000110521
7 *335:26 *338:10 1.14452e-05
8 *335:40 *338:10 0.00031868
*RES
1 *1246:X *338:10 49.6621 
2 *338:10 *1151:D 38 
*END

*D_NET *339 0.000741536
*CONN
*I *1152:D I *D sky130_fd_sc_hd__dfrtp_1
*I *1247:X O *D sky130_fd_sc_hd__clkbuf_1
*CAP
1 *1152:D 0
2 *1247:X 0.000238206
3 *339:10 0.000238206
4 *1154:CLK *339:10 4.21594e-06
5 *1247:A *339:10 9.86551e-06
6 *269:18 *339:10 0.000109173
7 *286:10 *339:10 0.000141869
*RES
1 *1247:X *339:10 43.3443 
2 *339:10 *1152:D 38 
*END

*D_NET *340 0.000316934
*CONN
*I *1153:D I *D sky130_fd_sc_hd__dfrtp_1
*I *1248:X O *D sky130_fd_sc_hd__clkbuf_1
*CAP
1 *1153:D 0
2 *1248:X 0.000158467
3 *340:10 0.000158467
4 *300:12 *340:10 0
*RES
1 *1248:X *340:10 40.5271 
2 *340:10 *1153:D 38 
*END

*D_NET *341 0.000669732
*CONN
*I *1018:A1 I *D sky130_fd_sc_hd__mux2_1
*I *1217:X O *D sky130_fd_sc_hd__dlygate4sd3_1
*CAP
1 *1018:A1 0
2 *1217:X 0.000264387
3 *341:10 0.000264387
4 *243:16 *341:10 0
5 *310:95 *341:10 0.000140958
*RES
1 *1217:X *341:10 41.9564 
2 *341:10 *1018:A1 38 
*END

*D_NET *342 0.000502803
*CONN
*I *1016:A1 I *D sky130_fd_sc_hd__mux2_1
*I *1218:X O *D sky130_fd_sc_hd__dlygate4sd3_1
*CAP
1 *1016:A1 0.000178568
2 *1218:X 0.000178568
3 *1218:A *1016:A1 3.7122e-06
4 *333:34 *1016:A1 0.000141954
*RES
1 *1218:X *1016:A1 48.5271 
*END

*D_NET *343 6.69045e-05
*CONN
*I *1238:A I *D sky130_fd_sc_hd__buf_1
*I *1219:X O *D sky130_fd_sc_hd__dlygate4sd3_1
*CAP
1 *1238:A 3.34522e-05
2 *1219:X 3.34522e-05
*RES
1 *1219:X *1238:A 46.6214 
*END

*D_NET *344 9.12609e-05
*CONN
*I *987:A I *D sky130_fd_sc_hd__inv_2
*I *1220:X O *D sky130_fd_sc_hd__dlygate4sd3_1
*CAP
1 *987:A 3.09382e-05
2 *1220:X 3.09382e-05
3 *336:56 *987:A 2.93845e-05
*RES
1 *1220:X *987:A 46.6214 
*END

*D_NET *345 0.000536127
*CONN
*I *1098:A1 I *D sky130_fd_sc_hd__mux2_1
*I *1221:X O *D sky130_fd_sc_hd__dlygate4sd3_1
*CAP
1 *1098:A1 0.000131024
2 *1221:X 0.000131024
3 *1221:A *1098:A1 0.000274078
*RES
1 *1221:X *1098:A1 49.0036 
*END

*D_NET *346 0.00154936
*CONN
*I *1046:A0 I *D sky130_fd_sc_hd__mux2_1
*I *1222:X O *D sky130_fd_sc_hd__dlygate4sd3_1
*CAP
1 *1046:A0 3.57804e-05
2 *1222:X 0.000724214
3 *346:10 0.000759994
4 *1046:A1 *1046:A0 2.93747e-05
5 *124:10 *346:10 0
6 *163:14 *346:10 0
*RES
1 *1222:X *346:10 48.7093 
2 *346:10 *1046:A0 38.6214 
*END

*D_NET *347 0.010028
*CONN
*I *988:A I *D sky130_fd_sc_hd__inv_2
*I *1117:A1 I *D sky130_fd_sc_hd__a31o_1
*I *1142:Q O *D sky130_fd_sc_hd__dfrtp_1
*CAP
1 *988:A 0
2 *1117:A1 0
3 *1142:Q 0.00169524
4 *347:26 0.0002781
5 *347:16 0.000845837
6 *347:12 0.00204591
7 *347:8 0.00317342
8 *1053:A1 *347:12 0.000511084
9 *1142:RESET_B *347:8 0.000132572
10 *126:10 *347:12 9.67842e-05
11 *232:10 *347:26 0
12 *236:21 *347:26 2.76611e-06
13 *264:10 *347:16 0
14 *269:112 *347:8 0.000648236
15 *277:10 *347:12 9.84851e-05
16 *277:89 *347:12 0.000315852
17 *311:34 *347:16 4.21594e-06
18 *311:34 *347:26 0.000179451
*RES
1 *1142:Q *347:8 48.4164 
2 *347:8 *347:12 43.7307 
3 *347:12 *347:16 25.7093 
4 *347:16 *347:26 35.6343 
5 *347:26 *1117:A1 23 
6 *347:16 *988:A 23 
*END
