*SPEF "ieee 1481-1999"
*DESIGN "bridge"
*DATE "09:41:11 Thursday May 07, 2026"
*VENDOR "The OpenROAD Project"
*PROGRAM "OpenROAD"
*VERSION "edf00dff99f6c40d67a30c0e22a8191c5d2ed9d6"
*DESIGN_FLOW "NAME_SCOPE LOCAL" "PIN_CAP NONE"
*DIVIDER /
*DELIMITER :
*BUS_DELIMITER []
*T_UNIT 1 NS
*C_UNIT 1 PF
*R_UNIT 1 OHM
*L_UNIT 1 HENRY

*NAME_MAP
*1 PADDR[0]
*2 PADDR[1]
*3 PADDR[2]
*4 PENABLE
*5 PRDATA[0]
*6 PRDATA[10]
*7 PRDATA[11]
*8 PRDATA[12]
*9 PRDATA[13]
*10 PRDATA[14]
*11 PRDATA[15]
*12 PRDATA[1]
*13 PRDATA[2]
*14 PRDATA[3]
*15 PRDATA[4]
*16 PRDATA[5]
*17 PRDATA[6]
*18 PRDATA[7]
*19 PRDATA[8]
*20 PRDATA[9]
*21 PREADY
*22 PSEL1
*23 PSEL2
*24 PSEL3
*25 PSEL4
*26 PWDATA[0]
*27 PWDATA[10]
*28 PWDATA[11]
*29 PWDATA[12]
*30 PWDATA[13]
*31 PWDATA[14]
*32 PWDATA[15]
*33 PWDATA[1]
*34 PWDATA[2]
*35 PWDATA[3]
*36 PWDATA[4]
*37 PWDATA[5]
*38 PWDATA[6]
*39 PWDATA[7]
*40 PWDATA[8]
*41 PWDATA[9]
*42 PWRITE
*45 araddr[0]
*46 araddr[1]
*47 araddr[2]
*48 araddr[3]
*49 araddr[4]
*50 arburst[0]
*51 arburst[1]
*52 arlen[0]
*53 arlen[1]
*54 arlen[2]
*55 arlen[3]
*56 arready
*57 arvalid
*58 awaddr[0]
*59 awaddr[1]
*60 awaddr[2]
*61 awaddr[3]
*62 awaddr[4]
*63 awburst[0]
*64 awburst[1]
*65 awlen[0]
*66 awlen[1]
*67 awlen[2]
*68 awlen[3]
*69 awready
*70 awvalid
*71 bready
*72 bresp
*73 bvalid
*74 clk
*75 rdata[0]
*76 rdata[10]
*77 rdata[11]
*78 rdata[12]
*79 rdata[13]
*80 rdata[14]
*81 rdata[15]
*82 rdata[1]
*83 rdata[2]
*84 rdata[3]
*85 rdata[4]
*86 rdata[5]
*87 rdata[6]
*88 rdata[7]
*89 rdata[8]
*90 rdata[9]
*91 res_n
*92 rlast
*93 rready
*94 rresp
*95 rvalid
*96 wdata[0]
*97 wdata[10]
*98 wdata[11]
*99 wdata[12]
*100 wdata[13]
*101 wdata[14]
*102 wdata[15]
*103 wdata[1]
*104 wdata[2]
*105 wdata[3]
*106 wdata[4]
*107 wdata[5]
*108 wdata[6]
*109 wdata[7]
*110 wdata[8]
*111 wdata[9]
*112 wlast
*113 wready
*114 wvalid
*115 DADDR\[0\]
*116 DADDR\[1\]
*117 DADDR\[2\]
*118 DDATA\[0\]\[0\]
*119 DDATA\[0\]\[10\]
*120 DDATA\[0\]\[11\]
*121 DDATA\[0\]\[12\]
*122 DDATA\[0\]\[13\]
*123 DDATA\[0\]\[14\]
*124 DDATA\[0\]\[15\]
*125 DDATA\[0\]\[1\]
*126 DDATA\[0\]\[2\]
*127 DDATA\[0\]\[3\]
*128 DDATA\[0\]\[4\]
*129 DDATA\[0\]\[5\]
*130 DDATA\[0\]\[6\]
*131 DDATA\[0\]\[7\]
*132 DDATA\[0\]\[8\]
*133 DDATA\[0\]\[9\]
*134 DDATA\[10\]\[0\]
*135 DDATA\[10\]\[10\]
*136 DDATA\[10\]\[11\]
*137 DDATA\[10\]\[12\]
*138 DDATA\[10\]\[13\]
*139 DDATA\[10\]\[14\]
*140 DDATA\[10\]\[15\]
*141 DDATA\[10\]\[1\]
*142 DDATA\[10\]\[2\]
*143 DDATA\[10\]\[3\]
*144 DDATA\[10\]\[4\]
*145 DDATA\[10\]\[5\]
*146 DDATA\[10\]\[6\]
*147 DDATA\[10\]\[7\]
*148 DDATA\[10\]\[8\]
*149 DDATA\[10\]\[9\]
*150 DDATA\[11\]\[0\]
*151 DDATA\[11\]\[10\]
*152 DDATA\[11\]\[11\]
*153 DDATA\[11\]\[12\]
*154 DDATA\[11\]\[13\]
*155 DDATA\[11\]\[14\]
*156 DDATA\[11\]\[15\]
*157 DDATA\[11\]\[1\]
*158 DDATA\[11\]\[2\]
*159 DDATA\[11\]\[3\]
*160 DDATA\[11\]\[4\]
*161 DDATA\[11\]\[5\]
*162 DDATA\[11\]\[6\]
*163 DDATA\[11\]\[7\]
*164 DDATA\[11\]\[8\]
*165 DDATA\[11\]\[9\]
*166 DDATA\[12\]\[0\]
*167 DDATA\[12\]\[10\]
*168 DDATA\[12\]\[11\]
*169 DDATA\[12\]\[12\]
*170 DDATA\[12\]\[13\]
*171 DDATA\[12\]\[14\]
*172 DDATA\[12\]\[15\]
*173 DDATA\[12\]\[1\]
*174 DDATA\[12\]\[2\]
*175 DDATA\[12\]\[3\]
*176 DDATA\[12\]\[4\]
*177 DDATA\[12\]\[5\]
*178 DDATA\[12\]\[6\]
*179 DDATA\[12\]\[7\]
*180 DDATA\[12\]\[8\]
*181 DDATA\[12\]\[9\]
*182 DDATA\[13\]\[0\]
*183 DDATA\[13\]\[10\]
*184 DDATA\[13\]\[11\]
*185 DDATA\[13\]\[12\]
*186 DDATA\[13\]\[13\]
*187 DDATA\[13\]\[14\]
*188 DDATA\[13\]\[15\]
*189 DDATA\[13\]\[1\]
*190 DDATA\[13\]\[2\]
*191 DDATA\[13\]\[3\]
*192 DDATA\[13\]\[4\]
*193 DDATA\[13\]\[5\]
*194 DDATA\[13\]\[6\]
*195 DDATA\[13\]\[7\]
*196 DDATA\[13\]\[8\]
*197 DDATA\[13\]\[9\]
*198 DDATA\[14\]\[0\]
*199 DDATA\[14\]\[10\]
*200 DDATA\[14\]\[11\]
*201 DDATA\[14\]\[12\]
*202 DDATA\[14\]\[13\]
*203 DDATA\[14\]\[14\]
*204 DDATA\[14\]\[15\]
*205 DDATA\[14\]\[1\]
*206 DDATA\[14\]\[2\]
*207 DDATA\[14\]\[3\]
*208 DDATA\[14\]\[4\]
*209 DDATA\[14\]\[5\]
*210 DDATA\[14\]\[6\]
*211 DDATA\[14\]\[7\]
*212 DDATA\[14\]\[8\]
*213 DDATA\[14\]\[9\]
*214 DDATA\[15\]\[0\]
*215 DDATA\[15\]\[10\]
*216 DDATA\[15\]\[11\]
*217 DDATA\[15\]\[12\]
*218 DDATA\[15\]\[13\]
*219 DDATA\[15\]\[14\]
*220 DDATA\[15\]\[15\]
*221 DDATA\[15\]\[1\]
*222 DDATA\[15\]\[2\]
*223 DDATA\[15\]\[3\]
*224 DDATA\[15\]\[4\]
*225 DDATA\[15\]\[5\]
*226 DDATA\[15\]\[6\]
*227 DDATA\[15\]\[7\]
*228 DDATA\[15\]\[8\]
*229 DDATA\[15\]\[9\]
*230 DDATA\[1\]\[0\]
*231 DDATA\[1\]\[10\]
*232 DDATA\[1\]\[11\]
*233 DDATA\[1\]\[12\]
*234 DDATA\[1\]\[13\]
*235 DDATA\[1\]\[14\]
*236 DDATA\[1\]\[15\]
*237 DDATA\[1\]\[1\]
*238 DDATA\[1\]\[2\]
*239 DDATA\[1\]\[3\]
*240 DDATA\[1\]\[4\]
*241 DDATA\[1\]\[5\]
*242 DDATA\[1\]\[6\]
*243 DDATA\[1\]\[7\]
*244 DDATA\[1\]\[8\]
*245 DDATA\[1\]\[9\]
*246 DDATA\[2\]\[0\]
*247 DDATA\[2\]\[10\]
*248 DDATA\[2\]\[11\]
*249 DDATA\[2\]\[12\]
*250 DDATA\[2\]\[13\]
*251 DDATA\[2\]\[14\]
*252 DDATA\[2\]\[15\]
*253 DDATA\[2\]\[1\]
*254 DDATA\[2\]\[2\]
*255 DDATA\[2\]\[3\]
*256 DDATA\[2\]\[4\]
*257 DDATA\[2\]\[5\]
*258 DDATA\[2\]\[6\]
*259 DDATA\[2\]\[7\]
*260 DDATA\[2\]\[8\]
*261 DDATA\[2\]\[9\]
*262 DDATA\[3\]\[0\]
*263 DDATA\[3\]\[10\]
*264 DDATA\[3\]\[11\]
*265 DDATA\[3\]\[12\]
*266 DDATA\[3\]\[13\]
*267 DDATA\[3\]\[14\]
*268 DDATA\[3\]\[15\]
*269 DDATA\[3\]\[1\]
*270 DDATA\[3\]\[2\]
*271 DDATA\[3\]\[3\]
*272 DDATA\[3\]\[4\]
*273 DDATA\[3\]\[5\]
*274 DDATA\[3\]\[6\]
*275 DDATA\[3\]\[7\]
*276 DDATA\[3\]\[8\]
*277 DDATA\[3\]\[9\]
*278 DDATA\[4\]\[0\]
*279 DDATA\[4\]\[10\]
*280 DDATA\[4\]\[11\]
*281 DDATA\[4\]\[12\]
*282 DDATA\[4\]\[13\]
*283 DDATA\[4\]\[14\]
*284 DDATA\[4\]\[15\]
*285 DDATA\[4\]\[1\]
*286 DDATA\[4\]\[2\]
*287 DDATA\[4\]\[3\]
*288 DDATA\[4\]\[4\]
*289 DDATA\[4\]\[5\]
*290 DDATA\[4\]\[6\]
*291 DDATA\[4\]\[7\]
*292 DDATA\[4\]\[8\]
*293 DDATA\[4\]\[9\]
*294 DDATA\[5\]\[0\]
*295 DDATA\[5\]\[10\]
*296 DDATA\[5\]\[11\]
*297 DDATA\[5\]\[12\]
*298 DDATA\[5\]\[13\]
*299 DDATA\[5\]\[14\]
*300 DDATA\[5\]\[15\]
*301 DDATA\[5\]\[1\]
*302 DDATA\[5\]\[2\]
*303 DDATA\[5\]\[3\]
*304 DDATA\[5\]\[4\]
*305 DDATA\[5\]\[5\]
*306 DDATA\[5\]\[6\]
*307 DDATA\[5\]\[7\]
*308 DDATA\[5\]\[8\]
*309 DDATA\[5\]\[9\]
*310 DDATA\[6\]\[0\]
*311 DDATA\[6\]\[10\]
*312 DDATA\[6\]\[11\]
*313 DDATA\[6\]\[12\]
*314 DDATA\[6\]\[13\]
*315 DDATA\[6\]\[14\]
*316 DDATA\[6\]\[15\]
*317 DDATA\[6\]\[1\]
*318 DDATA\[6\]\[2\]
*319 DDATA\[6\]\[3\]
*320 DDATA\[6\]\[4\]
*321 DDATA\[6\]\[5\]
*322 DDATA\[6\]\[6\]
*323 DDATA\[6\]\[7\]
*324 DDATA\[6\]\[8\]
*325 DDATA\[6\]\[9\]
*326 DDATA\[7\]\[0\]
*327 DDATA\[7\]\[10\]
*328 DDATA\[7\]\[11\]
*329 DDATA\[7\]\[12\]
*330 DDATA\[7\]\[13\]
*331 DDATA\[7\]\[14\]
*332 DDATA\[7\]\[15\]
*333 DDATA\[7\]\[1\]
*334 DDATA\[7\]\[2\]
*335 DDATA\[7\]\[3\]
*336 DDATA\[7\]\[4\]
*337 DDATA\[7\]\[5\]
*338 DDATA\[7\]\[6\]
*339 DDATA\[7\]\[7\]
*340 DDATA\[7\]\[8\]
*341 DDATA\[7\]\[9\]
*342 DDATA\[8\]\[0\]
*343 DDATA\[8\]\[10\]
*344 DDATA\[8\]\[11\]
*345 DDATA\[8\]\[12\]
*346 DDATA\[8\]\[13\]
*347 DDATA\[8\]\[14\]
*348 DDATA\[8\]\[15\]
*349 DDATA\[8\]\[1\]
*350 DDATA\[8\]\[2\]
*351 DDATA\[8\]\[3\]
*352 DDATA\[8\]\[4\]
*353 DDATA\[8\]\[5\]
*354 DDATA\[8\]\[6\]
*355 DDATA\[8\]\[7\]
*356 DDATA\[8\]\[8\]
*357 DDATA\[8\]\[9\]
*358 DDATA\[9\]\[0\]
*359 DDATA\[9\]\[10\]
*360 DDATA\[9\]\[11\]
*361 DDATA\[9\]\[12\]
*362 DDATA\[9\]\[13\]
*363 DDATA\[9\]\[14\]
*364 DDATA\[9\]\[15\]
*365 DDATA\[9\]\[1\]
*366 DDATA\[9\]\[2\]
*367 DDATA\[9\]\[3\]
*368 DDATA\[9\]\[4\]
*369 DDATA\[9\]\[5\]
*370 DDATA\[9\]\[6\]
*371 DDATA\[9\]\[7\]
*372 DDATA\[9\]\[8\]
*373 DDATA\[9\]\[9\]
*374 DWREQ\[0\]
*375 DWREQ\[1\]
*376 _0000_
*377 _0001_
*378 _0002_
*379 _0003_
*380 _0004_
*381 _0005_
*382 _0006_
*383 _0007_
*384 _0008_
*385 _0009_
*386 _0010_
*387 _0011_
*388 _0012_
*389 _0013_
*390 _0014_
*391 _0015_
*392 _0016_
*393 _0017_
*394 _0018_
*395 _0019_
*396 _0020_
*397 _0021_
*398 _0022_
*399 _0023_
*400 _0024_
*401 _0025_
*402 _0026_
*403 _0027_
*404 _0028_
*405 _0029_
*406 _0030_
*407 _0031_
*408 _0032_
*409 _0033_
*410 _0034_
*411 _0035_
*412 _0036_
*413 _0037_
*414 _0038_
*415 _0039_
*416 _0040_
*417 _0041_
*418 _0042_
*419 _0043_
*420 _0044_
*421 _0045_
*422 _0046_
*423 _0047_
*424 _0048_
*425 _0049_
*426 _0050_
*427 _0051_
*428 _0052_
*429 _0053_
*430 _0054_
*431 _0055_
*432 _0056_
*433 _0057_
*434 _0058_
*435 _0059_
*436 _0060_
*437 _0061_
*438 _0062_
*439 _0063_
*440 _0064_
*441 _0065_
*442 _0066_
*443 _0067_
*444 _0068_
*445 _0069_
*446 _0070_
*447 _0071_
*448 _0072_
*449 _0073_
*450 _0074_
*451 _0075_
*452 _0076_
*453 _0077_
*454 _0078_
*455 _0079_
*456 _0080_
*457 _0081_
*458 _0082_
*459 _0083_
*460 _0084_
*461 _0085_
*462 _0086_
*463 _0087_
*464 _0088_
*465 _0089_
*466 _0090_
*467 _0091_
*468 _0092_
*469 _0093_
*470 _0094_
*471 _0095_
*472 _0096_
*473 _0097_
*474 _0098_
*475 _0099_
*476 _0100_
*477 _0101_
*478 _0102_
*479 _0103_
*480 _0104_
*481 _0105_
*482 _0106_
*483 _0107_
*484 _0108_
*485 _0109_
*486 _0110_
*487 _0111_
*488 _0112_
*489 _0113_
*490 _0114_
*491 _0115_
*492 _0116_
*493 _0117_
*494 _0118_
*495 _0119_
*496 _0120_
*497 _0121_
*498 _0122_
*499 _0123_
*500 _0124_
*501 _0125_
*502 _0126_
*503 _0127_
*504 _0128_
*505 _0129_
*506 _0130_
*507 _0131_
*508 _0132_
*509 _0133_
*510 _0134_
*511 _0135_
*512 _0136_
*513 _0137_
*514 _0138_
*515 _0139_
*516 _0140_
*517 _0141_
*518 _0142_
*519 _0143_
*520 _0144_
*521 _0145_
*522 _0146_
*523 _0147_
*524 _0148_
*525 _0149_
*526 _0150_
*527 _0151_
*528 _0152_
*529 _0153_
*530 _0154_
*531 _0155_
*532 _0156_
*533 _0157_
*534 _0158_
*535 _0159_
*536 _0160_
*537 _0161_
*538 _0162_
*539 _0163_
*540 _0164_
*541 _0165_
*542 _0166_
*543 _0167_
*544 _0168_
*545 _0169_
*546 _0170_
*547 _0171_
*548 _0172_
*549 _0173_
*550 _0174_
*551 _0175_
*552 _0176_
*553 _0177_
*554 _0178_
*555 _0179_
*556 _0180_
*557 _0181_
*558 _0182_
*559 _0183_
*560 _0184_
*561 _0185_
*562 _0186_
*563 _0187_
*564 _0188_
*565 _0189_
*566 _0190_
*567 _0191_
*568 _0192_
*569 _0193_
*570 _0194_
*571 _0195_
*572 _0196_
*573 _0197_
*574 _0198_
*575 _0199_
*576 _0200_
*577 _0201_
*578 _0202_
*579 _0203_
*580 _0204_
*581 _0205_
*582 _0206_
*583 _0207_
*584 _0208_
*585 _0209_
*586 _0210_
*587 _0211_
*588 _0212_
*589 _0213_
*590 _0214_
*591 _0215_
*592 _0216_
*593 _0217_
*594 _0218_
*595 _0219_
*596 _0220_
*597 _0221_
*598 _0222_
*599 _0223_
*600 _0224_
*601 _0225_
*602 _0226_
*603 _0227_
*604 _0228_
*605 _0229_
*606 _0230_
*607 _0231_
*608 _0232_
*609 _0233_
*610 _0234_
*611 _0235_
*612 _0236_
*613 _0237_
*614 _0238_
*615 _0239_
*616 _0240_
*617 _0241_
*618 _0242_
*619 _0243_
*620 _0244_
*621 _0245_
*622 _0246_
*623 _0247_
*624 _0248_
*625 _0249_
*626 _0250_
*627 _0251_
*628 _0252_
*629 _0253_
*630 _0254_
*631 _0255_
*632 _0256_
*633 _0257_
*634 _0258_
*635 _0259_
*636 _0260_
*637 _0261_
*638 _0262_
*639 _0263_
*640 _0264_
*641 _0265_
*642 _0266_
*643 _0267_
*644 _0268_
*645 _0269_
*646 _0270_
*647 _0271_
*648 _0272_
*649 _0273_
*650 _0274_
*651 _0275_
*652 _0276_
*653 _0277_
*654 _0278_
*655 _0279_
*656 _0280_
*657 _0281_
*658 _0282_
*659 _0283_
*660 _0284_
*661 _0285_
*662 _0286_
*663 _0287_
*664 _0288_
*665 _0289_
*666 _0290_
*667 _0291_
*668 _0292_
*669 _0293_
*670 _0294_
*671 _0295_
*672 _0296_
*673 _0297_
*674 _0298_
*675 _0299_
*676 _0300_
*677 _0301_
*678 _0302_
*679 _0303_
*680 _0304_
*681 _0305_
*682 _0306_
*683 _0307_
*684 _0308_
*685 _0309_
*686 _0310_
*687 _0311_
*688 _0312_
*689 _0313_
*690 _0314_
*691 _0315_
*692 _0316_
*693 _0317_
*694 _0318_
*695 _0319_
*696 _0320_
*697 _0321_
*698 _0322_
*699 _0323_
*700 _0324_
*701 _0325_
*702 _0326_
*703 _0327_
*704 _0328_
*705 _0329_
*706 _0330_
*707 _0331_
*708 _0332_
*709 _0333_
*710 _0334_
*711 _0335_
*712 _0336_
*713 _0337_
*714 _0338_
*715 _0339_
*716 _0340_
*717 _0341_
*718 _0342_
*719 _0343_
*720 _0344_
*721 _0345_
*722 _0346_
*723 _0347_
*724 _0348_
*725 _0349_
*726 _0350_
*727 _0351_
*728 _0352_
*729 _0353_
*730 _0354_
*731 _0355_
*732 _0356_
*733 _0357_
*734 _0358_
*735 _0359_
*736 _0360_
*737 _0361_
*738 _0362_
*739 _0363_
*740 _0364_
*741 _0365_
*742 _0366_
*743 _0367_
*744 _0368_
*745 _0369_
*746 _0370_
*747 _0371_
*748 _0372_
*749 _0373_
*750 _0374_
*751 _0375_
*752 _0376_
*753 _0377_
*754 _0378_
*755 _0379_
*756 _0380_
*757 _0381_
*758 _0382_
*759 _0383_
*760 _0384_
*761 _0385_
*762 _0386_
*763 _0387_
*764 _0388_
*765 _0389_
*766 addr\[3\]
*767 addr\[4\]
*768 burst\[0\]
*769 burst\[1\]
*770 clknet_0_clk
*771 clknet_1_0__leaf_clk
*772 clknet_1_1__leaf_clk
*773 current_state\[0\]
*774 current_state\[1\]
*775 current_state\[2\]
*776 current_state\[3\]
*777 i\[0\]
*778 i\[1\]
*779 i\[2\]
*780 i\[3\]
*781 last
*782 lenM\[0\]
*783 lenM\[1\]
*784 lenM\[2\]
*785 lenM\[3\]
*786 lenS\[0\]
*787 lenS\[1\]
*788 lenS\[2\]
*789 lenS\[3\]
*790 net1
*791 net10
*792 net100
*793 net101
*794 net102
*795 net103
*796 net104
*797 net105
*798 net106
*799 net107
*800 net108
*801 net109
*802 net11
*803 net110
*804 net111
*805 net112
*806 net113
*807 net114
*808 net115
*809 net116
*810 net117
*811 net118
*812 net119
*813 net12
*814 net120
*815 net121
*816 net122
*817 net123
*818 net124
*819 net125
*820 net126
*821 net127
*822 net128
*823 net129
*824 net13
*825 net130
*826 net131
*827 net132
*828 net133
*829 net134
*830 net135
*831 net136
*832 net137
*833 net138
*834 net139
*835 net14
*836 net140
*837 net141
*838 net142
*839 net143
*840 net144
*841 net145
*842 net146
*843 net147
*844 net148
*845 net149
*846 net15
*847 net150
*848 net151
*849 net152
*850 net153
*851 net154
*852 net155
*853 net156
*854 net157
*855 net158
*856 net159
*857 net16
*858 net160
*859 net161
*860 net162
*861 net163
*862 net164
*863 net165
*864 net166
*865 net167
*866 net168
*867 net169
*868 net17
*869 net170
*870 net171
*871 net172
*872 net173
*873 net174
*874 net175
*875 net176
*876 net177
*877 net178
*878 net179
*879 net18
*880 net180
*881 net181
*882 net182
*883 net183
*884 net184
*885 net185
*886 net186
*887 net187
*888 net188
*889 net189
*890 net19
*891 net190
*892 net191
*893 net192
*894 net193
*895 net194
*896 net195
*897 net196
*898 net197
*899 net198
*900 net199
*901 net2
*902 net20
*903 net200
*904 net201
*905 net202
*906 net203
*907 net204
*908 net205
*909 net206
*910 net207
*911 net208
*912 net209
*913 net21
*914 net210
*915 net211
*916 net212
*917 net213
*918 net214
*919 net215
*920 net216
*921 net217
*922 net218
*923 net219
*924 net22
*925 net220
*926 net221
*927 net222
*928 net223
*929 net224
*930 net225
*931 net226
*932 net227
*933 net228
*934 net229
*935 net23
*936 net230
*937 net231
*938 net232
*939 net233
*940 net234
*941 net235
*942 net236
*943 net237
*944 net238
*945 net239
*946 net24
*947 net240
*948 net241
*949 net242
*950 net243
*951 net244
*952 net245
*953 net246
*954 net247
*955 net248
*956 net249
*957 net25
*958 net250
*959 net251
*960 net252
*961 net253
*962 net254
*963 net255
*964 net256
*965 net257
*966 net258
*967 net259
*968 net26
*969 net260
*970 net261
*971 net262
*972 net263
*973 net264
*974 net265
*975 net266
*976 net267
*977 net268
*978 net269
*979 net27
*980 net270
*981 net28
*982 net29
*983 net3
*984 net30
*985 net31
*986 net32
*987 net33
*988 net34
*989 net35
*990 net36
*991 net37
*992 net38
*993 net39
*994 net4
*995 net40
*996 net41
*997 net42
*998 net43
*999 net44
*1000 net45
*1001 net46
*1002 net47
*1003 net48
*1004 net49
*1005 net5
*1006 net50
*1007 net51
*1008 net52
*1009 net53
*1010 net54
*1011 net55
*1012 net56
*1013 net57
*1014 net58
*1015 net59
*1016 net6
*1017 net60
*1018 net61
*1019 net62
*1020 net63
*1021 net64
*1022 net65
*1023 net66
*1024 net67
*1025 net68
*1026 net69
*1027 net7
*1028 net70
*1029 net71
*1030 net72
*1031 net73
*1032 net74
*1033 net75
*1034 net76
*1035 net77
*1036 net78
*1037 net79
*1038 net8
*1039 net80
*1040 net81
*1041 net82
*1042 net83
*1043 net84
*1044 net85
*1045 net86
*1046 net87
*1047 net88
*1048 net89
*1049 net9
*1050 net90
*1051 net91
*1052 net92
*1053 net93
*1054 net94
*1055 net95
*1056 net96
*1057 net97
*1058 net98
*1059 net99
*1060 FILLER_0_105
*1061 FILLER_0_111
*1062 FILLER_0_113
*1063 FILLER_0_118
*1064 FILLER_0_125
*1065 FILLER_0_132
*1066 FILLER_0_139
*1067 FILLER_0_141
*1068 FILLER_0_146
*1069 FILLER_0_15
*1070 FILLER_0_153
*1071 FILLER_0_160
*1072 FILLER_0_167
*1073 FILLER_0_184
*1074 FILLER_0_188
*1075 FILLER_0_195
*1076 FILLER_0_197
*1077 FILLER_0_202
*1078 FILLER_0_209
*1079 FILLER_0_225
*1080 FILLER_0_231
*1081 FILLER_0_238
*1082 FILLER_0_245
*1083 FILLER_0_253
*1084 FILLER_0_266
*1085 FILLER_0_27
*1086 FILLER_0_29
*1087 FILLER_0_3
*1088 FILLER_0_41
*1089 FILLER_0_53
*1090 FILLER_0_57
*1091 FILLER_0_69
*1092 FILLER_0_81
*1093 FILLER_0_85
*1094 FILLER_0_93
*1095 FILLER_0_97
*1096 FILLER_10_108
*1097 FILLER_10_141
*1098 FILLER_10_15
*1099 FILLER_10_189
*1100 FILLER_10_195
*1101 FILLER_10_197
*1102 FILLER_10_207
*1103 FILLER_10_219
*1104 FILLER_10_227
*1105 FILLER_10_235
*1106 FILLER_10_244
*1107 FILLER_10_253
*1108 FILLER_10_259
*1109 FILLER_10_266
*1110 FILLER_10_280
*1111 FILLER_10_29
*1112 FILLER_10_3
*1113 FILLER_10_33
*1114 FILLER_10_70
*1115 FILLER_10_82
*1116 FILLER_10_85
*1117 FILLER_11_107
*1118 FILLER_11_11
*1119 FILLER_11_111
*1120 FILLER_11_113
*1121 FILLER_11_125
*1122 FILLER_11_155
*1123 FILLER_11_193
*1124 FILLER_11_209
*1125 FILLER_11_221
*1126 FILLER_11_225
*1127 FILLER_11_241
*1128 FILLER_11_253
*1129 FILLER_11_259
*1130 FILLER_11_271
*1131 FILLER_11_275
*1132 FILLER_11_281
*1133 FILLER_11_3
*1134 FILLER_11_38
*1135 FILLER_11_42
*1136 FILLER_11_51
*1137 FILLER_11_55
*1138 FILLER_11_76
*1139 FILLER_11_82
*1140 FILLER_12_101
*1141 FILLER_12_110
*1142 FILLER_12_122
*1143 FILLER_12_134
*1144 FILLER_12_141
*1145 FILLER_12_15
*1146 FILLER_12_153
*1147 FILLER_12_159
*1148 FILLER_12_188
*1149 FILLER_12_241
*1150 FILLER_12_249
*1151 FILLER_12_262
*1152 FILLER_12_27
*1153 FILLER_12_280
*1154 FILLER_12_29
*1155 FILLER_12_3
*1156 FILLER_12_41
*1157 FILLER_12_53
*1158 FILLER_12_78
*1159 FILLER_12_97
*1160 FILLER_13_103
*1161 FILLER_13_111
*1162 FILLER_13_113
*1163 FILLER_13_128
*1164 FILLER_13_143
*1165 FILLER_13_15
*1166 FILLER_13_155
*1167 FILLER_13_166
*1168 FILLER_13_176
*1169 FILLER_13_184
*1170 FILLER_13_223
*1171 FILLER_13_254
*1172 FILLER_13_260
*1173 FILLER_13_267
*1174 FILLER_13_281
*1175 FILLER_13_3
*1176 FILLER_13_43
*1177 FILLER_13_55
*1178 FILLER_13_57
*1179 FILLER_13_61
*1180 FILLER_13_86
*1181 FILLER_13_94
*1182 FILLER_14_15
*1183 FILLER_14_151
*1184 FILLER_14_155
*1185 FILLER_14_168
*1186 FILLER_14_180
*1187 FILLER_14_192
*1188 FILLER_14_209
*1189 FILLER_14_221
*1190 FILLER_14_234
*1191 FILLER_14_244
*1192 FILLER_14_253
*1193 FILLER_14_265
*1194 FILLER_14_279
*1195 FILLER_14_3
*1196 FILLER_14_56
*1197 FILLER_14_85
*1198 FILLER_14_96
*1199 FILLER_15_102
*1200 FILLER_15_109
*1201 FILLER_15_113
*1202 FILLER_15_130
*1203 FILLER_15_15
*1204 FILLER_15_150
*1205 FILLER_15_176
*1206 FILLER_15_188
*1207 FILLER_15_196
*1208 FILLER_15_206
*1209 FILLER_15_218
*1210 FILLER_15_237
*1211 FILLER_15_246
*1212 FILLER_15_250
*1213 FILLER_15_258
*1214 FILLER_15_270
*1215 FILLER_15_3
*1216 FILLER_15_39
*1217 FILLER_15_51
*1218 FILLER_15_55
*1219 FILLER_15_57
*1220 FILLER_15_69
*1221 FILLER_15_77
*1222 FILLER_15_87
*1223 FILLER_16_113
*1224 FILLER_16_138
*1225 FILLER_16_141
*1226 FILLER_16_15
*1227 FILLER_16_179
*1228 FILLER_16_194
*1229 FILLER_16_201
*1230 FILLER_16_215
*1231 FILLER_16_251
*1232 FILLER_16_265
*1233 FILLER_16_29
*1234 FILLER_16_3
*1235 FILLER_16_50
*1236 FILLER_16_58
*1237 FILLER_16_71
*1238 FILLER_16_83
*1239 FILLER_16_85
*1240 FILLER_17_111
*1241 FILLER_17_123
*1242 FILLER_17_15
*1243 FILLER_17_151
*1244 FILLER_17_167
*1245 FILLER_17_177
*1246 FILLER_17_192
*1247 FILLER_17_222
*1248 FILLER_17_225
*1249 FILLER_17_23
*1250 FILLER_17_230
*1251 FILLER_17_261
*1252 FILLER_17_281
*1253 FILLER_17_3
*1254 FILLER_17_44
*1255 FILLER_17_80
*1256 FILLER_18_121
*1257 FILLER_18_129
*1258 FILLER_18_139
*1259 FILLER_18_147
*1260 FILLER_18_15
*1261 FILLER_18_159
*1262 FILLER_18_163
*1263 FILLER_18_229
*1264 FILLER_18_239
*1265 FILLER_18_248
*1266 FILLER_18_253
*1267 FILLER_18_27
*1268 FILLER_18_29
*1269 FILLER_18_3
*1270 FILLER_18_41
*1271 FILLER_18_49
*1272 FILLER_18_83
*1273 FILLER_18_85
*1274 FILLER_18_89
*1275 FILLER_19_108
*1276 FILLER_19_113
*1277 FILLER_19_144
*1278 FILLER_19_15
*1279 FILLER_19_156
*1280 FILLER_19_169
*1281 FILLER_19_193
*1282 FILLER_19_208
*1283 FILLER_19_220
*1284 FILLER_19_237
*1285 FILLER_19_255
*1286 FILLER_19_267
*1287 FILLER_19_27
*1288 FILLER_19_281
*1289 FILLER_19_3
*1290 FILLER_19_41
*1291 FILLER_19_53
*1292 FILLER_19_80
*1293 FILLER_19_92
*1294 FILLER_1_107
*1295 FILLER_1_111
*1296 FILLER_1_113
*1297 FILLER_1_117
*1298 FILLER_1_139
*1299 FILLER_1_15
*1300 FILLER_1_162
*1301 FILLER_1_190
*1302 FILLER_1_202
*1303 FILLER_1_216
*1304 FILLER_1_223
*1305 FILLER_1_228
*1306 FILLER_1_236
*1307 FILLER_1_250
*1308 FILLER_1_27
*1309 FILLER_1_3
*1310 FILLER_1_53
*1311 FILLER_1_57
*1312 FILLER_1_65
*1313 FILLER_1_69
*1314 FILLER_1_82
*1315 FILLER_20_115
*1316 FILLER_20_15
*1317 FILLER_20_153
*1318 FILLER_20_165
*1319 FILLER_20_177
*1320 FILLER_20_185
*1321 FILLER_20_195
*1322 FILLER_20_197
*1323 FILLER_20_210
*1324 FILLER_20_251
*1325 FILLER_20_253
*1326 FILLER_20_265
*1327 FILLER_20_27
*1328 FILLER_20_277
*1329 FILLER_20_29
*1330 FILLER_20_3
*1331 FILLER_20_51
*1332 FILLER_20_62
*1333 FILLER_20_68
*1334 FILLER_20_80
*1335 FILLER_20_85
*1336 FILLER_21_107
*1337 FILLER_21_111
*1338 FILLER_21_113
*1339 FILLER_21_121
*1340 FILLER_21_143
*1341 FILLER_21_151
*1342 FILLER_21_166
*1343 FILLER_21_176
*1344 FILLER_21_188
*1345 FILLER_21_196
*1346 FILLER_21_205
*1347 FILLER_21_217
*1348 FILLER_21_223
*1349 FILLER_21_225
*1350 FILLER_21_255
*1351 FILLER_21_267
*1352 FILLER_21_275
*1353 FILLER_21_281
*1354 FILLER_21_3
*1355 FILLER_21_51
*1356 FILLER_21_55
*1357 FILLER_21_64
*1358 FILLER_21_84
*1359 FILLER_21_98
*1360 FILLER_22_107
*1361 FILLER_22_111
*1362 FILLER_22_15
*1363 FILLER_22_185
*1364 FILLER_22_209
*1365 FILLER_22_221
*1366 FILLER_22_225
*1367 FILLER_22_259
*1368 FILLER_22_27
*1369 FILLER_22_271
*1370 FILLER_22_3
*1371 FILLER_22_55
*1372 FILLER_22_63
*1373 FILLER_22_68
*1374 FILLER_22_85
*1375 FILLER_23_101
*1376 FILLER_23_107
*1377 FILLER_23_111
*1378 FILLER_23_146
*1379 FILLER_23_15
*1380 FILLER_23_154
*1381 FILLER_23_181
*1382 FILLER_23_211
*1383 FILLER_23_23
*1384 FILLER_23_261
*1385 FILLER_23_265
*1386 FILLER_23_281
*1387 FILLER_23_3
*1388 FILLER_23_38
*1389 FILLER_23_50
*1390 FILLER_23_57
*1391 FILLER_23_61
*1392 FILLER_23_74
*1393 FILLER_23_93
*1394 FILLER_24_102
*1395 FILLER_24_114
*1396 FILLER_24_136
*1397 FILLER_24_146
*1398 FILLER_24_158
*1399 FILLER_24_175
*1400 FILLER_24_187
*1401 FILLER_24_19
*1402 FILLER_24_195
*1403 FILLER_24_209
*1404 FILLER_24_221
*1405 FILLER_24_225
*1406 FILLER_24_233
*1407 FILLER_24_243
*1408 FILLER_24_247
*1409 FILLER_24_251
*1410 FILLER_24_253
*1411 FILLER_24_265
*1412 FILLER_24_27
*1413 FILLER_24_278
*1414 FILLER_24_29
*1415 FILLER_24_41
*1416 FILLER_24_49
*1417 FILLER_24_7
*1418 FILLER_24_85
*1419 FILLER_24_89
*1420 FILLER_25_107
*1421 FILLER_25_111
*1422 FILLER_25_113
*1423 FILLER_25_141
*1424 FILLER_25_15
*1425 FILLER_25_153
*1426 FILLER_25_165
*1427 FILLER_25_169
*1428 FILLER_25_181
*1429 FILLER_25_185
*1430 FILLER_25_214
*1431 FILLER_25_222
*1432 FILLER_25_225
*1433 FILLER_25_230
*1434 FILLER_25_250
*1435 FILLER_25_262
*1436 FILLER_25_27
*1437 FILLER_25_279
*1438 FILLER_25_281
*1439 FILLER_25_3
*1440 FILLER_25_41
*1441 FILLER_25_53
*1442 FILLER_25_57
*1443 FILLER_25_78
*1444 FILLER_25_86
*1445 FILLER_26_139
*1446 FILLER_26_145
*1447 FILLER_26_15
*1448 FILLER_26_157
*1449 FILLER_26_177
*1450 FILLER_26_189
*1451 FILLER_26_195
*1452 FILLER_26_197
*1453 FILLER_26_212
*1454 FILLER_26_220
*1455 FILLER_26_251
*1456 FILLER_26_253
*1457 FILLER_26_260
*1458 FILLER_26_27
*1459 FILLER_26_3
*1460 FILLER_26_33
*1461 FILLER_26_56
*1462 FILLER_26_65
*1463 FILLER_26_71
*1464 FILLER_26_83
*1465 FILLER_26_85
*1466 FILLER_27_11
*1467 FILLER_27_111
*1468 FILLER_27_113
*1469 FILLER_27_155
*1470 FILLER_27_169
*1471 FILLER_27_173
*1472 FILLER_27_198
*1473 FILLER_27_212
*1474 FILLER_27_249
*1475 FILLER_27_257
*1476 FILLER_27_262
*1477 FILLER_27_267
*1478 FILLER_27_3
*1479 FILLER_27_64
*1480 FILLER_27_71
*1481 FILLER_27_83
*1482 FILLER_28_113
*1483 FILLER_28_133
*1484 FILLER_28_138
*1485 FILLER_28_141
*1486 FILLER_28_148
*1487 FILLER_28_15
*1488 FILLER_28_152
*1489 FILLER_28_175
*1490 FILLER_28_209
*1491 FILLER_28_251
*1492 FILLER_28_260
*1493 FILLER_28_264
*1494 FILLER_28_27
*1495 FILLER_28_279
*1496 FILLER_28_283
*1497 FILLER_28_29
*1498 FILLER_28_3
*1499 FILLER_28_55
*1500 FILLER_28_67
*1501 FILLER_28_73
*1502 FILLER_28_81
*1503 FILLER_28_85
*1504 FILLER_28_89
*1505 FILLER_28_94
*1506 FILLER_28_99
*1507 FILLER_29_116
*1508 FILLER_29_122
*1509 FILLER_29_127
*1510 FILLER_29_134
*1511 FILLER_29_146
*1512 FILLER_29_15
*1513 FILLER_29_154
*1514 FILLER_29_179
*1515 FILLER_29_253
*1516 FILLER_29_27
*1517 FILLER_29_277
*1518 FILLER_29_3
*1519 FILLER_29_47
*1520 FILLER_29_54
*1521 FILLER_29_78
*1522 FILLER_29_84
*1523 FILLER_2_120
*1524 FILLER_2_137
*1525 FILLER_2_141
*1526 FILLER_2_15
*1527 FILLER_2_158
*1528 FILLER_2_169
*1529 FILLER_2_233
*1530 FILLER_2_249
*1531 FILLER_2_27
*1532 FILLER_2_29
*1533 FILLER_2_3
*1534 FILLER_2_67
*1535 FILLER_2_71
*1536 FILLER_2_97
*1537 FILLER_30_117
*1538 FILLER_30_15
*1539 FILLER_30_152
*1540 FILLER_30_185
*1541 FILLER_30_191
*1542 FILLER_30_217
*1543 FILLER_30_221
*1544 FILLER_30_226
*1545 FILLER_30_235
*1546 FILLER_30_256
*1547 FILLER_30_27
*1548 FILLER_30_279
*1549 FILLER_30_283
*1550 FILLER_30_29
*1551 FILLER_30_3
*1552 FILLER_30_41
*1553 FILLER_30_45
*1554 FILLER_30_73
*1555 FILLER_30_97
*1556 FILLER_31_120
*1557 FILLER_31_15
*1558 FILLER_31_167
*1559 FILLER_31_176
*1560 FILLER_31_210
*1561 FILLER_31_222
*1562 FILLER_31_225
*1563 FILLER_31_229
*1564 FILLER_31_254
*1565 FILLER_31_27
*1566 FILLER_31_3
*1567 FILLER_31_39
*1568 FILLER_31_43
*1569 FILLER_32_115
*1570 FILLER_32_141
*1571 FILLER_32_15
*1572 FILLER_32_182
*1573 FILLER_32_190
*1574 FILLER_32_201
*1575 FILLER_32_213
*1576 FILLER_32_225
*1577 FILLER_32_237
*1578 FILLER_32_249
*1579 FILLER_32_253
*1580 FILLER_32_27
*1581 FILLER_32_270
*1582 FILLER_32_29
*1583 FILLER_32_3
*1584 FILLER_32_41
*1585 FILLER_33_113
*1586 FILLER_33_135
*1587 FILLER_33_15
*1588 FILLER_33_158
*1589 FILLER_33_173
*1590 FILLER_33_185
*1591 FILLER_33_211
*1592 FILLER_33_225
*1593 FILLER_33_237
*1594 FILLER_33_249
*1595 FILLER_33_255
*1596 FILLER_33_261
*1597 FILLER_33_27
*1598 FILLER_33_279
*1599 FILLER_33_281
*1600 FILLER_33_3
*1601 FILLER_33_39
*1602 FILLER_33_51
*1603 FILLER_33_55
*1604 FILLER_33_57
*1605 FILLER_33_94
*1606 FILLER_34_103
*1607 FILLER_34_115
*1608 FILLER_34_134
*1609 FILLER_34_141
*1610 FILLER_34_15
*1611 FILLER_34_153
*1612 FILLER_34_160
*1613 FILLER_34_166
*1614 FILLER_34_178
*1615 FILLER_34_190
*1616 FILLER_34_217
*1617 FILLER_34_250
*1618 FILLER_34_253
*1619 FILLER_34_27
*1620 FILLER_34_279
*1621 FILLER_34_29
*1622 FILLER_34_3
*1623 FILLER_34_41
*1624 FILLER_34_53
*1625 FILLER_34_65
*1626 FILLER_34_71
*1627 FILLER_34_83
*1628 FILLER_34_96
*1629 FILLER_35_108
*1630 FILLER_35_113
*1631 FILLER_35_117
*1632 FILLER_35_121
*1633 FILLER_35_137
*1634 FILLER_35_149
*1635 FILLER_35_15
*1636 FILLER_35_160
*1637 FILLER_35_166
*1638 FILLER_35_173
*1639 FILLER_35_185
*1640 FILLER_35_225
*1641 FILLER_35_27
*1642 FILLER_35_281
*1643 FILLER_35_3
*1644 FILLER_35_39
*1645 FILLER_35_51
*1646 FILLER_35_55
*1647 FILLER_35_57
*1648 FILLER_35_69
*1649 FILLER_35_81
*1650 FILLER_35_96
*1651 FILLER_36_105
*1652 FILLER_36_138
*1653 FILLER_36_15
*1654 FILLER_36_153
*1655 FILLER_36_159
*1656 FILLER_36_180
*1657 FILLER_36_194
*1658 FILLER_36_204
*1659 FILLER_36_250
*1660 FILLER_36_27
*1661 FILLER_36_270
*1662 FILLER_36_282
*1663 FILLER_36_29
*1664 FILLER_36_3
*1665 FILLER_36_41
*1666 FILLER_36_53
*1667 FILLER_36_65
*1668 FILLER_36_77
*1669 FILLER_36_83
*1670 FILLER_36_85
*1671 FILLER_37_113
*1672 FILLER_37_138
*1673 FILLER_37_15
*1674 FILLER_37_166
*1675 FILLER_37_210
*1676 FILLER_37_27
*1677 FILLER_37_279
*1678 FILLER_37_281
*1679 FILLER_37_3
*1680 FILLER_37_39
*1681 FILLER_37_51
*1682 FILLER_37_55
*1683 FILLER_37_57
*1684 FILLER_37_69
*1685 FILLER_38_141
*1686 FILLER_38_149
*1687 FILLER_38_15
*1688 FILLER_38_156
*1689 FILLER_38_176
*1690 FILLER_38_186
*1691 FILLER_38_212
*1692 FILLER_38_251
*1693 FILLER_38_27
*1694 FILLER_38_273
*1695 FILLER_38_29
*1696 FILLER_38_3
*1697 FILLER_38_41
*1698 FILLER_38_53
*1699 FILLER_38_65
*1700 FILLER_38_77
*1701 FILLER_38_83
*1702 FILLER_38_85
*1703 FILLER_39_104
*1704 FILLER_39_136
*1705 FILLER_39_148
*1706 FILLER_39_15
*1707 FILLER_39_162
*1708 FILLER_39_167
*1709 FILLER_39_172
*1710 FILLER_39_205
*1711 FILLER_39_212
*1712 FILLER_39_249
*1713 FILLER_39_260
*1714 FILLER_39_268
*1715 FILLER_39_27
*1716 FILLER_39_277
*1717 FILLER_39_3
*1718 FILLER_39_39
*1719 FILLER_39_51
*1720 FILLER_39_55
*1721 FILLER_39_57
*1722 FILLER_39_69
*1723 FILLER_39_81
*1724 FILLER_39_93
*1725 FILLER_39_97
*1726 FILLER_3_113
*1727 FILLER_3_140
*1728 FILLER_3_15
*1729 FILLER_3_165
*1730 FILLER_3_169
*1731 FILLER_3_223
*1732 FILLER_3_228
*1733 FILLER_3_232
*1734 FILLER_3_255
*1735 FILLER_3_3
*1736 FILLER_3_35
*1737 FILLER_3_77
*1738 FILLER_40_109
*1739 FILLER_40_121
*1740 FILLER_40_133
*1741 FILLER_40_139
*1742 FILLER_40_141
*1743 FILLER_40_149
*1744 FILLER_40_15
*1745 FILLER_40_178
*1746 FILLER_40_190
*1747 FILLER_40_197
*1748 FILLER_40_246
*1749 FILLER_40_253
*1750 FILLER_40_266
*1751 FILLER_40_27
*1752 FILLER_40_29
*1753 FILLER_40_3
*1754 FILLER_40_41
*1755 FILLER_40_53
*1756 FILLER_40_65
*1757 FILLER_40_77
*1758 FILLER_40_83
*1759 FILLER_40_85
*1760 FILLER_40_97
*1761 FILLER_41_105
*1762 FILLER_41_111
*1763 FILLER_41_113
*1764 FILLER_41_125
*1765 FILLER_41_133
*1766 FILLER_41_15
*1767 FILLER_41_152
*1768 FILLER_41_167
*1769 FILLER_41_178
*1770 FILLER_41_186
*1771 FILLER_41_236
*1772 FILLER_41_248
*1773 FILLER_41_27
*1774 FILLER_41_270
*1775 FILLER_41_3
*1776 FILLER_41_39
*1777 FILLER_41_51
*1778 FILLER_41_55
*1779 FILLER_41_57
*1780 FILLER_41_69
*1781 FILLER_41_81
*1782 FILLER_41_93
*1783 FILLER_42_109
*1784 FILLER_42_117
*1785 FILLER_42_138
*1786 FILLER_42_15
*1787 FILLER_42_166
*1788 FILLER_42_171
*1789 FILLER_42_183
*1790 FILLER_42_239
*1791 FILLER_42_247
*1792 FILLER_42_27
*1793 FILLER_42_29
*1794 FILLER_42_3
*1795 FILLER_42_41
*1796 FILLER_42_53
*1797 FILLER_42_65
*1798 FILLER_42_77
*1799 FILLER_42_83
*1800 FILLER_42_85
*1801 FILLER_42_97
*1802 FILLER_43_105
*1803 FILLER_43_111
*1804 FILLER_43_113
*1805 FILLER_43_136
*1806 FILLER_43_15
*1807 FILLER_43_176
*1808 FILLER_43_185
*1809 FILLER_43_208
*1810 FILLER_43_243
*1811 FILLER_43_251
*1812 FILLER_43_27
*1813 FILLER_43_278
*1814 FILLER_43_3
*1815 FILLER_43_39
*1816 FILLER_43_51
*1817 FILLER_43_55
*1818 FILLER_43_57
*1819 FILLER_43_69
*1820 FILLER_43_81
*1821 FILLER_43_93
*1822 FILLER_44_109
*1823 FILLER_44_115
*1824 FILLER_44_136
*1825 FILLER_44_15
*1826 FILLER_44_175
*1827 FILLER_44_187
*1828 FILLER_44_215
*1829 FILLER_44_27
*1830 FILLER_44_29
*1831 FILLER_44_3
*1832 FILLER_44_41
*1833 FILLER_44_53
*1834 FILLER_44_65
*1835 FILLER_44_77
*1836 FILLER_44_83
*1837 FILLER_44_85
*1838 FILLER_44_97
*1839 FILLER_45_108
*1840 FILLER_45_113
*1841 FILLER_45_125
*1842 FILLER_45_15
*1843 FILLER_45_154
*1844 FILLER_45_169
*1845 FILLER_45_178
*1846 FILLER_45_193
*1847 FILLER_45_217
*1848 FILLER_45_248
*1849 FILLER_45_27
*1850 FILLER_45_3
*1851 FILLER_45_39
*1852 FILLER_45_51
*1853 FILLER_45_55
*1854 FILLER_45_57
*1855 FILLER_45_69
*1856 FILLER_45_81
*1857 FILLER_45_96
*1858 FILLER_46_109
*1859 FILLER_46_115
*1860 FILLER_46_134
*1861 FILLER_46_15
*1862 FILLER_46_155
*1863 FILLER_46_164
*1864 FILLER_46_194
*1865 FILLER_46_197
*1866 FILLER_46_208
*1867 FILLER_46_216
*1868 FILLER_46_224
*1869 FILLER_46_228
*1870 FILLER_46_238
*1871 FILLER_46_250
*1872 FILLER_46_27
*1873 FILLER_46_29
*1874 FILLER_46_3
*1875 FILLER_46_41
*1876 FILLER_46_53
*1877 FILLER_46_65
*1878 FILLER_46_77
*1879 FILLER_46_83
*1880 FILLER_46_85
*1881 FILLER_46_97
*1882 FILLER_47_104
*1883 FILLER_47_111
*1884 FILLER_47_113
*1885 FILLER_47_118
*1886 FILLER_47_126
*1887 FILLER_47_132
*1888 FILLER_47_139
*1889 FILLER_47_141
*1890 FILLER_47_147
*1891 FILLER_47_15
*1892 FILLER_47_153
*1893 FILLER_47_160
*1894 FILLER_47_169
*1895 FILLER_47_175
*1896 FILLER_47_191
*1897 FILLER_47_195
*1898 FILLER_47_197
*1899 FILLER_47_202
*1900 FILLER_47_209
*1901 FILLER_47_223
*1902 FILLER_47_269
*1903 FILLER_47_27
*1904 FILLER_47_29
*1905 FILLER_47_3
*1906 FILLER_47_41
*1907 FILLER_47_53
*1908 FILLER_47_57
*1909 FILLER_47_62
*1910 FILLER_47_69
*1911 FILLER_47_76
*1912 FILLER_47_85
*1913 FILLER_47_91
*1914 FILLER_47_99
*1915 FILLER_4_141
*1916 FILLER_4_15
*1917 FILLER_4_172
*1918 FILLER_4_193
*1919 FILLER_4_251
*1920 FILLER_4_258
*1921 FILLER_4_262
*1922 FILLER_4_3
*1923 FILLER_4_36
*1924 FILLER_4_50
*1925 FILLER_4_61
*1926 FILLER_4_92
*1927 FILLER_5_100
*1928 FILLER_5_113
*1929 FILLER_5_15
*1930 FILLER_5_164
*1931 FILLER_5_169
*1932 FILLER_5_190
*1933 FILLER_5_194
*1934 FILLER_5_221
*1935 FILLER_5_257
*1936 FILLER_5_261
*1937 FILLER_5_3
*1938 FILLER_5_41
*1939 FILLER_5_57
*1940 FILLER_5_69
*1941 FILLER_5_81
*1942 FILLER_5_87
*1943 FILLER_6_101
*1944 FILLER_6_113
*1945 FILLER_6_135
*1946 FILLER_6_139
*1947 FILLER_6_141
*1948 FILLER_6_149
*1949 FILLER_6_15
*1950 FILLER_6_171
*1951 FILLER_6_183
*1952 FILLER_6_195
*1953 FILLER_6_197
*1954 FILLER_6_205
*1955 FILLER_6_219
*1956 FILLER_6_231
*1957 FILLER_6_244
*1958 FILLER_6_253
*1959 FILLER_6_265
*1960 FILLER_6_280
*1961 FILLER_6_3
*1962 FILLER_6_56
*1963 FILLER_6_68
*1964 FILLER_6_82
*1965 FILLER_6_85
*1966 FILLER_6_93
*1967 FILLER_7_105
*1968 FILLER_7_111
*1969 FILLER_7_113
*1970 FILLER_7_141
*1971 FILLER_7_15
*1972 FILLER_7_153
*1973 FILLER_7_165
*1974 FILLER_7_169
*1975 FILLER_7_181
*1976 FILLER_7_187
*1977 FILLER_7_208
*1978 FILLER_7_220
*1979 FILLER_7_225
*1980 FILLER_7_237
*1981 FILLER_7_249
*1982 FILLER_7_261
*1983 FILLER_7_27
*1984 FILLER_7_281
*1985 FILLER_7_3
*1986 FILLER_7_39
*1987 FILLER_7_51
*1988 FILLER_7_55
*1989 FILLER_7_57
*1990 FILLER_7_93
*1991 FILLER_8_107
*1992 FILLER_8_121
*1993 FILLER_8_138
*1994 FILLER_8_148
*1995 FILLER_8_15
*1996 FILLER_8_160
*1997 FILLER_8_172
*1998 FILLER_8_209
*1999 FILLER_8_221
*2000 FILLER_8_225
*2001 FILLER_8_238
*2002 FILLER_8_251
*2003 FILLER_8_253
*2004 FILLER_8_267
*2005 FILLER_8_27
*2006 FILLER_8_280
*2007 FILLER_8_29
*2008 FILLER_8_3
*2009 FILLER_8_40
*2010 FILLER_8_52
*2011 FILLER_8_60
*2012 FILLER_8_82
*2013 FILLER_8_85
*2014 FILLER_8_99
*2015 FILLER_9_108
*2016 FILLER_9_113
*2017 FILLER_9_121
*2018 FILLER_9_138
*2019 FILLER_9_15
*2020 FILLER_9_169
*2021 FILLER_9_181
*2022 FILLER_9_208
*2023 FILLER_9_254
*2024 FILLER_9_260
*2025 FILLER_9_273
*2026 FILLER_9_281
*2027 FILLER_9_3
*2028 FILLER_9_40
*2029 FILLER_9_55
*2030 FILLER_9_64
*2031 FILLER_9_76
*2032 PHY_EDGE_ROW_0_Left_48
*2033 PHY_EDGE_ROW_0_Right_0
*2034 PHY_EDGE_ROW_10_Left_58
*2035 PHY_EDGE_ROW_10_Right_10
*2036 PHY_EDGE_ROW_11_Left_59
*2037 PHY_EDGE_ROW_11_Right_11
*2038 PHY_EDGE_ROW_12_Left_60
*2039 PHY_EDGE_ROW_12_Right_12
*2040 PHY_EDGE_ROW_13_Left_61
*2041 PHY_EDGE_ROW_13_Right_13
*2042 PHY_EDGE_ROW_14_Left_62
*2043 PHY_EDGE_ROW_14_Right_14
*2044 PHY_EDGE_ROW_15_Left_63
*2045 PHY_EDGE_ROW_15_Right_15
*2046 PHY_EDGE_ROW_16_Left_64
*2047 PHY_EDGE_ROW_16_Right_16
*2048 PHY_EDGE_ROW_17_Left_65
*2049 PHY_EDGE_ROW_17_Right_17
*2050 PHY_EDGE_ROW_18_Left_66
*2051 PHY_EDGE_ROW_18_Right_18
*2052 PHY_EDGE_ROW_19_Left_67
*2053 PHY_EDGE_ROW_19_Right_19
*2054 PHY_EDGE_ROW_1_Left_49
*2055 PHY_EDGE_ROW_1_Right_1
*2056 PHY_EDGE_ROW_20_Left_68
*2057 PHY_EDGE_ROW_20_Right_20
*2058 PHY_EDGE_ROW_21_Left_69
*2059 PHY_EDGE_ROW_21_Right_21
*2060 PHY_EDGE_ROW_22_Left_70
*2061 PHY_EDGE_ROW_22_Right_22
*2062 PHY_EDGE_ROW_23_Left_71
*2063 PHY_EDGE_ROW_23_Right_23
*2064 PHY_EDGE_ROW_24_Left_72
*2065 PHY_EDGE_ROW_24_Right_24
*2066 PHY_EDGE_ROW_25_Left_73
*2067 PHY_EDGE_ROW_25_Right_25
*2068 PHY_EDGE_ROW_26_Left_74
*2069 PHY_EDGE_ROW_26_Right_26
*2070 PHY_EDGE_ROW_27_Left_75
*2071 PHY_EDGE_ROW_27_Right_27
*2072 PHY_EDGE_ROW_28_Left_76
*2073 PHY_EDGE_ROW_28_Right_28
*2074 PHY_EDGE_ROW_29_Left_77
*2075 PHY_EDGE_ROW_29_Right_29
*2076 PHY_EDGE_ROW_2_Left_50
*2077 PHY_EDGE_ROW_2_Right_2
*2078 PHY_EDGE_ROW_30_Left_78
*2079 PHY_EDGE_ROW_30_Right_30
*2080 PHY_EDGE_ROW_31_Left_79
*2081 PHY_EDGE_ROW_31_Right_31
*2082 PHY_EDGE_ROW_32_Left_80
*2083 PHY_EDGE_ROW_32_Right_32
*2084 PHY_EDGE_ROW_33_Left_81
*2085 PHY_EDGE_ROW_33_Right_33
*2086 PHY_EDGE_ROW_34_Left_82
*2087 PHY_EDGE_ROW_34_Right_34
*2088 PHY_EDGE_ROW_35_Left_83
*2089 PHY_EDGE_ROW_35_Right_35
*2090 PHY_EDGE_ROW_36_Left_84
*2091 PHY_EDGE_ROW_36_Right_36
*2092 PHY_EDGE_ROW_37_Left_85
*2093 PHY_EDGE_ROW_37_Right_37
*2094 PHY_EDGE_ROW_38_Left_86
*2095 PHY_EDGE_ROW_38_Right_38
*2096 PHY_EDGE_ROW_39_Left_87
*2097 PHY_EDGE_ROW_39_Right_39
*2098 PHY_EDGE_ROW_3_Left_51
*2099 PHY_EDGE_ROW_3_Right_3
*2100 PHY_EDGE_ROW_40_Left_88
*2101 PHY_EDGE_ROW_40_Right_40
*2102 PHY_EDGE_ROW_41_Left_89
*2103 PHY_EDGE_ROW_41_Right_41
*2104 PHY_EDGE_ROW_42_Left_90
*2105 PHY_EDGE_ROW_42_Right_42
*2106 PHY_EDGE_ROW_43_Left_91
*2107 PHY_EDGE_ROW_43_Right_43
*2108 PHY_EDGE_ROW_44_Left_92
*2109 PHY_EDGE_ROW_44_Right_44
*2110 PHY_EDGE_ROW_45_Left_93
*2111 PHY_EDGE_ROW_45_Right_45
*2112 PHY_EDGE_ROW_46_Left_94
*2113 PHY_EDGE_ROW_46_Right_46
*2114 PHY_EDGE_ROW_47_Left_95
*2115 PHY_EDGE_ROW_47_Right_47
*2116 PHY_EDGE_ROW_4_Left_52
*2117 PHY_EDGE_ROW_4_Right_4
*2118 PHY_EDGE_ROW_5_Left_53
*2119 PHY_EDGE_ROW_5_Right_5
*2120 PHY_EDGE_ROW_6_Left_54
*2121 PHY_EDGE_ROW_6_Right_6
*2122 PHY_EDGE_ROW_7_Left_55
*2123 PHY_EDGE_ROW_7_Right_7
*2124 PHY_EDGE_ROW_8_Left_56
*2125 PHY_EDGE_ROW_8_Right_8
*2126 PHY_EDGE_ROW_9_Left_57
*2127 PHY_EDGE_ROW_9_Right_9
*2128 TAP_TAPCELL_ROW_0_100
*2129 TAP_TAPCELL_ROW_0_101
*2130 TAP_TAPCELL_ROW_0_102
*2131 TAP_TAPCELL_ROW_0_103
*2132 TAP_TAPCELL_ROW_0_104
*2133 TAP_TAPCELL_ROW_0_105
*2134 TAP_TAPCELL_ROW_0_96
*2135 TAP_TAPCELL_ROW_0_97
*2136 TAP_TAPCELL_ROW_0_98
*2137 TAP_TAPCELL_ROW_0_99
*2138 TAP_TAPCELL_ROW_10_151
*2139 TAP_TAPCELL_ROW_10_152
*2140 TAP_TAPCELL_ROW_10_153
*2141 TAP_TAPCELL_ROW_10_154
*2142 TAP_TAPCELL_ROW_10_155
*2143 TAP_TAPCELL_ROW_11_156
*2144 TAP_TAPCELL_ROW_11_157
*2145 TAP_TAPCELL_ROW_11_158
*2146 TAP_TAPCELL_ROW_11_159
*2147 TAP_TAPCELL_ROW_11_160
*2148 TAP_TAPCELL_ROW_12_161
*2149 TAP_TAPCELL_ROW_12_162
*2150 TAP_TAPCELL_ROW_12_163
*2151 TAP_TAPCELL_ROW_12_164
*2152 TAP_TAPCELL_ROW_12_165
*2153 TAP_TAPCELL_ROW_13_166
*2154 TAP_TAPCELL_ROW_13_167
*2155 TAP_TAPCELL_ROW_13_168
*2156 TAP_TAPCELL_ROW_13_169
*2157 TAP_TAPCELL_ROW_13_170
*2158 TAP_TAPCELL_ROW_14_171
*2159 TAP_TAPCELL_ROW_14_172
*2160 TAP_TAPCELL_ROW_14_173
*2161 TAP_TAPCELL_ROW_14_174
*2162 TAP_TAPCELL_ROW_14_175
*2163 TAP_TAPCELL_ROW_15_176
*2164 TAP_TAPCELL_ROW_15_177
*2165 TAP_TAPCELL_ROW_15_178
*2166 TAP_TAPCELL_ROW_15_179
*2167 TAP_TAPCELL_ROW_15_180
*2168 TAP_TAPCELL_ROW_16_181
*2169 TAP_TAPCELL_ROW_16_182
*2170 TAP_TAPCELL_ROW_16_183
*2171 TAP_TAPCELL_ROW_16_184
*2172 TAP_TAPCELL_ROW_16_185
*2173 TAP_TAPCELL_ROW_17_186
*2174 TAP_TAPCELL_ROW_17_187
*2175 TAP_TAPCELL_ROW_17_188
*2176 TAP_TAPCELL_ROW_17_189
*2177 TAP_TAPCELL_ROW_17_190
*2178 TAP_TAPCELL_ROW_18_191
*2179 TAP_TAPCELL_ROW_18_192
*2180 TAP_TAPCELL_ROW_18_193
*2181 TAP_TAPCELL_ROW_18_194
*2182 TAP_TAPCELL_ROW_18_195
*2183 TAP_TAPCELL_ROW_19_196
*2184 TAP_TAPCELL_ROW_19_197
*2185 TAP_TAPCELL_ROW_19_198
*2186 TAP_TAPCELL_ROW_19_199
*2187 TAP_TAPCELL_ROW_19_200
*2188 TAP_TAPCELL_ROW_1_106
*2189 TAP_TAPCELL_ROW_1_107
*2190 TAP_TAPCELL_ROW_1_108
*2191 TAP_TAPCELL_ROW_1_109
*2192 TAP_TAPCELL_ROW_1_110
*2193 TAP_TAPCELL_ROW_20_201
*2194 TAP_TAPCELL_ROW_20_202
*2195 TAP_TAPCELL_ROW_20_203
*2196 TAP_TAPCELL_ROW_20_204
*2197 TAP_TAPCELL_ROW_20_205
*2198 TAP_TAPCELL_ROW_21_206
*2199 TAP_TAPCELL_ROW_21_207
*2200 TAP_TAPCELL_ROW_21_208
*2201 TAP_TAPCELL_ROW_21_209
*2202 TAP_TAPCELL_ROW_21_210
*2203 TAP_TAPCELL_ROW_22_211
*2204 TAP_TAPCELL_ROW_22_212
*2205 TAP_TAPCELL_ROW_22_213
*2206 TAP_TAPCELL_ROW_22_214
*2207 TAP_TAPCELL_ROW_22_215
*2208 TAP_TAPCELL_ROW_23_216
*2209 TAP_TAPCELL_ROW_23_217
*2210 TAP_TAPCELL_ROW_23_218
*2211 TAP_TAPCELL_ROW_23_219
*2212 TAP_TAPCELL_ROW_23_220
*2213 TAP_TAPCELL_ROW_24_221
*2214 TAP_TAPCELL_ROW_24_222
*2215 TAP_TAPCELL_ROW_24_223
*2216 TAP_TAPCELL_ROW_24_224
*2217 TAP_TAPCELL_ROW_24_225
*2218 TAP_TAPCELL_ROW_25_226
*2219 TAP_TAPCELL_ROW_25_227
*2220 TAP_TAPCELL_ROW_25_228
*2221 TAP_TAPCELL_ROW_25_229
*2222 TAP_TAPCELL_ROW_25_230
*2223 TAP_TAPCELL_ROW_26_231
*2224 TAP_TAPCELL_ROW_26_232
*2225 TAP_TAPCELL_ROW_26_233
*2226 TAP_TAPCELL_ROW_26_234
*2227 TAP_TAPCELL_ROW_26_235
*2228 TAP_TAPCELL_ROW_27_236
*2229 TAP_TAPCELL_ROW_27_237
*2230 TAP_TAPCELL_ROW_27_238
*2231 TAP_TAPCELL_ROW_27_239
*2232 TAP_TAPCELL_ROW_27_240
*2233 TAP_TAPCELL_ROW_28_241
*2234 TAP_TAPCELL_ROW_28_242
*2235 TAP_TAPCELL_ROW_28_243
*2236 TAP_TAPCELL_ROW_28_244
*2237 TAP_TAPCELL_ROW_28_245
*2238 TAP_TAPCELL_ROW_29_246
*2239 TAP_TAPCELL_ROW_29_247
*2240 TAP_TAPCELL_ROW_29_248
*2241 TAP_TAPCELL_ROW_29_249
*2242 TAP_TAPCELL_ROW_29_250
*2243 TAP_TAPCELL_ROW_2_111
*2244 TAP_TAPCELL_ROW_2_112
*2245 TAP_TAPCELL_ROW_2_113
*2246 TAP_TAPCELL_ROW_2_114
*2247 TAP_TAPCELL_ROW_2_115
*2248 TAP_TAPCELL_ROW_30_251
*2249 TAP_TAPCELL_ROW_30_252
*2250 TAP_TAPCELL_ROW_30_253
*2251 TAP_TAPCELL_ROW_30_254
*2252 TAP_TAPCELL_ROW_30_255
*2253 TAP_TAPCELL_ROW_31_256
*2254 TAP_TAPCELL_ROW_31_257
*2255 TAP_TAPCELL_ROW_31_258
*2256 TAP_TAPCELL_ROW_31_259
*2257 TAP_TAPCELL_ROW_31_260
*2258 TAP_TAPCELL_ROW_32_261
*2259 TAP_TAPCELL_ROW_32_262
*2260 TAP_TAPCELL_ROW_32_263
*2261 TAP_TAPCELL_ROW_32_264
*2262 TAP_TAPCELL_ROW_32_265
*2263 TAP_TAPCELL_ROW_33_266
*2264 TAP_TAPCELL_ROW_33_267
*2265 TAP_TAPCELL_ROW_33_268
*2266 TAP_TAPCELL_ROW_33_269
*2267 TAP_TAPCELL_ROW_33_270
*2268 TAP_TAPCELL_ROW_34_271
*2269 TAP_TAPCELL_ROW_34_272
*2270 TAP_TAPCELL_ROW_34_273
*2271 TAP_TAPCELL_ROW_34_274
*2272 TAP_TAPCELL_ROW_34_275
*2273 TAP_TAPCELL_ROW_35_276
*2274 TAP_TAPCELL_ROW_35_277
*2275 TAP_TAPCELL_ROW_35_278
*2276 TAP_TAPCELL_ROW_35_279
*2277 TAP_TAPCELL_ROW_35_280
*2278 TAP_TAPCELL_ROW_36_281
*2279 TAP_TAPCELL_ROW_36_282
*2280 TAP_TAPCELL_ROW_36_283
*2281 TAP_TAPCELL_ROW_36_284
*2282 TAP_TAPCELL_ROW_36_285
*2283 TAP_TAPCELL_ROW_37_286
*2284 TAP_TAPCELL_ROW_37_287
*2285 TAP_TAPCELL_ROW_37_288
*2286 TAP_TAPCELL_ROW_37_289
*2287 TAP_TAPCELL_ROW_37_290
*2288 TAP_TAPCELL_ROW_38_291
*2289 TAP_TAPCELL_ROW_38_292
*2290 TAP_TAPCELL_ROW_38_293
*2291 TAP_TAPCELL_ROW_38_294
*2292 TAP_TAPCELL_ROW_38_295
*2293 TAP_TAPCELL_ROW_39_296
*2294 TAP_TAPCELL_ROW_39_297
*2295 TAP_TAPCELL_ROW_39_298
*2296 TAP_TAPCELL_ROW_39_299
*2297 TAP_TAPCELL_ROW_39_300
*2298 TAP_TAPCELL_ROW_3_116
*2299 TAP_TAPCELL_ROW_3_117
*2300 TAP_TAPCELL_ROW_3_118
*2301 TAP_TAPCELL_ROW_3_119
*2302 TAP_TAPCELL_ROW_3_120
*2303 TAP_TAPCELL_ROW_40_301
*2304 TAP_TAPCELL_ROW_40_302
*2305 TAP_TAPCELL_ROW_40_303
*2306 TAP_TAPCELL_ROW_40_304
*2307 TAP_TAPCELL_ROW_40_305
*2308 TAP_TAPCELL_ROW_41_306
*2309 TAP_TAPCELL_ROW_41_307
*2310 TAP_TAPCELL_ROW_41_308
*2311 TAP_TAPCELL_ROW_41_309
*2312 TAP_TAPCELL_ROW_41_310
*2313 TAP_TAPCELL_ROW_42_311
*2314 TAP_TAPCELL_ROW_42_312
*2315 TAP_TAPCELL_ROW_42_313
*2316 TAP_TAPCELL_ROW_42_314
*2317 TAP_TAPCELL_ROW_42_315
*2318 TAP_TAPCELL_ROW_43_316
*2319 TAP_TAPCELL_ROW_43_317
*2320 TAP_TAPCELL_ROW_43_318
*2321 TAP_TAPCELL_ROW_43_319
*2322 TAP_TAPCELL_ROW_43_320
*2323 TAP_TAPCELL_ROW_44_321
*2324 TAP_TAPCELL_ROW_44_322
*2325 TAP_TAPCELL_ROW_44_323
*2326 TAP_TAPCELL_ROW_44_324
*2327 TAP_TAPCELL_ROW_44_325
*2328 TAP_TAPCELL_ROW_45_326
*2329 TAP_TAPCELL_ROW_45_327
*2330 TAP_TAPCELL_ROW_45_328
*2331 TAP_TAPCELL_ROW_45_329
*2332 TAP_TAPCELL_ROW_45_330
*2333 TAP_TAPCELL_ROW_46_331
*2334 TAP_TAPCELL_ROW_46_332
*2335 TAP_TAPCELL_ROW_46_333
*2336 TAP_TAPCELL_ROW_46_334
*2337 TAP_TAPCELL_ROW_46_335
*2338 TAP_TAPCELL_ROW_47_336
*2339 TAP_TAPCELL_ROW_47_337
*2340 TAP_TAPCELL_ROW_47_338
*2341 TAP_TAPCELL_ROW_47_339
*2342 TAP_TAPCELL_ROW_47_340
*2343 TAP_TAPCELL_ROW_47_341
*2344 TAP_TAPCELL_ROW_47_342
*2345 TAP_TAPCELL_ROW_47_343
*2346 TAP_TAPCELL_ROW_47_344
*2347 TAP_TAPCELL_ROW_47_345
*2348 TAP_TAPCELL_ROW_4_121
*2349 TAP_TAPCELL_ROW_4_122
*2350 TAP_TAPCELL_ROW_4_123
*2351 TAP_TAPCELL_ROW_4_124
*2352 TAP_TAPCELL_ROW_4_125
*2353 TAP_TAPCELL_ROW_5_126
*2354 TAP_TAPCELL_ROW_5_127
*2355 TAP_TAPCELL_ROW_5_128
*2356 TAP_TAPCELL_ROW_5_129
*2357 TAP_TAPCELL_ROW_5_130
*2358 TAP_TAPCELL_ROW_6_131
*2359 TAP_TAPCELL_ROW_6_132
*2360 TAP_TAPCELL_ROW_6_133
*2361 TAP_TAPCELL_ROW_6_134
*2362 TAP_TAPCELL_ROW_6_135
*2363 TAP_TAPCELL_ROW_7_136
*2364 TAP_TAPCELL_ROW_7_137
*2365 TAP_TAPCELL_ROW_7_138
*2366 TAP_TAPCELL_ROW_7_139
*2367 TAP_TAPCELL_ROW_7_140
*2368 TAP_TAPCELL_ROW_8_141
*2369 TAP_TAPCELL_ROW_8_142
*2370 TAP_TAPCELL_ROW_8_143
*2371 TAP_TAPCELL_ROW_8_144
*2372 TAP_TAPCELL_ROW_8_145
*2373 TAP_TAPCELL_ROW_9_146
*2374 TAP_TAPCELL_ROW_9_147
*2375 TAP_TAPCELL_ROW_9_148
*2376 TAP_TAPCELL_ROW_9_149
*2377 TAP_TAPCELL_ROW_9_150
*2378 _0390_
*2379 _0391_
*2380 _0392_
*2381 _0393_
*2382 _0394_
*2383 _0395_
*2384 _0396_
*2385 _0397_
*2386 _0398_
*2387 _0399_
*2388 _0400_
*2389 _0401_
*2390 _0402_
*2391 _0403_
*2392 _0404_
*2393 _0405_
*2394 _0406_
*2395 _0407_
*2396 _0408_
*2397 _0409_
*2398 _0410_
*2399 _0411_
*2400 _0412_
*2401 _0413_
*2402 _0414_
*2403 _0415_
*2404 _0416_
*2405 _0417_
*2406 _0418_
*2407 _0419_
*2408 _0420_
*2409 _0421_
*2410 _0422_
*2411 _0423_
*2412 _0424_
*2413 _0425_
*2414 _0426_
*2415 _0427_
*2416 _0428_
*2417 _0429_
*2418 _0430_
*2419 _0431_
*2420 _0432_
*2421 _0433_
*2422 _0434_
*2423 _0435_
*2424 _0436_
*2425 _0437_
*2426 _0438_
*2427 _0439_
*2428 _0440_
*2429 _0441_
*2430 _0442_
*2431 _0443_
*2432 _0444_
*2433 _0445_
*2434 _0446_
*2435 _0447_
*2436 _0448_
*2437 _0449_
*2438 _0450_
*2439 _0451_
*2440 _0452_
*2441 _0453_
*2442 _0454_
*2443 _0455_
*2444 _0456_
*2445 _0457_
*2446 _0458_
*2447 _0459_
*2448 _0460_
*2449 _0461_
*2450 _0462_
*2451 _0463_
*2452 _0464_
*2453 _0465_
*2454 _0466_
*2455 _0467_
*2456 _0468_
*2457 _0469_
*2458 _0470_
*2459 _0471_
*2460 _0472_
*2461 _0473_
*2462 _0474_
*2463 _0475_
*2464 _0476_
*2465 _0477_
*2466 _0478_
*2467 _0479_
*2468 _0480_
*2469 _0481_
*2470 _0482_
*2471 _0483_
*2472 _0484_
*2473 _0485_
*2474 _0486_
*2475 _0487_
*2476 _0488_
*2477 _0489_
*2478 _0490_
*2479 _0491_
*2480 _0492_
*2481 _0493_
*2482 _0494_
*2483 _0495_
*2484 _0496_
*2485 _0497_
*2486 _0498_
*2487 _0499_
*2488 _0500_
*2489 _0501_
*2490 _0502_
*2491 _0503_
*2492 _0504_
*2493 _0505_
*2494 _0506_
*2495 _0507_
*2496 _0508_
*2497 _0509_
*2498 _0510_
*2499 _0511_
*2500 _0512_
*2501 _0513_
*2502 _0514_
*2503 _0515_
*2504 _0516_
*2505 _0517_
*2506 _0518_
*2507 _0519_
*2508 _0520_
*2509 _0521_
*2510 _0522_
*2511 _0523_
*2512 _0524_
*2513 _0525_
*2514 _0526_
*2515 _0527_
*2516 _0528_
*2517 _0529_
*2518 _0530_
*2519 _0531_
*2520 _0532_
*2521 _0533_
*2522 _0534_
*2523 _0535_
*2524 _0536_
*2525 _0537_
*2526 _0538_
*2527 _0539_
*2528 _0540_
*2529 _0541_
*2530 _0542_
*2531 _0543_
*2532 _0544_
*2533 _0545_
*2534 _0546_
*2535 _0547_
*2536 _0548_
*2537 _0549_
*2538 _0550_
*2539 _0551_
*2540 _0552_
*2541 _0553_
*2542 _0554_
*2543 _0555_
*2544 _0556_
*2545 _0557_
*2546 _0558_
*2547 _0559_
*2548 _0560_
*2549 _0561_
*2550 _0562_
*2551 _0563_
*2552 _0564_
*2553 _0565_
*2554 _0566_
*2555 _0567_
*2556 _0568_
*2557 _0569_
*2558 _0570_
*2559 _0571_
*2560 _0572_
*2561 _0573_
*2562 _0574_
*2563 _0575_
*2564 _0576_
*2565 _0577_
*2566 _0578_
*2567 _0579_
*2568 _0580_
*2569 _0581_
*2570 _0582_
*2571 _0583_
*2572 _0584_
*2573 _0585_
*2574 _0586_
*2575 _0587_
*2576 _0588_
*2577 _0589_
*2578 _0590_
*2579 _0591_
*2580 _0592_
*2581 _0593_
*2582 _0594_
*2583 _0595_
*2584 _0596_
*2585 _0597_
*2586 _0598_
*2587 _0599_
*2588 _0600_
*2589 _0601_
*2590 _0602_
*2591 _0603_
*2592 _0604_
*2593 _0605_
*2594 _0606_
*2595 _0607_
*2596 _0608_
*2597 _0609_
*2598 _0610_
*2599 _0611_
*2600 _0612_
*2601 _0613_
*2602 _0614_
*2603 _0615_
*2604 _0616_
*2605 _0617_
*2606 _0618_
*2607 _0619_
*2608 _0620_
*2609 _0621_
*2610 _0622_
*2611 _0623_
*2612 _0624_
*2613 _0625_
*2614 _0626_
*2615 _0627_
*2616 _0628_
*2617 _0629_
*2618 _0630_
*2619 _0631_
*2620 _0632_
*2621 _0633_
*2622 _0634_
*2623 _0635_
*2624 _0636_
*2625 _0637_
*2626 _0638_
*2627 _0639_
*2628 _0640_
*2629 _0641_
*2630 _0642_
*2631 _0643_
*2632 _0644_
*2633 _0645_
*2634 _0646_
*2635 _0647_
*2636 _0648_
*2637 _0649_
*2638 _0650_
*2639 _0651_
*2640 _0652_
*2641 _0653_
*2642 _0654_
*2643 _0655_
*2644 _0656_
*2645 _0657_
*2646 _0658_
*2647 _0659_
*2648 _0660_
*2649 _0661_
*2650 _0662_
*2651 _0663_
*2652 _0664_
*2653 _0665_
*2654 _0666_
*2655 _0667_
*2656 _0668_
*2657 _0669_
*2658 _0670_
*2659 _0671_
*2660 _0672_
*2661 _0673_
*2662 _0674_
*2663 _0675_
*2664 _0676_
*2665 _0677_
*2666 _0678_
*2667 _0679_
*2668 _0680_
*2669 _0681_
*2670 _0682_
*2671 _0683_
*2672 _0684_
*2673 _0685_
*2674 _0686_
*2675 _0687_
*2676 _0688_
*2677 _0689_
*2678 _0690_
*2679 _0691_
*2680 _0692_
*2681 _0693_
*2682 _0694_
*2683 _0695_
*2684 _0696_
*2685 _0697_
*2686 _0698_
*2687 _0699_
*2688 _0700_
*2689 _0701_
*2690 _0702_
*2691 _0703_
*2692 _0704_
*2693 _0705_
*2694 _0706_
*2695 _0707_
*2696 _0708_
*2697 _0709_
*2698 _0710_
*2699 _0711_
*2700 _0712_
*2701 _0713_
*2702 _0714_
*2703 _0715_
*2704 _0716_
*2705 _0717_
*2706 _0718_
*2707 _0719_
*2708 _0720_
*2709 _0721_
*2710 _0722_
*2711 _0723_
*2712 _0724_
*2713 _0725_
*2714 _0726_
*2715 _0727_
*2716 _0728_
*2717 _0729_
*2718 _0730_
*2719 _0731_
*2720 _0732_
*2721 _0733_
*2722 _0734_
*2723 _0735_
*2724 _0736_
*2725 _0737_
*2726 _0738_
*2727 _0739_
*2728 _0740_
*2729 _0741_
*2730 _0742_
*2731 _0743_
*2732 _0744_
*2733 _0745_
*2734 _0746_
*2735 _0747_
*2736 _0748_
*2737 _0749_
*2738 _0750_
*2739 _0751_
*2740 _0752_
*2741 _0753_
*2742 _0754_
*2743 _0755_
*2744 _0756_
*2745 _0757_
*2746 _0758_
*2747 _0759_
*2748 _0760_
*2749 _0761_
*2750 _0762_
*2751 _0763_
*2752 _0764_
*2753 _0765_
*2754 _0766_
*2755 _0767_
*2756 _0768_
*2757 _0769_
*2758 _0770_
*2759 _0771_
*2760 _0772_
*2761 _0773_
*2762 _0774_
*2763 _0775_
*2764 _0776_
*2765 _0777_
*2766 _0778_
*2767 _0779_
*2768 _0780_
*2769 _0781_
*2770 _0782_
*2771 _0783_
*2772 _0784_
*2773 _0785_
*2774 _0786_
*2775 _0787_
*2776 _0788_
*2777 _0789_
*2778 _0790_
*2779 _0791_
*2780 _0792_
*2781 _0793_
*2782 _0794_
*2783 _0795_
*2784 _0796_
*2785 _0797_
*2786 _0798_
*2787 _0799_
*2788 _0800_
*2789 _0801_
*2790 _0802_
*2791 _0803_
*2792 _0804_
*2793 _0805_
*2794 _0806_
*2795 _0807_
*2796 _0808_
*2797 _0809_
*2798 _0810_
*2799 _0811_
*2800 _0812_
*2801 _0813_
*2802 _0814_
*2803 _0815_
*2804 _0816_
*2805 _0817_
*2806 _0818_
*2807 _0819_
*2808 _0820_
*2809 _0821_
*2810 _0822_
*2811 _0823_
*2812 _0824_
*2813 _0825_
*2814 _0826_
*2815 _0827_
*2816 _0828_
*2817 _0829_
*2818 _0830_
*2819 _0831_
*2820 _0832_
*2821 _0833_
*2822 _0834_
*2823 _0835_
*2824 _0836_
*2825 _0837_
*2826 _0838_
*2827 _0839_
*2828 _0840_
*2829 _0841_
*2830 _0842_
*2831 _0843_
*2832 _0844_
*2833 _0845_
*2834 _0846_
*2835 _0847_
*2836 _0848_
*2837 _0849_
*2838 _0850_
*2839 _0851_
*2840 _0852_
*2841 _0853_
*2842 _0854_
*2843 _0855_
*2844 _0856_
*2845 _0857_
*2846 _0858_
*2847 _0859_
*2848 _0860_
*2849 _0861_
*2850 _0862_
*2851 _0863_
*2852 _0864_
*2853 _0865_
*2854 _0866_
*2855 _0867_
*2856 _0868_
*2857 _0869_
*2858 _0870_
*2859 _0871_
*2860 _0872_
*2861 _0873_
*2862 _0874_
*2863 _0875_
*2864 _0876_
*2865 _0877_
*2866 _0878_
*2867 _0879_
*2868 _0880_
*2869 _0881_
*2870 _0882_
*2871 _0883_
*2872 _0884_
*2873 _0885_
*2874 _0886_
*2875 _0887_
*2876 _0888_
*2877 _0889_
*2878 _0890_
*2879 _0891_
*2880 _0892_
*2881 _0893_
*2882 _0894_
*2883 _0895_
*2884 _0896_
*2885 _0897_
*2886 _0898_
*2887 _0899_
*2888 _0900_
*2889 _0901_
*2890 _0902_
*2891 _0903_
*2892 _0904_
*2893 _0905_
*2894 _0906_
*2895 _0907_
*2896 _0908_
*2897 _0909_
*2898 _0910_
*2899 _0911_
*2900 _0912_
*2901 _0913_
*2902 _0914_
*2903 _0915_
*2904 _0916_
*2905 _0917_
*2906 _0918_
*2907 _0919_
*2908 _0920_
*2909 _0921_
*2910 _0922_
*2911 _0923_
*2912 _0924_
*2913 _0925_
*2914 _0926_
*2915 _0927_
*2916 _0928_
*2917 _0929_
*2918 _0930_
*2919 _0931_
*2920 _0932_
*2921 _0933_
*2922 _0934_
*2923 _0935_
*2924 _0936_
*2925 _0937_
*2926 _0938_
*2927 _0939_
*2928 _0940_
*2929 _0941_
*2930 _0942_
*2931 _0943_
*2932 _0944_
*2933 _0945_
*2934 _0946_
*2935 _0947_
*2936 _0948_
*2937 _0949_
*2938 _0950_
*2939 _0951_
*2940 _0952_
*2941 _0953_
*2942 _0954_
*2943 _0955_
*2944 _0956_
*2945 _0957_
*2946 _0958_
*2947 _0959_
*2948 _0960_
*2949 _0961_
*2950 _0962_
*2951 _0963_
*2952 _0964_
*2953 _0965_
*2954 _0966_
*2955 _0967_
*2956 _0968_
*2957 _0969_
*2958 _0970_
*2959 _0971_
*2960 _0972_
*2961 _0973_
*2962 _0974_
*2963 _0975_
*2964 _0976_
*2965 _0977_
*2966 _0978_
*2967 _0979_
*2968 _0980_
*2969 _0981_
*2970 _0982_
*2971 _0983_
*2972 _0984_
*2973 _0985_
*2974 _0986_
*2975 _0987_
*2976 _0988_
*2977 _0989_
*2978 _0990_
*2979 _0991_
*2980 _0992_
*2981 _0993_
*2982 _0994_
*2983 _0995_
*2984 _0996_
*2985 _0997_
*2986 _0998_
*2987 _0999_
*2988 _1000_
*2989 _1001_
*2990 _1002_
*2991 _1003_
*2992 _1004_
*2993 _1005_
*2994 _1006_
*2995 _1007_
*2996 _1008_
*2997 _1009_
*2998 _1010_
*2999 _1011_
*3000 _1012_
*3001 _1013_
*3002 _1014_
*3003 _1015_
*3004 _1016_
*3005 _1017_
*3006 _1018_
*3007 _1019_
*3008 _1020_
*3009 _1021_
*3010 _1022_
*3011 _1023_
*3012 _1024_
*3013 _1025_
*3014 _1026_
*3015 _1027_
*3016 _1028_
*3017 _1029_
*3018 _1030_
*3019 _1031_
*3020 _1032_
*3021 _1033_
*3022 _1034_
*3023 _1035_
*3024 _1036_
*3025 _1037_
*3026 _1038_
*3027 _1039_
*3028 _1040_
*3029 _1041_
*3030 _1042_
*3031 _1043_
*3032 _1044_
*3033 _1045_
*3034 _1046_
*3035 _1047_
*3036 _1048_
*3037 _1049_
*3038 _1050_
*3039 _1051_
*3040 _1052_
*3041 _1053_
*3042 _1054_
*3043 _1055_
*3044 _1056_
*3045 _1057_
*3046 _1058_
*3047 _1059_
*3048 _1060_
*3049 _1061_
*3050 _1062_
*3051 _1063_
*3052 _1064_
*3053 _1065_
*3054 _1066_
*3055 _1067_
*3056 _1068_
*3057 _1069_
*3058 _1070_
*3059 _1071_
*3060 _1072_
*3061 _1073_
*3062 _1074_
*3063 _1075_
*3064 _1076_
*3065 _1077_
*3066 _1078_
*3067 _1079_
*3068 _1080_
*3069 _1081_
*3070 _1082_
*3071 _1083_
*3072 _1084_
*3073 _1085_
*3074 _1086_
*3075 _1087_
*3076 _1088_
*3077 _1089_
*3078 _1090_
*3079 _1091_
*3080 _1092_
*3081 _1093_
*3082 _1094_
*3083 _1095_
*3084 _1096_
*3085 _1097_
*3086 _1098_
*3087 _1099_
*3088 _1100_
*3089 _1101_
*3090 _1102_
*3091 _1103_
*3092 _1104_
*3093 _1105_
*3094 _1106_
*3095 _1107_
*3096 _1108_
*3097 _1109_
*3098 _1110_
*3099 clkbuf_0_clk
*3100 clkbuf_1_0__f_clk
*3101 clkbuf_1_1__f_clk
*3102 clkload0
*3103 clone12
*3104 clone15
*3105 clone6
*3106 fanout112
*3107 fanout113
*3108 fanout114
*3109 fanout115
*3110 fanout116
*3111 fanout117
*3112 fanout118
*3113 fanout119
*3114 fanout120
*3115 fanout121
*3116 fanout122
*3117 fanout123
*3118 fanout124
*3119 fanout125
*3120 fanout126
*3121 fanout127
*3122 fanout128
*3123 fanout129
*3124 fanout130
*3125 fanout131
*3126 fanout132
*3127 fanout133
*3128 fanout134
*3129 fanout135
*3130 fanout136
*3131 fanout137
*3132 fanout138
*3133 fanout139
*3134 fanout140
*3135 fanout141
*3136 fanout142
*3137 fanout143
*3138 fanout144
*3139 fanout145
*3140 fanout146
*3141 fanout147
*3142 fanout148
*3143 fanout149
*3144 fanout150
*3145 fanout151
*3146 fanout152
*3147 fanout153
*3148 fanout154
*3149 fanout155
*3150 fanout156
*3151 fanout157
*3152 fanout158
*3153 fanout159
*3154 fanout160
*3155 fanout161
*3156 fanout162
*3157 fanout163
*3158 fanout164
*3159 fanout165
*3160 fanout166
*3161 fanout167
*3162 fanout168
*3163 fanout169
*3164 fanout170
*3165 fanout171
*3166 fanout172
*3167 fanout173
*3168 fanout174
*3169 fanout175
*3170 fanout176
*3171 fanout177
*3172 fanout178
*3173 fanout179
*3174 fanout180
*3175 fanout181
*3176 fanout182
*3177 fanout184
*3178 fanout185
*3179 fanout186
*3180 fanout187
*3181 fanout188
*3182 fanout189
*3183 fanout190
*3184 fanout191
*3185 fanout192
*3186 fanout193
*3187 fanout194
*3188 fanout195
*3189 fanout196
*3190 fanout197
*3191 fanout198
*3192 fanout199
*3193 fanout200
*3194 fanout201
*3195 fanout202
*3196 fanout203
*3197 fanout204
*3198 fanout205
*3199 fanout206
*3200 fanout208
*3201 fanout209
*3202 fanout210
*3203 fanout211
*3204 fanout212
*3205 fanout213
*3206 fanout214
*3207 fanout215
*3208 fanout217
*3209 fanout218
*3210 fanout219
*3211 fanout220
*3212 fanout223
*3213 fanout224
*3214 fanout227
*3215 fanout228
*3216 fanout229
*3217 fanout230
*3218 fanout232
*3219 fanout233
*3220 fanout234
*3221 fanout235
*3222 fanout236
*3223 fanout237
*3224 fanout238
*3225 fanout239
*3226 fanout240
*3227 fanout241
*3228 fanout242
*3229 fanout243
*3230 fanout244
*3231 fanout245
*3232 fanout246
*3233 fanout247
*3234 fanout248
*3235 fanout249
*3236 hold17
*3237 hold18
*3238 hold19
*3239 hold20
*3240 hold21
*3241 hold22
*3242 input1
*3243 input10
*3244 input11
*3245 input12
*3246 input13
*3247 input14
*3248 input15
*3249 input16
*3250 input17
*3251 input18
*3252 input19
*3253 input2
*3254 input20
*3255 input21
*3256 input22
*3257 input23
*3258 input24
*3259 input25
*3260 input26
*3261 input27
*3262 input28
*3263 input29
*3264 input3
*3265 input30
*3266 input31
*3267 input32
*3268 input33
*3269 input34
*3270 input35
*3271 input36
*3272 input37
*3273 input38
*3274 input39
*3275 input4
*3276 input40
*3277 input41
*3278 input42
*3279 input43
*3280 input44
*3281 input45
*3282 input46
*3283 input47
*3284 input48
*3285 input49
*3286 input5
*3287 input50
*3288 input51
*3289 input52
*3290 input53
*3291 input54
*3292 input55
*3293 input56
*3294 input57
*3295 input58
*3296 input59
*3297 input6
*3298 input60
*3299 input61
*3300 input62
*3301 input7
*3302 input8
*3303 input9
*3304 max_cap207
*3305 max_cap222
*3306 max_cap225
*3307 max_cap226
*3308 max_cap231
*3309 output100
*3310 output101
*3311 output102
*3312 output103
*3313 output104
*3314 output105
*3315 output106
*3316 output107
*3317 output108
*3318 output109
*3319 output110
*3320 output111
*3321 output63
*3322 output64
*3323 output65
*3324 output66
*3325 output67
*3326 output68
*3327 output69
*3328 output70
*3329 output71
*3330 output72
*3331 output73
*3332 output74
*3333 output75
*3334 output76
*3335 output77
*3336 output78
*3337 output79
*3338 output80
*3339 output81
*3340 output82
*3341 output83
*3342 output84
*3343 output85
*3344 output86
*3345 output87
*3346 output88
*3347 output89
*3348 output90
*3349 output91
*3350 output92
*3351 output93
*3352 output94
*3353 output95
*3354 output96
*3355 output97
*3356 output98
*3357 output99
*3358 rebuffer1
*3359 rebuffer10
*3360 rebuffer11
*3361 rebuffer13
*3362 rebuffer14
*3363 rebuffer16
*3364 rebuffer2
*3365 rebuffer3
*3366 rebuffer4
*3367 rebuffer5
*3368 rebuffer7
*3369 rebuffer8
*3370 rebuffer9
*3371 wire216
*3372 wire221

*PORTS
PADDR[0] O
PADDR[1] O
PADDR[2] O
PENABLE O
PRDATA[0] I
PRDATA[10] I
PRDATA[11] I
PRDATA[12] I
PRDATA[13] I
PRDATA[14] I
PRDATA[15] I
PRDATA[1] I
PRDATA[2] I
PRDATA[3] I
PRDATA[4] I
PRDATA[5] I
PRDATA[6] I
PRDATA[7] I
PRDATA[8] I
PRDATA[9] I
PREADY I
PSEL1 O
PSEL2 O
PSEL3 O
PSEL4 O
PWDATA[0] O
PWDATA[10] O
PWDATA[11] O
PWDATA[12] O
PWDATA[13] O
PWDATA[14] O
PWDATA[15] O
PWDATA[1] O
PWDATA[2] O
PWDATA[3] O
PWDATA[4] O
PWDATA[5] O
PWDATA[6] O
PWDATA[7] O
PWDATA[8] O
PWDATA[9] O
PWRITE O
araddr[0] I
araddr[1] I
araddr[2] I
araddr[3] I
araddr[4] I
arburst[0] I
arburst[1] I
arlen[0] I
arlen[1] I
arlen[2] I
arlen[3] I
arready O
arvalid I
awaddr[0] I
awaddr[1] I
awaddr[2] I
awaddr[3] I
awaddr[4] I
awburst[0] I
awburst[1] I
awlen[0] I
awlen[1] I
awlen[2] I
awlen[3] I
awready O
awvalid I
bready I
bresp O
bvalid O
clk I
rdata[0] O
rdata[10] O
rdata[11] O
rdata[12] O
rdata[13] O
rdata[14] O
rdata[15] O
rdata[1] O
rdata[2] O
rdata[3] O
rdata[4] O
rdata[5] O
rdata[6] O
rdata[7] O
rdata[8] O
rdata[9] O
res_n I
rlast O
rready I
rresp O
rvalid O
wdata[0] I
wdata[10] I
wdata[11] I
wdata[12] I
wdata[13] I
wdata[14] I
wdata[15] I
wdata[1] I
wdata[2] I
wdata[3] I
wdata[4] I
wdata[5] I
wdata[6] I
wdata[7] I
wdata[8] I
wdata[9] I
wlast I
wready O
wvalid I

*D_NET *1 0.00226717
*CONN
*P PADDR[0] O
*I *3321:X O *D sky130_fd_sc_hd__buf_2
*CAP
1 PADDR[0] 0.000544308
2 *3321:X 0.000544308
3 PADDR[0] PSEL3 0.000113752
4 PADDR[0] *2663:A0 0.000437748
5 PADDR[0] *3252:A 7.37232e-05
6 PADDR[0] *3265:A 0.000219109
7 PADDR[0] *3269:A 7.26916e-05
8 PADDR[0] *3270:A 0.000114511
9 PADDR[0] *3311:A 0.000147016
*RES
1 *3321:X PADDR[0] 16.1285 
*END

*D_NET *2 0.0021066
*CONN
*P PADDR[1] O
*I *3322:X O *D sky130_fd_sc_hd__buf_2
*CAP
1 PADDR[1] 0.000629454
2 *3322:X 0.000629454
3 PADDR[1] PSEL1 2.45351e-05
4 PADDR[1] arready 0.000147917
5 PADDR[1] *2759:A1 4.82863e-05
6 PADDR[1] *2759:B2 0.000237243
7 PADDR[1] *3254:A 6.88924e-05
8 PADDR[1] *3267:A 0.000164679
9 PADDR[1] *3278:A 0.000128612
10 PADDR[1] *3325:A 2.75229e-05
*RES
1 *3322:X PADDR[1] 9.91443 
*END

*D_NET *3 0.00307354
*CONN
*P PADDR[2] O
*I *3323:X O *D sky130_fd_sc_hd__buf_2
*CAP
1 PADDR[2] 0.000760619
2 *3323:X 0.000760619
3 PADDR[2] PENABLE 9.17687e-05
4 PADDR[2] *2436:C 3.62776e-05
5 PADDR[2] *2662:A0 0
6 PADDR[2] *2758:B 0.000191226
7 PADDR[2] *3263:A 0
8 PADDR[2] *3266:A 8.9053e-05
9 PADDR[2] *3323:A 0.000544868
10 PADDR[2] *3325:A 0.000243104
11 PADDR[2] *3327:A 6.4422e-05
12 PADDR[2] *3361:A 0.000153482
13 PADDR[2] *503:31 2.0514e-05
14 PADDR[2] *505:6 8.23457e-05
15 PADDR[2] *505:10 3.52434e-05
*RES
1 *3323:X PADDR[2] 14.9844 
*END

*D_NET *4 0.000945
*CONN
*P PENABLE O
*I *3324:X O *D sky130_fd_sc_hd__buf_2
*CAP
1 PENABLE 0.000286437
2 *3324:X 0.000286437
3 PENABLE *2437:A 3.49165e-05
4 PENABLE *2662:A0 0
5 PENABLE *3263:A 0.000115737
6 PENABLE *3311:A 0.000129704
7 PADDR[2] PENABLE 9.17687e-05
*RES
1 *3324:X PENABLE 7.5133 
*END

*D_NET *5 0.000786235
*CONN
*P PRDATA[0] I
*I *3242:A I *D sky130_fd_sc_hd__clkbuf_1
*CAP
1 PRDATA[0] 0.000393118
2 *3242:A 0.000393118
3 *3242:A rdata[12] 0
*RES
1 PRDATA[0] *3242:A 10.35 
*END

*D_NET *6 0.00082718
*CONN
*P PRDATA[10] I
*I *3253:A I *D sky130_fd_sc_hd__clkbuf_1
*CAP
1 PRDATA[10] 0.000375683
2 *3253:A 0.000375683
3 *3253:A *2643:A1 4.82919e-05
4 *3253:A *3282:A 0
5 *3253:A *3287:A 0
6 *3253:A *3353:A 2.75229e-05
*RES
1 PRDATA[10] *3253:A 10.35 
*END

*D_NET *7 0.00082718
*CONN
*P PRDATA[11] I
*I *3264:A I *D sky130_fd_sc_hd__clkbuf_1
*CAP
1 PRDATA[11] 0.000375683
2 *3264:A 0.000375683
3 *3264:A *2643:A1 4.82919e-05
4 *3264:A *3282:A 0
5 *3264:A *3291:A 0
6 *3264:A *3353:A 2.75229e-05
*RES
1 PRDATA[11] *3264:A 10.35 
*END

*D_NET *8 0.000644806
*CONN
*P PRDATA[12] I
*I *3275:A I *D sky130_fd_sc_hd__clkbuf_1
*CAP
1 PRDATA[12] 0.000176962
2 *3275:A 0.000176962
3 *3275:A PWDATA[10] 9.20289e-05
4 *3275:A PWDATA[12] 9.20289e-05
5 *3275:A *3355:A 0
6 *3275:A *987:10 0.000106824
*RES
1 PRDATA[12] *3275:A 5.92503 
*END

*D_NET *9 0.00093041
*CONN
*P PRDATA[13] I
*I *3286:A I *D sky130_fd_sc_hd__clkbuf_1
*CAP
1 PRDATA[13] 0.000465205
2 *3286:A 0.000465205
3 *3286:A *3300:A 0
*RES
1 PRDATA[13] *3286:A 11.88 
*END

*D_NET *10 0.00123737
*CONN
*P PRDATA[14] I
*I *3297:A I *D sky130_fd_sc_hd__buf_1
*CAP
1 PRDATA[14] 0.000261466
2 *3297:A 0.000261466
3 *3297:A PWDATA[11] 0.000108425
4 *3297:A PWDATA[2] 8.9053e-05
5 *3297:A rdata[14] 0.000127219
6 *3297:A *2657:A1 0.000278463
7 *3297:A *3310:A 0.000111274
*RES
1 PRDATA[14] *3297:A 8.73003 
*END

*D_NET *11 0.00048634
*CONN
*P PRDATA[15] I
*I *3301:A I *D sky130_fd_sc_hd__clkbuf_1
*CAP
1 PRDATA[15] 0.000145831
2 *3301:A 0.000145831
3 *3301:A PWDATA[12] 8.58151e-05
4 *3301:A PWDATA[15] 8.95652e-05
5 *3301:A *3355:A 0
6 *3301:A *987:10 1.92979e-05
*RES
1 PRDATA[15] *3301:A 4.90503 
*END

*D_NET *12 0.000951876
*CONN
*P PRDATA[1] I
*I *3302:A I *D sky130_fd_sc_hd__clkbuf_1
*CAP
1 PRDATA[1] 0.000475938
2 *3302:A 0.000475938
3 *3302:A wready 0
4 *3302:A *3279:A 0
*RES
1 PRDATA[1] *3302:A 11.88 
*END

*D_NET *13 0.00101495
*CONN
*P PRDATA[2] I
*I *3303:A I *D sky130_fd_sc_hd__clkbuf_1
*CAP
1 PRDATA[2] 0.000382573
2 *3303:A 0.000382573
3 *3303:A *2643:A1 0.0001249
4 *3303:A *3287:A 0
5 *3303:A *3290:A 0
6 *3303:A *3353:A 0.0001249
*RES
1 PRDATA[2] *3303:A 11.04 
*END

*D_NET *14 0.00179924
*CONN
*P PRDATA[3] I
*I *3243:A I *D sky130_fd_sc_hd__buf_1
*CAP
1 PRDATA[3] 0.000578627
2 *3243:A 0.000578627
3 *3243:A rdata[11] 0
4 *3243:A *3245:A 0.000641985
*RES
1 PRDATA[3] *3243:A 13.9668 
*END

*D_NET *15 0.00093041
*CONN
*P PRDATA[4] I
*I *3244:A I *D sky130_fd_sc_hd__clkbuf_1
*CAP
1 PRDATA[4] 0.000465205
2 *3244:A 0.000465205
3 *3244:A *3259:A 0
4 *3244:A *3300:A 0
*RES
1 PRDATA[4] *3244:A 11.88 
*END

*D_NET *16 0.00216076
*CONN
*P PRDATA[5] I
*I *3245:A I *D sky130_fd_sc_hd__buf_1
*CAP
1 PRDATA[5] 0.000335056
2 *3245:A 0.000335056
3 *3245:A PWDATA[0] 9.20289e-05
4 *3245:A rdata[11] 0
5 *3245:A rdata[14] 0.000756633
6 *3243:A *3245:A 0.000641985
*RES
1 PRDATA[5] *3245:A 13.32 
*END

*D_NET *17 0.000667943
*CONN
*P PRDATA[6] I
*I *3246:A I *D sky130_fd_sc_hd__clkbuf_1
*CAP
1 PRDATA[6] 0.000175109
2 *3246:A 0.000175109
3 *3246:A PWDATA[6] 8.50604e-05
4 *3246:A PWDATA[7] 9.20289e-05
5 *3246:A *2649:A1 3.38178e-05
6 *3246:A *3342:A 0
7 *3246:A *987:10 0.000106819
*RES
1 PRDATA[6] *3246:A 5.92503 
*END

*D_NET *18 0.00153971
*CONN
*P PRDATA[7] I
*I *3247:A I *D sky130_fd_sc_hd__clkbuf_1
*CAP
1 PRDATA[7] 0.000434497
2 *3247:A 0.000434497
3 *3247:A *2643:A0 0.000275548
4 *3247:A *2643:A1 0.000163204
5 *3247:A *2646:A1 0
6 *3247:A *2650:A1 4.21666e-05
7 *3247:A *3281:A 0.000123225
8 *3247:A *3295:A 0
9 *3247:A *3353:A 6.65725e-05
*RES
1 PRDATA[7] *3247:A 13.455 
*END

*D_NET *19 0.00196417
*CONN
*P PRDATA[8] I
*I *3248:A I *D sky130_fd_sc_hd__clkbuf_1
*CAP
1 PRDATA[8] 0.000701737
2 *3248:A 0.000701737
3 *3248:A PWDATA[0] 0.000176799
4 *3248:A PWDATA[5] 0.000228859
5 *3248:A rdata[3] 0
6 *3248:A rdata[7] 2.16104e-05
7 *3248:A *2657:A1 0
8 *3248:A *3313:A 0
9 *3248:A *3314:A 8.53113e-06
10 *3248:A *791:18 0.000124895
*RES
1 PRDATA[8] *3248:A 8.1721 
*END

*D_NET *20 0.000811698
*CONN
*P PRDATA[9] I
*I *3249:A I *D sky130_fd_sc_hd__clkbuf_1
*CAP
1 PRDATA[9] 0.000395328
2 *3249:A 0.000395328
3 *3249:A *3281:A 0
4 *3249:A *3284:A 0
5 *3249:A *3353:A 2.10433e-05
*RES
1 PRDATA[9] *3249:A 10.35 
*END

*D_NET *21 0.000993127
*CONN
*P PREADY I
*I *3250:A I *D sky130_fd_sc_hd__clkbuf_2
*CAP
1 PREADY 0.000481545
2 *3250:A 0.000481545
3 *3250:A rdata[5] 0
4 *3250:A *2710:C1 3.00381e-05
5 *3250:A *3262:A 0
*RES
1 PREADY *3250:A 12.075 
*END

*D_NET *22 0.00332688
*CONN
*P PSEL1 O
*I *3325:X O *D sky130_fd_sc_hd__buf_6
*CAP
1 PSEL1 0.00072262
2 *3325:X 0.00072262
3 PSEL1 PSEL3 0
4 PSEL1 rdata[4] 0.000481957
5 PSEL1 *2759:B2 2.49909e-05
6 PSEL1 *3254:A 0.00124507
7 PSEL1 *3278:A 0
8 PSEL1 *3311:A 4.66108e-05
9 PSEL1 *3321:A 1.0183e-05
10 PSEL1 *3325:A 4.82919e-05
11 PADDR[1] PSEL1 2.45351e-05
*RES
1 *3325:X PSEL1 20.0146 
*END

*D_NET *23 0.00175231
*CONN
*P PSEL2 O
*I *3326:X O *D sky130_fd_sc_hd__buf_6
*CAP
1 PSEL2 0.00053947
2 *3326:X 0.00053947
3 PSEL2 PSEL4 0
4 PSEL2 PWRITE 0.000105933
5 PSEL2 *2437:B 4.01535e-05
6 PSEL2 *2438:B 2.75229e-05
7 PSEL2 *2662:S 4.41506e-05
8 PSEL2 *2825:D 8.65961e-05
9 PSEL2 *3263:A 0.000127727
10 PSEL2 *3324:A 2.59835e-05
11 PSEL2 *3345:A 0.00013006
12 PSEL2 *767:27 8.5242e-05
*RES
1 *3326:X PSEL2 8.5927 
*END

*D_NET *24 0.00208761
*CONN
*P PSEL3 O
*I *3327:X O *D sky130_fd_sc_hd__buf_6
*CAP
1 PSEL3 0.000611681
2 *3327:X 0.000611681
3 PSEL3 rdata[4] 0.000232829
4 PSEL3 *3254:A 9.62644e-05
5 PSEL3 *3267:A 9.62644e-05
6 PSEL3 *3270:A 0
7 PSEL3 *3311:A 0.000312476
8 PSEL3 *3321:A 1.26626e-05
9 PADDR[0] PSEL3 0.000113752
10 PSEL1 PSEL3 0
*RES
1 *3327:X PSEL3 15.6733 
*END

*D_NET *25 0.00202002
*CONN
*P PSEL4 O
*I *3328:X O *D sky130_fd_sc_hd__buf_6
*CAP
1 PSEL4 0.000493378
2 *3328:X 0.000493378
3 PSEL4 PWRITE 9.84549e-05
4 PSEL4 *2660:A1 0.000100909
5 PSEL4 *2661:A1 0.000130792
6 PSEL4 *2662:A1 0.000613548
7 PSEL4 *3255:A 8.95652e-05
8 PSEL4 *987:10 0
9 PSEL2 PSEL4 0
*RES
1 *3328:X PSEL4 12.0814 
*END

*D_NET *26 0.00368067
*CONN
*P PWDATA[0] O
*I *3329:X O *D sky130_fd_sc_hd__buf_2
*CAP
1 PWDATA[0] 0.000988853
2 *3329:X 0.000988853
3 PWDATA[0] PWDATA[5] 8.23457e-05
4 PWDATA[0] rdata[10] 0.000287243
5 PWDATA[0] rdata[11] 0.000120655
6 PWDATA[0] rdata[3] 0
7 PWDATA[0] *2461:A 1.88797e-05
8 PWDATA[0] *2461:B 0.000266842
9 PWDATA[0] *2802:D 0.000109962
10 PWDATA[0] *2809:D 2.11084e-05
11 PWDATA[0] *3352:A 0.000477899
12 PWDATA[0] *1041:16 4.92062e-05
13 *3245:A PWDATA[0] 9.20289e-05
14 *3248:A PWDATA[0] 0.000176799
*RES
1 *3329:X PWDATA[0] 20.1727 
*END

*D_NET *27 0.00092273
*CONN
*P PWDATA[10] O
*I *3330:X O *D sky130_fd_sc_hd__buf_2
*CAP
1 PWDATA[10] 0.000324267
2 *3330:X 0.000324267
3 PWDATA[10] PWDATA[12] 0
4 PWDATA[10] PWDATA[9] 0.000141632
5 PWDATA[10] *3310:A 0
6 PWDATA[10] *3330:A 4.05358e-05
7 PWDATA[10] *3355:A 0
8 *3275:A PWDATA[10] 9.20289e-05
*RES
1 *3330:X PWDATA[10] 6.27463 
*END

*D_NET *28 0.000647621
*CONN
*P PWDATA[11] O
*I *3331:X O *D sky130_fd_sc_hd__buf_2
*CAP
1 PWDATA[11] 0.000214537
2 *3331:X 0.000214537
3 PWDATA[11] PWDATA[2] 0
4 PWDATA[11] *3268:A 8.95652e-05
5 PWDATA[11] *3310:A 2.05571e-05
6 *3297:A PWDATA[11] 0.000108425
*RES
1 *3331:X PWDATA[11] 4.9633 
*END

*D_NET *29 0.000814116
*CONN
*P PWDATA[12] O
*I *3332:X O *D sky130_fd_sc_hd__buf_2
*CAP
1 PWDATA[12] 0.000306969
2 *3332:X 0.000306969
3 PWDATA[12] *3332:A 2.23342e-05
4 PWDATA[12] *3355:A 0
5 PWDATA[10] PWDATA[12] 0
6 *3275:A PWDATA[12] 9.20289e-05
7 *3301:A PWDATA[12] 8.58151e-05
*RES
1 *3332:X PWDATA[12] 5.50963 
*END

*D_NET *30 0.000523321
*CONN
*P PWDATA[13] O
*I *3333:X O *D sky130_fd_sc_hd__buf_2
*CAP
1 PWDATA[13] 0.000151778
2 *3333:X 0.000151778
3 PWDATA[13] PWDATA[1] 9.92403e-05
4 PWDATA[13] PWDATA[4] 9.92403e-05
5 PWDATA[13] *3333:A 1.17036e-05
6 PWDATA[13] *987:10 9.5799e-06
*RES
1 *3333:X PWDATA[13] 4.9633 
*END

*D_NET *31 0.000514868
*CONN
*P PWDATA[14] O
*I *3334:X O *D sky130_fd_sc_hd__buf_2
*CAP
1 PWDATA[14] 0.000145793
2 *3334:X 0.000145793
3 PWDATA[14] PWDATA[3] 0.000101697
4 PWDATA[14] PWDATA[6] 9.92403e-05
5 PWDATA[14] *3338:A 1.22505e-05
6 PWDATA[14] *987:10 1.00941e-05
*RES
1 *3334:X PWDATA[14] 4.9633 
*END

*D_NET *32 0.000682836
*CONN
*P PWDATA[15] O
*I *3335:X O *D sky130_fd_sc_hd__buf_2
*CAP
1 PWDATA[15] 0.000187748
2 *3335:X 0.000187748
3 PWDATA[15] PWDATA[7] 9.92403e-05
4 PWDATA[15] *3335:A 6.06899e-05
5 PWDATA[15] *987:10 5.78448e-05
6 *3301:A PWDATA[15] 8.95652e-05
*RES
1 *3335:X PWDATA[15] 5.9833 
*END

*D_NET *33 0.000733654
*CONN
*P PWDATA[1] O
*I *3336:X O *D sky130_fd_sc_hd__buf_2
*CAP
1 PWDATA[1] 0.000204676
2 *3336:X 0.000204676
3 PWDATA[1] *2662:A1 0
4 PWDATA[1] *3257:A 0.000101697
5 PWDATA[1] *3336:A 3.86529e-05
6 PWDATA[1] *987:10 8.471e-05
7 PWDATA[13] PWDATA[1] 9.92403e-05
*RES
1 *3336:X PWDATA[1] 6.4933 
*END

*D_NET *34 0.00169653
*CONN
*P PWDATA[2] O
*I *3337:X O *D sky130_fd_sc_hd__buf_2
*CAP
1 PWDATA[2] 0.00041495
2 *3337:X 0.00041495
3 PWDATA[2] PWDATA[5] 7.11891e-05
4 PWDATA[2] rdata[10] 0.000101175
5 PWDATA[2] *2648:A1 0.00010223
6 PWDATA[2] *2657:A1 4.11964e-05
7 PWDATA[2] *2807:D 0.000139231
8 PWDATA[2] *3350:A 0.000322555
9 PWDATA[11] PWDATA[2] 0
10 *3297:A PWDATA[2] 8.9053e-05
*RES
1 *3337:X PWDATA[2] 8.82463 
*END

*D_NET *35 0.000593758
*CONN
*P PWDATA[3] O
*I *3338:X O *D sky130_fd_sc_hd__buf_2
*CAP
1 PWDATA[3] 0.000162641
2 *3338:X 0.000162641
3 PWDATA[3] PWDATA[8] 0.000101697
4 PWDATA[3] *3338:A 3.38178e-05
5 PWDATA[3] *987:10 3.12639e-05
6 PWDATA[14] PWDATA[3] 0.000101697
*RES
1 *3338:X PWDATA[3] 5.4733 
*END

*D_NET *36 0.000529453
*CONN
*P PWDATA[4] O
*I *3339:X O *D sky130_fd_sc_hd__buf_2
*CAP
1 PWDATA[4] 0.000167405
2 *3339:X 0.000167405
3 PWDATA[4] *2662:A1 0
4 PWDATA[4] *3258:A 8.58151e-05
5 PWDATA[4] *987:10 9.58678e-06
6 PWDATA[13] PWDATA[4] 9.92403e-05
*RES
1 *3339:X PWDATA[4] 4.9633 
*END

*D_NET *37 0.00265659
*CONN
*P PWDATA[5] O
*I *3340:X O *D sky130_fd_sc_hd__buf_2
*CAP
1 PWDATA[5] 0.000684587
2 *3340:X 0.000684587
3 PWDATA[5] rdata[3] 0.000181022
4 PWDATA[5] *2627:A 5.47189e-05
5 PWDATA[5] *2638:B 1.34361e-05
6 PWDATA[5] *2657:A1 0.000361685
7 PWDATA[5] *2802:D 7.21296e-06
8 PWDATA[5] *2802:GATE_N 4.1977e-05
9 PWDATA[5] *2807:GATE_N 0.000132842
10 PWDATA[5] *3352:A 0.000112123
11 PWDATA[5] *880:62 0
12 PWDATA[5] *880:86 0
13 PWDATA[0] PWDATA[5] 8.23457e-05
14 PWDATA[2] PWDATA[5] 7.11891e-05
15 *3248:A PWDATA[5] 0.000228859
*RES
1 *3340:X PWDATA[5] 10.7123 
*END

*D_NET *38 0.000676581
*CONN
*P PWDATA[6] O
*I *3341:X O *D sky130_fd_sc_hd__buf_2
*CAP
1 PWDATA[6] 0.000212956
2 *3341:X 0.000212956
3 PWDATA[6] PWDATA[7] 0
4 PWDATA[6] *2649:A1 8.53113e-06
5 PWDATA[6] *842:18 0
6 PWDATA[6] *987:10 5.78379e-05
7 PWDATA[14] PWDATA[6] 9.92403e-05
8 *3246:A PWDATA[6] 8.50604e-05
*RES
1 *3341:X PWDATA[6] 5.9833 
*END

*D_NET *39 0.000819623
*CONN
*P PWDATA[7] O
*I *3342:X O *D sky130_fd_sc_hd__buf_2
*CAP
1 PWDATA[7] 0.000298545
2 *3342:X 0.000298545
3 PWDATA[7] *3342:A 3.12639e-05
4 PWDATA[7] *842:18 0
5 PWDATA[15] PWDATA[7] 9.92403e-05
6 PWDATA[6] PWDATA[7] 0
7 *3246:A PWDATA[7] 9.20289e-05
*RES
1 *3342:X PWDATA[7] 5.76463 
*END

*D_NET *40 0.000929591
*CONN
*P PWDATA[8] O
*I *3343:X O *D sky130_fd_sc_hd__buf_2
*CAP
1 PWDATA[8] 0.000331619
2 *3343:X 0.000331619
3 PWDATA[8] *3257:A 0.000115449
4 PWDATA[8] *3343:A 4.92063e-05
5 PWDATA[8] *842:18 0
6 PWDATA[8] *987:10 0
7 PWDATA[3] PWDATA[8] 0.000101697
*RES
1 *3343:X PWDATA[8] 6.52963 
*END

*D_NET *41 0.000781167
*CONN
*P PWDATA[9] O
*I *3344:X O *D sky130_fd_sc_hd__buf_2
*CAP
1 PWDATA[9] 0.000271365
2 *3344:X 0.000271365
3 PWDATA[9] *3268:A 8.67122e-05
4 PWDATA[9] *3344:A 1.00941e-05
5 PWDATA[9] *3355:A 0
6 PWDATA[10] PWDATA[9] 0.000141632
*RES
1 *3344:X PWDATA[9] 5.25463 
*END

*D_NET *42 0.000591326
*CONN
*P PWRITE O
*I *3345:X O *D sky130_fd_sc_hd__buf_8
*CAP
1 PWRITE 0.000190153
2 *3345:X 0.000190153
3 PWRITE *2662:A1 0
4 PWRITE *3311:A 6.63219e-06
5 PSEL2 PWRITE 0.000105933
6 PSEL4 PWRITE 9.84549e-05
*RES
1 *3345:X PWRITE 5.02157 
*END

*D_NET *45 0.00302839
*CONN
*P araddr[0] I
*I *3251:A I *D sky130_fd_sc_hd__clkbuf_1
*CAP
1 araddr[0] 0.00113745
2 *3251:A 0.00113745
3 *3251:A arready 0.000254596
4 *3251:A *2750:A 2.68526e-05
5 *3251:A *2751:B1 1.64319e-05
6 *3251:A *2753:B1 4.66108e-05
7 *3251:A *2760:A2 0
8 *3251:A *3090:CLK 0.000235159
9 *3251:A *3092:D 0
10 *3251:A *3252:A 0
11 *3251:A *3265:A 7.69207e-05
12 *3251:A *3278:A 0
13 *3251:A *505:38 2.92496e-05
14 *3251:A *505:57 3.7931e-05
15 *3251:A *505:61 2.97323e-05
*RES
1 araddr[0] *3251:A 9.59477 
*END

*D_NET *46 0.000955784
*CONN
*P araddr[1] I
*I *3252:A I *D sky130_fd_sc_hd__clkbuf_1
*CAP
1 araddr[1] 0.000235117
2 *3252:A 0.000235117
3 *3252:A *3265:A 0.000289262
4 *3252:A *3269:A 0
5 *3252:A *3311:A 0.000122565
6 PADDR[0] *3252:A 7.37232e-05
7 *3251:A *3252:A 0
*RES
1 araddr[1] *3252:A 7.20003 
*END

*D_NET *47 0.00476758
*CONN
*P araddr[2] I
*I *3254:A I *D sky130_fd_sc_hd__clkbuf_1
*CAP
1 araddr[2] 0.00121897
2 *3254:A 0.00121897
3 *3254:A *2759:A2 0.000309848
4 *3254:A *2759:B2 9.80032e-06
5 *3254:A *3267:A 0.000195
6 *3254:A *3278:A 0.000290985
7 *3254:A *3321:A 0
8 *3254:A *3325:A 1.58939e-05
9 *3254:A *1047:123 9.78885e-05
10 PADDR[1] *3254:A 6.88924e-05
11 PSEL1 *3254:A 0.00124507
12 PSEL3 *3254:A 9.62644e-05
*RES
1 araddr[2] *3254:A 24.0179 
*END

*D_NET *48 0.001099
*CONN
*P araddr[3] I
*I *3255:A I *D sky130_fd_sc_hd__clkbuf_1
*CAP
1 araddr[3] 0.000225791
2 *3255:A 0.000225791
3 *3255:A *2660:A1 0.000129063
4 *3255:A *2661:A1 2.96561e-05
5 *3255:A *3256:A 9.50048e-05
6 *3255:A *3311:A 0.00030413
7 PSEL4 *3255:A 8.95652e-05
*RES
1 araddr[3] *3255:A 8.22003 
*END

*D_NET *49 0.000743547
*CONN
*P araddr[4] I
*I *3256:A I *D sky130_fd_sc_hd__clkbuf_1
*CAP
1 araddr[4] 0.000202081
2 *3256:A 0.000202081
3 *3256:A *2660:A1 9.83495e-05
4 *3256:A *3258:A 9.20289e-05
5 *3256:A *3311:A 5.4003e-05
6 *3255:A *3256:A 9.50048e-05
*RES
1 araddr[4] *3256:A 6.69003 
*END

*D_NET *50 0.000666874
*CONN
*P arburst[0] I
*I *3257:A I *D sky130_fd_sc_hd__clkbuf_1
*CAP
1 arburst[0] 0.000220506
2 *3257:A 0.000220506
3 *3257:A *3336:A 8.7152e-06
4 *3257:A *842:18 0
5 PWDATA[1] *3257:A 0.000101697
6 PWDATA[8] *3257:A 0.000115449
*RES
1 arburst[0] *3257:A 5.1381 
*END

*D_NET *51 0.000525113
*CONN
*P arburst[1] I
*I *3258:A I *D sky130_fd_sc_hd__clkbuf_1
*CAP
1 arburst[1] 0.000152725
2 *3258:A 0.000152725
3 *3258:A *2662:A1 0
4 *3258:A *987:10 4.18203e-05
5 PWDATA[4] *3258:A 8.58151e-05
6 *3256:A *3258:A 9.20289e-05
*RES
1 arburst[1] *3258:A 5.16003 
*END

*D_NET *52 0.000990179
*CONN
*P arlen[0] I
*I *3259:A I *D sky130_fd_sc_hd__clkbuf_2
*CAP
1 arlen[0] 0.000446536
2 *3259:A 0.000446536
3 *3259:A rvalid 0
4 *3259:A *957:18 9.71067e-05
5 *3244:A *3259:A 0
*RES
1 arlen[0] *3259:A 11.97 
*END

*D_NET *53 0.00185262
*CONN
*P arlen[1] I
*I *3260:A I *D sky130_fd_sc_hd__dlymetal6s2s_1
*CAP
1 arlen[1] 0.000778523
2 *3260:A 0.000778523
3 *3260:A *2663:A0 0.00013493
4 *3260:A *3270:A 0
5 *3260:A *3271:A 0.000160641
*RES
1 arlen[1] *3260:A 17.76 
*END

*D_NET *54 0.00173609
*CONN
*P arlen[2] I
*I *3261:A I *D sky130_fd_sc_hd__buf_1
*CAP
1 arlen[2] 0.000592805
2 *3261:A 0.000592805
3 *3261:A rdata[13] 3.64998e-06
4 *3261:A rdata[5] 0.000312182
5 *3261:A *2710:B2 7.05863e-06
6 *3261:A *882:8 6.64781e-05
7 *3261:A *882:19 0.000161117
*RES
1 arlen[2] *3261:A 15.75 
*END

*D_NET *55 0.00102669
*CONN
*P arlen[3] I
*I *3262:A I *D sky130_fd_sc_hd__buf_1
*CAP
1 arlen[3] 0.000505701
2 *3262:A 0.000505701
3 *3262:A *2709:A1 1.52835e-05
4 *3250:A *3262:A 0
*RES
1 arlen[3] *3262:A 12.57 
*END

*D_NET *56 0.00238613
*CONN
*P arready O
*I *3346:X O *D sky130_fd_sc_hd__buf_2
*CAP
1 arready 0.00080546
2 *3346:X 0.00080546
3 arready *2759:A1 0
4 arready *3267:A 6.95753e-05
5 arready *3278:A 0.000260717
6 arready *3322:A 3.15882e-05
7 arready *3349:A 1.08194e-05
8 PADDR[1] arready 0.000147917
9 *3251:A arready 0.000254596
*RES
1 *3346:X arready 7.2069 
*END

*D_NET *57 0.000899788
*CONN
*P arvalid I
*I *3263:A I *D sky130_fd_sc_hd__dlymetal6s2s_1
*CAP
1 arvalid 0.000245524
2 *3263:A 0.000245524
3 *3263:A *2437:A 5.89912e-05
4 *3263:A *2662:A0 0.000106285
5 PADDR[2] *3263:A 0
6 PENABLE *3263:A 0.000115737
7 PSEL2 *3263:A 0.000127727
*RES
1 arvalid *3263:A 6.1581 
*END

*D_NET *58 0.00101529
*CONN
*P awaddr[0] I
*I *3265:A I *D sky130_fd_sc_hd__clkbuf_1
*CAP
1 awaddr[0] 0.000212458
2 *3265:A 0.000212458
3 *3265:A *3311:A 5.08304e-06
4 PADDR[0] *3265:A 0.000219109
5 *3251:A *3265:A 7.69207e-05
6 *3252:A *3265:A 0.000289262
*RES
1 awaddr[0] *3265:A 7.59177 
*END

*D_NET *59 0.000790589
*CONN
*P awaddr[1] I
*I *3266:A I *D sky130_fd_sc_hd__clkbuf_1
*CAP
1 awaddr[1] 0.000219682
2 *3266:A 0.000219682
3 *3266:A *2662:A0 0
4 *3266:A *3269:A 8.65893e-05
5 *3266:A *3311:A 0.000175583
6 PADDR[2] *3266:A 8.9053e-05
*RES
1 awaddr[1] *3266:A 6.69003 
*END

*D_NET *60 0.00268841
*CONN
*P awaddr[2] I
*I *3267:A I *D sky130_fd_sc_hd__clkbuf_1
*CAP
1 awaddr[2] 0.000916292
2 *3267:A 0.000916292
3 *3267:A bresp 0
4 *3267:A bvalid 6.22834e-05
5 *3267:A rdata[13] 0
6 *3267:A *2759:A1 0
7 *3267:A *2759:A2 3.66286e-05
8 *3267:A *3278:A 0
9 *3267:A *3349:A 0.000113132
10 *3267:A *1047:123 0.000118266
11 PADDR[1] *3267:A 0.000164679
12 PSEL3 *3267:A 9.62644e-05
13 arready *3267:A 6.95753e-05
14 *3254:A *3267:A 0.000195
*RES
1 awaddr[2] *3267:A 12.6802 
*END

*D_NET *61 0.0005574
*CONN
*P awaddr[3] I
*I *3268:A I *D sky130_fd_sc_hd__buf_1
*CAP
1 awaddr[3] 0.000171269
2 *3268:A 0.000171269
3 *3268:A *3310:A 3.85835e-05
4 PWDATA[11] *3268:A 8.95652e-05
5 PWDATA[9] *3268:A 8.67122e-05
*RES
1 awaddr[3] *3268:A 5.41503 
*END

*D_NET *62 0.00111443
*CONN
*P awaddr[4] I
*I *3269:A I *D sky130_fd_sc_hd__clkbuf_1
*CAP
1 awaddr[4] 0.000323841
2 *3269:A 0.000323841
3 *3269:A *2662:A0 0
4 *3269:A *3311:A 0.000307465
5 PADDR[0] *3269:A 7.26916e-05
6 *3252:A *3269:A 0
7 *3266:A *3269:A 8.65893e-05
*RES
1 awaddr[4] *3269:A 8.22003 
*END

*D_NET *63 0.00196027
*CONN
*P awburst[0] I
*I *3270:A I *D sky130_fd_sc_hd__clkbuf_1
*CAP
1 awburst[0] 0.000776163
2 *3270:A 0.000776163
3 *3270:A rdata[4] 0
4 *3270:A *2663:A0 0.000293433
5 PADDR[0] *3270:A 0.000114511
6 PSEL3 *3270:A 0
7 *3260:A *3270:A 0
*RES
1 awburst[0] *3270:A 17.79 
*END

*D_NET *64 0.00196729
*CONN
*P awburst[1] I
*I *3271:A I *D sky130_fd_sc_hd__clkbuf_1
*CAP
1 awburst[1] 0.000603422
2 *3271:A 0.000603422
3 *3271:A bresp 0
4 *3271:A *3278:A 0.000403437
5 *3271:A *968:14 0.00019637
6 *3260:A *3271:A 0.000160641
*RES
1 awburst[1] *3271:A 16.815 
*END

*D_NET *65 0.000938665
*CONN
*P awlen[0] I
*I *3272:A I *D sky130_fd_sc_hd__dlymetal6s2s_1
*CAP
1 awlen[0] 0.000469333
2 *3272:A 0.000469333
3 *3272:A rlast 0
4 *3272:A *3299:A 0
5 *3272:A *3347:A 0
6 *3272:A *957:18 0
*RES
1 awlen[0] *3272:A 11.88 
*END

*D_NET *66 0.000948648
*CONN
*P awlen[1] I
*I *3273:A I *D sky130_fd_sc_hd__clkbuf_1
*CAP
1 awlen[1] 0.000474324
2 *3273:A 0.000474324
3 *3273:A *3279:A 0
4 *3273:A *74:9 0
*RES
1 awlen[1] *3273:A 11.88 
*END

*D_NET *67 0.00103
*CONN
*P awlen[2] I
*I *3274:A I *D sky130_fd_sc_hd__clkbuf_1
*CAP
1 awlen[2] 0.00049954
2 *3274:A 0.00049954
3 *3274:A *2709:B1 3.09164e-05
4 *3274:A *3276:A 0
5 *3274:A *3299:A 0
*RES
1 awlen[2] *3274:A 12.57 
*END

*D_NET *68 0.0010189
*CONN
*P awlen[3] I
*I *3276:A I *D sky130_fd_sc_hd__clkbuf_1
*CAP
1 awlen[3] 0.000503601
2 *3276:A 0.000503601
3 *3276:A *3293:A 0
4 *3276:A *968:24 1.17036e-05
5 *3274:A *3276:A 0
*RES
1 awlen[3] *3276:A 12.57 
*END

*D_NET *69 0.000911438
*CONN
*P awready O
*I *3347:X O *D sky130_fd_sc_hd__buf_4
*CAP
1 awready 0.000455719
2 *3347:X 0.000455719
3 awready rlast 0
4 awready *3285:A 0
5 awready *957:18 0
*RES
1 *3347:X awready 11.625 
*END

*D_NET *70 0.00154587
*CONN
*P awvalid I
*I *3277:A I *D sky130_fd_sc_hd__buf_1
*CAP
1 awvalid 0.00058131
2 *3277:A 0.00058131
3 *3277:A *2709:A1 0.000163199
4 *3277:A *2709:B1 8.8266e-05
5 *3277:A *2710:C1 0.000131791
6 *3277:A *3293:A 0
*RES
1 awvalid *3277:A 14.85 
*END

*D_NET *71 0.00432348
*CONN
*P bready I
*I *3278:A I *D sky130_fd_sc_hd__buf_1
*CAP
1 bready 0.00124407
2 *3278:A 0.00124407
3 *3278:A *2710:B2 0.0001247
4 *3278:A *2711:S 1.09923e-05
5 *3278:A *2718:A2 0
6 *3278:A *2759:A1 0
7 *3278:A *3312:A 0.00043088
8 *3278:A *3354:A 0.000120576
9 *3278:A *505:61 0
10 *3278:A *968:14 8.20031e-06
11 *3278:A *968:24 3.68454e-05
12 *3278:A *1047:123 1.93834e-05
13 PADDR[1] *3278:A 0.000128612
14 PSEL1 *3278:A 0
15 arready *3278:A 0.000260717
16 *3251:A *3278:A 0
17 *3254:A *3278:A 0.000290985
18 *3267:A *3278:A 0
19 *3271:A *3278:A 0.000403437
*RES
1 bready *3278:A 17.6441 
*END

*D_NET *72 0.00121399
*CONN
*P bresp O
*I *3348:X O *D sky130_fd_sc_hd__buf_2
*CAP
1 bresp 0.00056583
2 *3348:X 0.00056583
3 bresp bvalid 0
4 bresp *3348:A 4.99619e-05
5 bresp *968:14 3.23663e-05
6 *3267:A bresp 0
7 *3271:A bresp 0
*RES
1 *3348:X bresp 13.2 
*END

*D_NET *73 0.00151361
*CONN
*P bvalid O
*I *3349:X O *D sky130_fd_sc_hd__buf_2
*CAP
1 bvalid 0.000606203
2 *3349:X 0.000606203
3 bvalid rdata[13] 0
4 bvalid *3348:A 0.000238919
5 bresp bvalid 0
6 *3267:A bvalid 6.22834e-05
*RES
1 *3349:X bvalid 14.235 
*END

*D_NET *74 0.00946466
*CONN
*P clk I
*I *3099:A I *D sky130_fd_sc_hd__clkbuf_16
*CAP
1 clk 0.00141781
2 *3099:A 0.0025515
3 *74:9 0.00396931
4 *3099:A *2683:A1 3.00381e-05
5 *3099:A *2768:A1 9.66021e-05
6 *3099:A *2768:B1 0.000128017
7 *3099:A *2829:D 0.000157968
8 *3099:A *3225:A 8.94607e-05
9 *3099:A *672:53 1.12578e-05
10 *3099:A *672:70 0.00027441
11 *3099:A *754:12 1.16646e-05
12 *3099:A *804:10 0.000595492
13 *3099:A *945:6 4.40325e-06
14 *74:9 rvalid 0
15 *74:9 *3319:A 0.000126725
16 *74:9 *992:16 0
17 *3273:A *74:9 0
*RES
1 clk *74:9 26.78 
2 *74:9 *3099:A 32.77 
*END

*D_NET *75 0.00352557
*CONN
*P rdata[0] O
*I *3350:X O *D sky130_fd_sc_hd__buf_2
*CAP
1 rdata[0] 0.00151134
2 *3350:X 0.00151134
3 rdata[0] rdata[11] 0
4 rdata[0] rdata[14] 5.21706e-05
5 rdata[0] *2809:D 2.96426e-05
6 rdata[0] *3350:A 0.000421068
*RES
1 *3350:X rdata[0] 29.37 
*END

*D_NET *76 0.0023033
*CONN
*P rdata[10] O
*I *3351:X O *D sky130_fd_sc_hd__buf_2
*CAP
1 rdata[10] 0.000673976
2 *3351:X 0.000673976
3 rdata[10] rdata[14] 8.65905e-05
4 rdata[10] rdata[3] 0
5 rdata[10] *2461:B 2.75538e-05
6 rdata[10] *2807:D 0.000140905
7 rdata[10] *3350:A 3.03459e-05
8 rdata[10] *3352:A 0.000281532
9 PWDATA[0] rdata[10] 0.000287243
10 PWDATA[2] rdata[10] 0.000101175
*RES
1 *3351:X rdata[10] 18.345 
*END

*D_NET *77 0.00396288
*CONN
*P rdata[11] O
*I *3352:X O *D sky130_fd_sc_hd__buf_2
*CAP
1 rdata[11] 0.00153912
2 *3352:X 0.00153912
3 rdata[11] rdata[3] 7.34047e-06
4 rdata[11] *2638:A 1.61831e-05
5 rdata[11] *2638:B 9.14049e-05
6 rdata[11] *2657:A1 0
7 rdata[11] *2797:D 1.01661e-05
8 rdata[11] *2797:GATE_N 4.9253e-06
9 rdata[11] *2799:GATE_N 2.50602e-05
10 rdata[11] *2807:GATE_N 5.58772e-05
11 rdata[11] *3310:A 1.83756e-05
12 rdata[11] *3329:A 0.000224502
13 rdata[11] *3352:A 0.000302471
14 rdata[11] *888:42 7.67415e-06
15 PWDATA[0] rdata[11] 0.000120655
16 rdata[0] rdata[11] 0
17 *3243:A rdata[11] 0
18 *3245:A rdata[11] 0
*RES
1 *3352:X rdata[11] 31.585 
*END

*D_NET *78 0.00081874
*CONN
*P rdata[12] O
*I *3353:X O *D sky130_fd_sc_hd__buf_2
*CAP
1 rdata[12] 0.000392086
2 *3353:X 0.000392086
3 rdata[12] *2643:A1 3.45679e-05
4 rdata[12] *3290:A 0
5 *3242:A rdata[12] 0
*RES
1 *3353:X rdata[12] 10.185 
*END

*D_NET *79 0.00180824
*CONN
*P rdata[13] O
*I *3354:X O *D sky130_fd_sc_hd__buf_2
*CAP
1 rdata[13] 0.000724761
2 *3354:X 0.000724761
3 rdata[13] rdata[5] 6.07575e-06
4 rdata[13] *3348:A 9.79198e-05
5 rdata[13] *882:19 5.30242e-05
6 rdata[13] *968:14 0.000198046
7 bvalid rdata[13] 0
8 *3261:A rdata[13] 3.64998e-06
9 *3267:A rdata[13] 0
*RES
1 *3354:X rdata[13] 16.29 
*END

*D_NET *80 0.00348549
*CONN
*P rdata[14] O
*I *3355:X O *D sky130_fd_sc_hd__buf_2
*CAP
1 rdata[14] 0.000840036
2 *3355:X 0.000840036
3 rdata[14] *2648:A1 1.88602e-05
4 rdata[14] *2657:A1 0.000189377
5 rdata[14] *2809:D 4.66108e-05
6 rdata[14] *3310:A 0.000332536
7 rdata[14] *3350:A 0.000122432
8 rdata[14] *3355:A 7.29911e-05
9 rdata[0] rdata[14] 5.21706e-05
10 rdata[10] rdata[14] 8.65905e-05
11 *3245:A rdata[14] 0.000756633
12 *3297:A rdata[14] 0.000127219
*RES
1 *3355:X rdata[14] 22.86 
*END

*D_NET *81 0.000864128
*CONN
*P rdata[15] O
*I *3356:X O *D sky130_fd_sc_hd__buf_2
*CAP
1 rdata[15] 0.000388766
2 *3356:X 0.000388766
3 rdata[15] rdata[2] 0
4 rdata[15] rdata[9] 0
5 rdata[15] *791:18 8.65961e-05
*RES
1 *3356:X rdata[15] 10.185 
*END

*D_NET *82 0.000578459
*CONN
*P rdata[1] O
*I *3357:X O *D sky130_fd_sc_hd__buf_2
*CAP
1 rdata[1] 0.000260307
2 *3357:X 0.000260307
3 rdata[1] *3357:A 5.78448e-05
*RES
1 *3357:X rdata[1] 5.92503 
*END

*D_NET *83 0.000864128
*CONN
*P rdata[2] O
*I *3309:X O *D sky130_fd_sc_hd__buf_2
*CAP
1 rdata[2] 0.000388766
2 *3309:X 0.000388766
3 rdata[2] rdata[8] 0
4 rdata[2] *791:18 8.65961e-05
5 rdata[15] rdata[2] 0
*RES
1 *3309:X rdata[2] 10.185 
*END

*D_NET *84 0.00261586
*CONN
*P rdata[3] O
*I *3310:X O *D sky130_fd_sc_hd__buf_2
*CAP
1 rdata[3] 0.000894204
2 *3310:X 0.000894204
3 rdata[3] rdata[7] 0
4 rdata[3] *2802:D 0.000225113
5 rdata[3] *2802:GATE_N 5.38292e-05
6 rdata[3] *2807:GATE_N 0.000319939
7 rdata[3] *3310:A 3.00381e-05
8 rdata[3] *3314:A 1.01661e-05
9 PWDATA[0] rdata[3] 0
10 PWDATA[5] rdata[3] 0.000181022
11 rdata[10] rdata[3] 0
12 rdata[11] rdata[3] 7.34047e-06
13 *3248:A rdata[3] 0
*RES
1 *3310:X rdata[3] 18.405 
*END

*D_NET *85 0.00152763
*CONN
*P rdata[4] O
*I *3311:X O *D sky130_fd_sc_hd__buf_2
*CAP
1 rdata[4] 0.000391405
2 *3311:X 0.000391405
3 rdata[4] *3311:A 3.00381e-05
4 PSEL1 rdata[4] 0.000481957
5 PSEL3 rdata[4] 0.000232829
6 *3270:A rdata[4] 0
*RES
1 *3311:X rdata[4] 14.805 
*END

*D_NET *86 0.0025922
*CONN
*P rdata[5] O
*I *3312:X O *D sky130_fd_sc_hd__buf_2
*CAP
1 rdata[5] 0.000961588
2 *3312:X 0.000961588
3 rdata[5] *2710:B2 6.03947e-06
4 rdata[5] *2710:C1 0.000201503
5 rdata[5] *3348:A 0.000122337
6 rdata[5] *882:8 2.08914e-05
7 rdata[13] rdata[5] 6.07575e-06
8 *3250:A rdata[5] 0
9 *3261:A rdata[5] 0.000312182
*RES
1 *3312:X rdata[5] 18.72 
*END

*D_NET *87 0.000949645
*CONN
*P rdata[6] O
*I *3313:X O *D sky130_fd_sc_hd__buf_2
*CAP
1 rdata[6] 0.000412372
2 *3313:X 0.000412372
3 rdata[6] rdata[7] 0
4 rdata[6] rdata[8] 0
5 rdata[6] *791:18 0.0001249
*RES
1 *3313:X rdata[6] 10.53 
*END

*D_NET *88 0.000866773
*CONN
*P rdata[7] O
*I *3314:X O *D sky130_fd_sc_hd__buf_2
*CAP
1 rdata[7] 0.000379283
2 *3314:X 0.000379283
3 rdata[7] *791:18 8.65961e-05
4 rdata[3] rdata[7] 0
5 rdata[6] rdata[7] 0
6 *3248:A rdata[7] 2.16104e-05
*RES
1 *3314:X rdata[7] 10.185 
*END

*D_NET *89 0.000949645
*CONN
*P rdata[8] O
*I *3315:X O *D sky130_fd_sc_hd__buf_2
*CAP
1 rdata[8] 0.000412372
2 *3315:X 0.000412372
3 rdata[8] *791:18 0.0001249
4 rdata[2] rdata[8] 0
5 rdata[6] rdata[8] 0
*RES
1 *3315:X rdata[8] 10.53 
*END

*D_NET *90 0.000860886
*CONN
*P rdata[9] O
*I *3316:X O *D sky130_fd_sc_hd__buf_2
*CAP
1 rdata[9] 0.000387145
2 *3316:X 0.000387145
3 rdata[9] *3294:A 0
4 rdata[9] *791:18 8.65961e-05
5 rdata[15] rdata[9] 0
*RES
1 *3316:X rdata[9] 10.185 
*END

*D_NET *91 0.00112019
*CONN
*P res_n I
*I *3279:A I *D sky130_fd_sc_hd__buf_1
*CAP
1 res_n 0.000490265
2 *3279:A 0.000490265
3 *3279:A *2647:A1 5.30673e-05
4 *3279:A *2656:A1 8.65961e-05
5 *3273:A *3279:A 0
6 *3302:A *3279:A 0
*RES
1 res_n *3279:A 12.675 
*END

*D_NET *92 0.000959705
*CONN
*P rlast O
*I *3317:X O *D sky130_fd_sc_hd__buf_2
*CAP
1 rlast 0.000461418
2 *3317:X 0.000461418
3 rlast *957:18 3.68682e-05
4 awready rlast 0
5 *3272:A rlast 0
*RES
1 *3317:X rlast 12.06 
*END

*D_NET *93 0.000948648
*CONN
*P rready I
*I *3280:A I *D sky130_fd_sc_hd__clkbuf_1
*CAP
1 rready 0.000474324
2 *3280:A 0.000474324
3 *3280:A rresp 0
4 *3280:A *3289:A 0
5 *3280:A *3318:A 0
*RES
1 rready *3280:A 11.88 
*END

*D_NET *94 0.000921352
*CONN
*P rresp O
*I *3318:X O *D sky130_fd_sc_hd__buf_2
*CAP
1 rresp 0.000460676
2 *3318:X 0.000460676
3 rresp *3292:A 0
4 *3280:A rresp 0
*RES
1 *3318:X rresp 11.715 
*END

*D_NET *95 0.000920021
*CONN
*P rvalid O
*I *3319:X O *D sky130_fd_sc_hd__buf_2
*CAP
1 rvalid 0.00046001
2 *3319:X 0.00046001
3 rvalid *957:18 0
4 *3259:A rvalid 0
5 *74:9 rvalid 0
*RES
1 *3319:X rvalid 11.715 
*END

*D_NET *96 0.00121131
*CONN
*P wdata[0] I
*I *3281:A I *D sky130_fd_sc_hd__clkbuf_1
*CAP
1 wdata[0] 0.000507789
2 *3281:A 0.000507789
3 *3281:A *2643:A0 2.16917e-05
4 *3281:A *2643:S 9.50342e-06
5 *3281:A *2650:A1 2.75229e-05
6 *3281:A *3353:A 1.37895e-05
7 *3247:A *3281:A 0.000123225
8 *3249:A *3281:A 0
*RES
1 wdata[0] *3281:A 12.69 
*END

*D_NET *97 0.000971324
*CONN
*P wdata[10] I
*I *3282:A I *D sky130_fd_sc_hd__clkbuf_1
*CAP
1 wdata[10] 0.000386421
2 *3282:A 0.000386421
3 *3282:A *2643:A1 0.0001249
4 *3282:A *3353:A 7.35813e-05
5 *3253:A *3282:A 0
6 *3264:A *3282:A 0
*RES
1 wdata[10] *3282:A 11.04 
*END

*D_NET *98 0.00082718
*CONN
*P wdata[11] I
*I *3283:A I *D sky130_fd_sc_hd__clkbuf_1
*CAP
1 wdata[11] 0.000375683
2 *3283:A 0.000375683
3 *3283:A *2643:A1 4.82919e-05
4 *3283:A *3291:A 0
5 *3283:A *3295:A 0
6 *3283:A *3353:A 2.75229e-05
*RES
1 wdata[11] *3283:A 10.35 
*END

*D_NET *99 0.000820714
*CONN
*P wdata[12] I
*I *3284:A I *D sky130_fd_sc_hd__clkbuf_1
*CAP
1 wdata[12] 0.000386211
2 *3284:A 0.000386211
3 *3284:A *3298:A 0
4 *3284:A *884:34 4.82919e-05
5 *3249:A *3284:A 0
*RES
1 wdata[12] *3284:A 10.35 
*END

*D_NET *100 0.00101554
*CONN
*P wdata[13] I
*I *3285:A I *D sky130_fd_sc_hd__clkbuf_1
*CAP
1 wdata[13] 0.000507771
2 *3285:A 0.000507771
3 *3285:A *3292:A 0
4 awready *3285:A 0
*RES
1 wdata[13] *3285:A 12.57 
*END

*D_NET *101 0.000865809
*CONN
*P wdata[14] I
*I *3287:A I *D sky130_fd_sc_hd__clkbuf_1
*CAP
1 wdata[14] 0.000384612
2 *3287:A 0.000384612
3 *3287:A *2643:A1 4.82919e-05
4 *3287:A *3353:A 4.82919e-05
5 *3253:A *3287:A 0
6 *3303:A *3287:A 0
*RES
1 wdata[14] *3287:A 10.35 
*END

*D_NET *102 0.00150777
*CONN
*P wdata[15] I
*I *3288:A I *D sky130_fd_sc_hd__clkbuf_1
*CAP
1 wdata[15] 0.00042883
2 *3288:A 0.00042883
3 *3288:A *2651:A0 0.000163204
4 *3288:A *2651:A1 0.000238919
5 *3288:A *3294:A 0
6 *3288:A *3296:A 0
7 *3288:A *791:18 0.000160641
8 *3288:A *884:24 3.90495e-05
9 *3288:A *884:34 4.82919e-05
*RES
1 wdata[15] *3288:A 13.11 
*END

*D_NET *103 0.00105768
*CONN
*P wdata[1] I
*I *3289:A I *D sky130_fd_sc_hd__clkbuf_1
*CAP
1 wdata[1] 0.000523747
2 *3289:A 0.000523747
3 *3289:A wready 0
4 *3289:A *2656:A1 1.0183e-05
5 *3280:A *3289:A 0
*RES
1 wdata[1] *3289:A 12.57 
*END

*D_NET *104 0.000847153
*CONN
*P wdata[2] I
*I *3290:A I *D sky130_fd_sc_hd__clkbuf_1
*CAP
1 wdata[2] 0.000375285
2 *3290:A 0.000375285
3 *3290:A *2643:A1 4.82919e-05
4 *3290:A *3353:A 4.82919e-05
5 rdata[12] *3290:A 0
6 *3303:A *3290:A 0
*RES
1 wdata[2] *3290:A 10.35 
*END

*D_NET *105 0.00082718
*CONN
*P wdata[3] I
*I *3291:A I *D sky130_fd_sc_hd__clkbuf_1
*CAP
1 wdata[3] 0.000375683
2 *3291:A 0.000375683
3 *3291:A *2643:A1 4.82919e-05
4 *3291:A *3353:A 2.75229e-05
5 *3264:A *3291:A 0
6 *3283:A *3291:A 0
*RES
1 wdata[3] *3291:A 10.35 
*END

*D_NET *106 0.00103456
*CONN
*P wdata[4] I
*I *3292:A I *D sky130_fd_sc_hd__clkbuf_1
*CAP
1 wdata[4] 0.00050182
2 *3292:A 0.00050182
3 *3292:A *3320:A 3.09164e-05
4 rresp *3292:A 0
5 *3285:A *3292:A 0
*RES
1 wdata[4] *3292:A 12.57 
*END

*D_NET *107 0.000948355
*CONN
*P wdata[5] I
*I *3293:A I *D sky130_fd_sc_hd__buf_1
*CAP
1 wdata[5] 0.0004711
2 *3293:A 0.0004711
3 *3293:A *968:24 6.15576e-06
4 *3276:A *3293:A 0
5 *3277:A *3293:A 0
*RES
1 wdata[5] *3293:A 11.88 
*END

*D_NET *108 0.00143447
*CONN
*P wdata[6] I
*I *3294:A I *D sky130_fd_sc_hd__clkbuf_1
*CAP
1 wdata[6] 0.000588821
2 *3294:A 0.000588821
3 *3294:A *3157:A 4.70343e-05
4 *3294:A *3174:A 4.82919e-05
5 *3294:A *521:18 0.000111285
6 *3294:A *791:18 5.02217e-05
7 rdata[9] *3294:A 0
8 *3288:A *3294:A 0
*RES
1 wdata[6] *3294:A 14.475 
*END

*D_NET *109 0.00084419
*CONN
*P wdata[7] I
*I *3295:A I *D sky130_fd_sc_hd__clkbuf_1
*CAP
1 wdata[7] 0.000352749
2 *3295:A 0.000352749
3 *3295:A *2643:A1 4.82919e-05
4 *3295:A *2646:A1 6.28765e-05
5 *3295:A *3353:A 2.75229e-05
6 *3247:A *3295:A 0
7 *3283:A *3295:A 0
*RES
1 wdata[7] *3295:A 10.35 
*END

*D_NET *110 0.000835243
*CONN
*P wdata[8] I
*I *3296:A I *D sky130_fd_sc_hd__clkbuf_1
*CAP
1 wdata[8] 0.000393476
2 *3296:A 0.000393476
3 *3296:A *3298:A 0
4 *3296:A *884:34 4.82919e-05
5 *3288:A *3296:A 0
*RES
1 wdata[8] *3296:A 10.35 
*END

*D_NET *111 0.000953852
*CONN
*P wdata[9] I
*I *3298:A I *D sky130_fd_sc_hd__clkbuf_1
*CAP
1 wdata[9] 0.000414476
2 *3298:A 0.000414476
3 *3298:A *884:34 0.0001249
4 *3284:A *3298:A 0
5 *3296:A *3298:A 0
*RES
1 wdata[9] *3298:A 11.04 
*END

*D_NET *112 0.00110022
*CONN
*P wlast I
*I *3299:A I *D sky130_fd_sc_hd__clkbuf_1
*CAP
1 wlast 0.00052513
2 *3299:A 0.00052513
3 *3299:A *2709:B1 0
4 *3299:A *3235:A 4.99619e-05
5 *3272:A *3299:A 0
6 *3274:A *3299:A 0
*RES
1 wlast *3299:A 13.02 
*END

*D_NET *113 0.00100036
*CONN
*P wready O
*I *3320:X O *D sky130_fd_sc_hd__buf_2
*CAP
1 wready 0.000475198
2 *3320:X 0.000475198
3 wready *2656:A1 4.99619e-05
4 *3289:A wready 0
5 *3302:A wready 0
*RES
1 *3320:X wready 11.82 
*END

*D_NET *114 0.00093041
*CONN
*P wvalid I
*I *3300:A I *D sky130_fd_sc_hd__buf_1
*CAP
1 wvalid 0.000465205
2 *3300:A 0.000465205
3 *3244:A *3300:A 0
4 *3286:A *3300:A 0
*RES
1 wvalid *3300:A 11.88 
*END

*D_NET *115 0.00399942
*CONN
*I *2444:B I *D sky130_fd_sc_hd__and2_1
*I *2752:A0 I *D sky130_fd_sc_hd__mux2_1
*I *2758:C I *D sky130_fd_sc_hd__and4b_1
*I *2753:A1 I *D sky130_fd_sc_hd__a21o_1
*I *2755:B1 I *D sky130_fd_sc_hd__o2bb2a_2
*I *2750:A I *D sky130_fd_sc_hd__nor2_1
*I *3090:Q O *D sky130_fd_sc_hd__dfrtp_1
*CAP
1 *2444:B 0
2 *2752:A0 0
3 *2758:C 1.10148e-05
4 *2753:A1 0
5 *2755:B1 0.000218174
6 *2750:A 0.000139354
7 *3090:Q 3.90178e-05
8 *115:34 0.000426543
9 *115:26 0.000123746
10 *115:22 0.000102724
11 *115:16 0.000252604
12 *115:10 0.000254645
13 *2750:A *2753:B1 8.14868e-05
14 *2750:A *2754:B 0.000194692
15 *2750:A *2755:A2_N 4.82863e-05
16 *2750:A *882:25 5.30352e-05
17 *2750:A *891:110 3.25997e-05
18 *2750:A *891:127 2.96763e-05
19 *2750:A *1050:37 0.000203387
20 *2755:B1 *2445:B 2.97561e-05
21 *2755:B1 *3092:D 1.92979e-05
22 *2755:B1 *116:10 4.84393e-05
23 *2755:B1 *505:38 0.000221962
24 *2755:B1 *882:44 0.000177989
25 *2755:B1 *982:52 7.47215e-05
26 *2758:C *2753:A2 3.66286e-05
27 *2758:C *2759:B1 4.66108e-05
28 *115:10 *2759:B2 0.000139924
29 *115:10 *3325:A 0.000139924
30 *115:16 *2444:A 1.19928e-05
31 *115:16 *2751:A2 0
32 *115:16 *2751:B2 0.000155491
33 *115:22 *2759:A1 9.30787e-05
34 *115:22 *3322:A 4.94404e-05
35 *115:26 *2753:A2 0.000160641
36 *115:26 *2753:B1 0
37 *115:26 *2755:A2_N 7.67415e-06
38 *115:26 *2759:B1 0.00020591
39 *115:34 *2753:A2 0
40 *115:34 *2753:B1 3.21718e-05
41 *115:34 *2755:A2_N 7.96134e-05
42 *115:34 *2759:B1 3.0315e-05
43 *3251:A *2750:A 2.68526e-05
*RES
1 *3090:Q *115:10 7.235 
2 *115:10 *115:16 3.24 
3 *115:16 *115:22 5.125 
4 *115:22 *115:26 2.19 
5 *115:26 *115:34 1.965 
6 *115:34 *2750:A 10.175 
7 *115:34 *2755:B1 11.57 
8 *115:26 *2753:A1 1.6 
9 *115:22 *2758:C 2.05 
10 *115:16 *2752:A0 1.6 
11 *115:10 *2444:B 1.6 
*END

*D_NET *116 0.00440694
*CONN
*I *2758:D I *D sky130_fd_sc_hd__and4b_1
*I *2753:A2 I *D sky130_fd_sc_hd__a21o_1
*I *3241:A I *D sky130_fd_sc_hd__dlygate4sd3_1
*I *2755:B2 I *D sky130_fd_sc_hd__o2bb2a_2
*I *2445:B I *D sky130_fd_sc_hd__and2_1
*I *3091:Q O *D sky130_fd_sc_hd__dfrtp_1
*CAP
1 *2758:D 0
2 *2753:A2 0.000105061
3 *3241:A 5.11877e-05
4 *2755:B2 2.55105e-05
5 *2445:B 0.000174848
6 *3091:Q 0
7 *116:57 0.000279084
8 *116:38 0.000354296
9 *116:10 0.000532412
10 *116:4 0.000461139
11 *2445:B *2445:A 6.46447e-05
12 *2445:B *2448:A 4.82919e-05
13 *2445:B *2448:B 4.77719e-05
14 *2445:B *2672:A 0.0002257
15 *2445:B *2757:B2 9.87031e-05
16 *2445:B *3178:A 1.71013e-05
17 *2445:B *882:52 9.84146e-05
18 *2445:B *982:27 1.0183e-05
19 *2445:B *982:52 5.72742e-05
20 *2753:A2 *2755:A2_N 1.19928e-05
21 *2753:A2 *2758:A_N 8.40213e-05
22 *2753:A2 *2759:A1 3.97461e-05
23 *2753:A2 *2759:B1 2.94108e-05
24 *2755:B2 *2756:B 4.82863e-05
25 *3241:A *2751:B2 4.41506e-05
26 *116:10 *2661:A0 4.82919e-05
27 *116:10 *3091:D 0.000180193
28 *116:10 *882:44 4.5783e-05
29 *116:10 *882:52 4.43871e-06
30 *116:38 *2446:B 7.47215e-05
31 *116:38 *2661:A0 8.40213e-05
32 *116:38 *3091:D 4.9968e-05
33 *116:38 *117:23 0.000155176
34 *116:38 *739:22 2.24336e-05
35 *116:38 *739:44 4.70343e-05
36 *116:57 *2751:B2 4.16869e-05
37 *116:57 *2759:A1 0.000170645
38 *116:57 *2759:B1 9.3042e-05
39 *116:57 *2759:B2 1.20741e-05
40 *116:57 *2759:C1 4.49987e-05
41 *116:57 *3325:A 6.56245e-05
42 *116:57 *117:23 6.97124e-05
43 *116:57 *739:44 1.24035e-05
44 *2755:B1 *2445:B 2.97561e-05
45 *2755:B1 *116:10 4.84393e-05
46 *2758:C *2753:A2 3.66286e-05
47 *115:26 *2753:A2 0.000160641
48 *115:34 *2753:A2 0
*RES
1 *3091:Q *116:4 1.6 
2 *116:4 *116:10 6.68 
3 *116:10 *2445:B 9.135 
4 *116:10 *2755:B2 4.05 
5 *116:4 *116:38 5.45 
6 *116:38 *3241:A 4.395 
7 *116:38 *116:57 6.43625 
8 *116:57 *2753:A2 4.33375 
9 *116:57 *2758:D 1.6 
*END

*D_NET *117 0.00284499
*CONN
*I *3236:A I *D sky130_fd_sc_hd__dlygate4sd3_1
*I *2446:B I *D sky130_fd_sc_hd__and2_1
*I *2758:A_N I *D sky130_fd_sc_hd__and4b_1
*I *3092:Q O *D sky130_fd_sc_hd__dfrtp_1
*CAP
1 *3236:A 0
2 *2446:B 0.000167737
3 *2758:A_N 0.000337148
4 *3092:Q 0
5 *117:23 0.000231068
6 *117:4 0.000400479
7 *2446:B *2446:A 7.10866e-05
8 *2446:B *2659:S 9.02174e-05
9 *2446:B *3091:D 2.79004e-05
10 *2446:B *3323:A 0.000269521
11 *2446:B *3325:A 0.000203769
12 *2446:B *374:27 7.47145e-05
13 *2758:A_N *2751:B2 0.000120655
14 *2758:A_N *2755:A2_N 5.83121e-06
15 *2758:A_N *2758:B 0.000116853
16 *2758:A_N *3322:A 0.00011852
17 *117:23 *3325:A 0.00022586
18 *2753:A2 *2758:A_N 8.40213e-05
19 *116:38 *2446:B 7.47215e-05
20 *116:38 *117:23 0.000155176
21 *116:57 *117:23 6.97124e-05
*RES
1 *3092:Q *117:4 1.6 
2 *117:4 *2758:A_N 10.64 
3 *117:4 *117:23 4.655 
4 *117:23 *2446:B 9.21 
5 *117:23 *3236:A 3.6 
*END

*D_NET *118 0.000979269
*CONN
*I *2460:A1 I *D sky130_fd_sc_hd__o22ai_2
*I *2830:Q O *D sky130_fd_sc_hd__dlxtn_1
*CAP
1 *2460:A1 0.000317542
2 *2830:Q 0.000317542
3 *2460:A1 *2452:A1 0
4 *2460:A1 *2830:GATE_N 1.32843e-05
5 *2460:A1 *2841:GATE_N 0
6 *2460:A1 *521:18 0.000330899
*RES
1 *2830:Q *2460:A1 12.36 
*END

*D_NET *119 0.000530909
*CONN
*I *2570:A1 I *D sky130_fd_sc_hd__o22ai_1
*I *2840:Q O *D sky130_fd_sc_hd__dlxtn_1
*CAP
1 *2570:A1 0.000165693
2 *2840:Q 0.000165693
3 *2570:A1 *2649:A0 5.65627e-05
4 *2570:A1 *2799:D 0.000112037
5 *2570:A1 *932:134 3.09233e-05
*RES
1 *2840:Q *2570:A1 9.975 
*END

*D_NET *120 0.00074491
*CONN
*I *2581:A1 I *D sky130_fd_sc_hd__o22ai_2
*I *2841:Q O *D sky130_fd_sc_hd__dlxtn_1
*CAP
1 *2581:A1 0.000124351
2 *2841:Q 0.000124351
3 *2581:A1 *2550:A2 2.97872e-06
4 *2581:A1 *2551:B1 0.000110946
5 *2581:A1 *2551:B2 1.19928e-05
6 *2581:A1 *631:18 0.000130407
7 *2581:A1 *858:15 0.000105508
8 *2581:A1 *892:121 0.000134375
*RES
1 *2841:Q *2581:A1 10.665 
*END

*D_NET *121 0.00136099
*CONN
*I *2592:A1 I *D sky130_fd_sc_hd__o22ai_2
*I *2842:Q O *D sky130_fd_sc_hd__dlxtn_1
*CAP
1 *2592:A1 0.000281954
2 *2842:Q 0.000281954
3 *2592:A1 *2584:A1 0.000205428
4 *2592:A1 *641:10 0.000289011
5 *2592:A1 *825:130 5.98004e-06
6 *2592:A1 *838:105 0.000233781
7 *2592:A1 *896:48 5.73518e-05
8 *2592:A1 *932:30 5.53249e-06
*RES
1 *2842:Q *2592:A1 13.05 
*END

*D_NET *122 0.000411231
*CONN
*I *2603:A1 I *D sky130_fd_sc_hd__o22ai_2
*I *2843:Q O *D sky130_fd_sc_hd__dlxtn_1
*CAP
1 *2603:A1 0.000131178
2 *2843:Q 0.000131178
3 *2603:A1 *2471:A2 5.53249e-06
4 *2603:A1 *2595:A1 6.59891e-05
5 *2603:A1 *2603:B2 4.66108e-05
6 *2603:A1 *849:98 0
7 *2603:A1 *933:82 3.07434e-05
*RES
1 *2843:Q *2603:A1 9.285 
*END

*D_NET *123 0.00145279
*CONN
*I *2614:A1 I *D sky130_fd_sc_hd__o22ai_2
*I *2844:Q O *D sky130_fd_sc_hd__dlxtn_1
*CAP
1 *2614:A1 0.000266691
2 *2844:Q 0.000266691
3 *2614:A1 *2605:A2 0.000473167
4 *2614:A1 *2606:C1 0.000192489
5 *2614:A1 *827:44 0.000123492
6 *2614:A1 *894:127 0.000130256
*RES
1 *2844:Q *2614:A1 14.055 
*END

*D_NET *124 0.00105443
*CONN
*I *2625:A1 I *D sky130_fd_sc_hd__o22ai_2
*I *2845:Q O *D sky130_fd_sc_hd__dlxtn_1
*CAP
1 *2625:A1 0.000323305
2 *2845:Q 0.000323305
3 *2625:A1 *2472:B 0.000103637
4 *2625:A1 *2515:A2 0.000136905
5 *2625:A1 *2845:D 3.03775e-05
6 *2625:A1 *3143:A 0.000136905
*RES
1 *2845:Q *2625:A1 12.39 
*END

*D_NET *125 0.000568084
*CONN
*I *2471:A1 I *D sky130_fd_sc_hd__o22ai_2
*I *2831:Q O *D sky130_fd_sc_hd__dlxtn_1
*CAP
1 *2471:A1 0.000202442
2 *2831:Q 0.000202442
3 *2471:A1 *2465:B1 0.000163199
4 *2471:A1 *829:20 0
5 *2471:A1 *830:31 0
*RES
1 *2831:Q *2471:A1 10.065 
*END

*D_NET *126 0.000254777
*CONN
*I *2482:A1 I *D sky130_fd_sc_hd__o22ai_1
*I *2832:Q O *D sky130_fd_sc_hd__dlxtn_1
*CAP
1 *2482:A1 0.0001122
2 *2832:Q 0.0001122
3 *2482:A1 *2474:B1 3.03775e-05
4 *2482:A1 *2482:A2 0
*RES
1 *2832:Q *2482:A1 4.955 
*END

*D_NET *127 0.00105563
*CONN
*I *2493:A1 I *D sky130_fd_sc_hd__o22ai_2
*I *2833:Q O *D sky130_fd_sc_hd__dlxtn_1
*CAP
1 *2493:A1 0.000227647
2 *2833:Q 0.000227647
3 *2493:A1 *2493:A2 4.99619e-05
4 *2493:A1 *3041:D 4.83324e-05
5 *2493:A1 *551:40 4.82919e-05
6 *2493:A1 *590:24 5.84749e-05
7 *2493:A1 *811:143 0
8 *2493:A1 *822:49 0.000395278
*RES
1 *2833:Q *2493:A1 12.795 
*END

*D_NET *128 0.000778077
*CONN
*I *2504:A1 I *D sky130_fd_sc_hd__o22ai_2
*I *2834:Q O *D sky130_fd_sc_hd__dlxtn_1
*CAP
1 *2504:A1 0.000228695
2 *2834:Q 0.000228695
3 *2504:A1 *2504:A2 7.9642e-06
4 *2504:A1 *3138:A 1.3175e-05
5 *2504:A1 *561:14 9.32397e-06
6 *2504:A1 *826:12 0
7 *2504:A1 *828:18 7.96104e-06
8 *2504:A1 *839:50 0.000158072
9 *2504:A1 *919:49 0.000124191
*RES
1 *2834:Q *2504:A1 10.77 
*END

*D_NET *129 0.000785271
*CONN
*I *2515:A1 I *D sky130_fd_sc_hd__o22ai_1
*I *2835:Q O *D sky130_fd_sc_hd__dlxtn_1
*CAP
1 *2515:A1 0.000167539
2 *2835:Q 0.000167539
3 *2515:A1 *2507:A1 0
4 *2515:A1 *2515:B2 0.000148029
5 *2515:A1 *2604:B 0.000226697
6 *2515:A1 *2640:B 7.54672e-05
*RES
1 *2835:Q *2515:A1 11.325 
*END

*D_NET *130 0.000730232
*CONN
*I *2526:A1 I *D sky130_fd_sc_hd__o22ai_1
*I *2836:Q O *D sky130_fd_sc_hd__dlxtn_1
*CAP
1 *2526:A1 0.000215018
2 *2836:Q 0.000215018
3 *2526:A1 *2515:A2 0.000129333
4 *2526:A1 *3161:A 0.00011852
5 *2526:A1 *581:10 3.71082e-05
6 *2526:A1 *885:32 0
7 *2526:A1 *933:39 1.52352e-05
*RES
1 *2836:Q *2526:A1 11.445 
*END

*D_NET *131 0.000465951
*CONN
*I *2537:A1 I *D sky130_fd_sc_hd__o22ai_1
*I *2837:Q O *D sky130_fd_sc_hd__dlxtn_1
*CAP
1 *2537:A1 8.10044e-05
2 *2837:Q 8.10044e-05
3 *2537:A1 *2537:B1 0.000159947
4 *2537:A1 *2537:B2 0.000143995
*RES
1 *2837:Q *2537:A1 6.44 
*END

*D_NET *132 0.000767326
*CONN
*I *2548:A1 I *D sky130_fd_sc_hd__o22ai_1
*I *2838:Q O *D sky130_fd_sc_hd__dlxtn_1
*CAP
1 *2548:A1 0.000162557
2 *2838:Q 0.000162557
3 *2548:A1 *2548:A2 0.000121811
4 *2548:A1 *2635:B 0.00011852
5 *2548:A1 *3161:A 0.00011852
6 *2548:A1 *601:8 8.33607e-05
*RES
1 *2838:Q *2548:A1 11.1 
*END

*D_NET *133 0.00054931
*CONN
*I *2559:A1 I *D sky130_fd_sc_hd__o22ai_2
*I *2839:Q O *D sky130_fd_sc_hd__dlxtn_1
*CAP
1 *2559:A1 0.000156779
2 *2839:Q 0.000156779
3 *2559:A1 *3157:A 0.000113416
4 *2559:A1 *838:54 0.000122337
5 *2559:A1 *874:20 0
*RES
1 *2839:Q *2559:A1 9.72 
*END

*D_NET *134 0.000827065
*CONN
*I *2455:A1 I *D sky130_fd_sc_hd__a22o_1
*I *2990:Q O *D sky130_fd_sc_hd__dlxtn_1
*CAP
1 *2455:A1 0.000268135
2 *2990:Q 0.000268135
3 *2455:A1 *2455:A2 3.13354e-05
4 *2455:A1 *2455:B1 1.56428e-05
5 *2455:A1 *2455:B2 4.77719e-05
6 *2455:A1 *2478:A1 0.000196045
7 *2455:A1 *873:60 0
*RES
1 *2990:Q *2455:A1 12.15 
*END

*D_NET *135 0.000447304
*CONN
*I *2568:A1 I *D sky130_fd_sc_hd__a211o_1
*I *3000:Q O *D sky130_fd_sc_hd__dlxtn_1
*CAP
1 *2568:A1 0.000147263
2 *3000:Q 0.000147263
3 *2568:A1 *2568:A2 3.26889e-05
4 *2568:A1 *2568:C1 8.01019e-05
5 *2568:A1 *855:20 3.99879e-05
*RES
1 *3000:Q *2568:A1 6.095 
*END

*D_NET *136 0.00104006
*CONN
*I *2578:B2 I *D sky130_fd_sc_hd__a22o_1
*I *3001:Q O *D sky130_fd_sc_hd__dlxtn_1
*CAP
1 *2578:B2 0.000345994
2 *3001:Q 0.000345994
3 *2578:B2 *2459:A 1.83756e-05
4 *2578:B2 *2554:A1 0
5 *2578:B2 *2578:B1 1.67131e-05
6 *2578:B2 *3001:D 0
7 *2578:B2 *833:18 0.000251821
8 *2578:B2 *853:67 0
9 *2578:B2 *877:38 4.99619e-05
10 *2578:B2 *923:50 1.11973e-05
*RES
1 *3001:Q *2578:B2 12.9 
*END

*D_NET *137 0.000184322
*CONN
*I *2589:B2 I *D sky130_fd_sc_hd__a22o_1
*I *3002:Q O *D sky130_fd_sc_hd__dlxtn_1
*CAP
1 *2589:B2 3.76437e-05
2 *3002:Q 3.76437e-05
3 *2589:B2 *2536:B 1.47256e-05
4 *2589:B2 *2589:A1 4.99619e-05
5 *2589:B2 *908:28 4.43467e-05
*RES
1 *3002:Q *2589:B2 4.265 
*END

*D_NET *138 0.00101264
*CONN
*I *2599:A1 I *D sky130_fd_sc_hd__a211o_1
*I *3003:Q O *D sky130_fd_sc_hd__dlxtn_1
*CAP
1 *2599:A1 0.000209401
2 *3003:Q 0.000209401
3 *2599:A1 *2597:A1 6.73424e-05
4 *2599:A1 *2599:B1 5.53249e-06
5 *2599:A1 *3192:A 0
6 *2599:A1 *3193:A 0
7 *2599:A1 *3194:A 3.67779e-05
8 *2599:A1 *850:31 0.000181376
9 *2599:A1 *925:33 0.000119762
10 *2599:A1 *938:26 0.000183043
*RES
1 *3003:Q *2599:A1 12.015 
*END

*D_NET *139 0.000210976
*CONN
*I *2610:B2 I *D sky130_fd_sc_hd__a221o_1
*I *3004:Q O *D sky130_fd_sc_hd__dlxtn_1
*CAP
1 *2610:B2 8.36737e-05
2 *3004:Q 8.36737e-05
3 *2610:B2 *2610:C1 3.02994e-05
4 *2610:B2 *928:33 1.33293e-05
*RES
1 *3004:Q *2610:B2 4.82375 
*END

*D_NET *140 0.000906913
*CONN
*I *2620:B2 I *D sky130_fd_sc_hd__a22o_1
*I *3005:Q O *D sky130_fd_sc_hd__dlxtn_1
*CAP
1 *2620:B2 0.000146533
2 *3005:Q 0.000146533
3 *2620:B2 *2524:A2 7.63125e-05
4 *2620:B2 *2989:D 0.000158175
5 *2620:B2 *3134:A 0.000140905
6 *2620:B2 *819:35 0.000107045
7 *2620:B2 *905:33 0.000131409
*RES
1 *3005:Q *2620:B2 11.7 
*END

*D_NET *141 0.00180069
*CONN
*I *2462:A1 I *D sky130_fd_sc_hd__a22o_1
*I *2991:Q O *D sky130_fd_sc_hd__dlxtn_1
*CAP
1 *2462:A1 0.00043573
2 *2991:Q 0.00043573
3 *2462:A1 *2395:A 0.00011327
4 *2462:A1 *2468:B2 8.59528e-05
5 *2462:A1 *2469:C1 0.000158066
6 *2462:A1 *2948:GATE_N 0.000158004
7 *2462:A1 *3216:A 0.000156344
8 *2462:A1 *906:10 0.000250719
9 *2462:A1 *906:20 6.8725e-06
*RES
1 *2991:Q *2462:A1 16.095 
*END

*D_NET *142 0.00087371
*CONN
*I *2479:B2 I *D sky130_fd_sc_hd__a22o_1
*I *2992:Q O *D sky130_fd_sc_hd__dlxtn_1
*CAP
1 *2479:B2 0.000263039
2 *2992:Q 0.000263039
3 *2479:B2 *2456:A1 7.35729e-05
4 *2479:B2 *3006:GATE_N 5.21892e-05
5 *2479:B2 *873:50 0.000152467
6 *2479:B2 *904:61 6.94024e-05
*RES
1 *2992:Q *2479:B2 11.76 
*END

*D_NET *143 0.000570179
*CONN
*I *2491:A1 I *D sky130_fd_sc_hd__a211o_1
*I *2993:Q O *D sky130_fd_sc_hd__dlxtn_1
*CAP
1 *2491:A1 0.000202837
2 *2993:Q 0.000202837
3 *2491:A1 *2490:A2 7.06865e-05
4 *2491:A1 *2490:B1 3.23663e-05
5 *2491:A1 *2490:B2 4.82919e-05
6 *2491:A1 *2491:B1 9.34171e-06
7 *2491:A1 *855:20 3.81908e-06
8 *2491:A1 *906:22 0
*RES
1 *2993:Q *2491:A1 10.065 
*END

*D_NET *144 0.0013753
*CONN
*I *2500:B2 I *D sky130_fd_sc_hd__a22o_1
*I *2994:Q O *D sky130_fd_sc_hd__dlxtn_1
*CAP
1 *2500:B2 0.000196541
2 *2994:Q 0.000196541
3 *2500:B2 *2500:A2 0
4 *2500:B2 *2502:B1 3.45679e-05
5 *2500:B2 *815:12 4.94404e-05
6 *2500:B2 *817:28 0.000536968
7 *2500:B2 *870:41 0.00016063
8 *2500:B2 *870:43 0.000200615
*RES
1 *2994:Q *2500:B2 13.62 
*END

*D_NET *145 0.00204273
*CONN
*I *2510:B2 I *D sky130_fd_sc_hd__a22o_1
*I *2995:Q O *D sky130_fd_sc_hd__dlxtn_1
*CAP
1 *2510:B2 0.000588352
2 *2995:Q 0.000588352
3 *2510:B2 *2510:A2 4.82919e-05
4 *2510:B2 *2511:A1 8.63479e-05
5 *2510:B2 *2512:B2 3.90873e-06
6 *2510:B2 *2513:A1 4.82919e-05
7 *2510:B2 *2513:C1 0.000127929
8 *2510:B2 *2851:D 1.77665e-05
9 *2510:B2 *2851:GATE_N 8.01131e-05
10 *2510:B2 *929:26 0.000374585
11 *2510:B2 *936:49 7.87893e-05
*RES
1 *2995:Q *2510:B2 13.7 
*END

*D_NET *146 0.000744473
*CONN
*I *2524:A1 I *D sky130_fd_sc_hd__a211o_1
*I *2996:Q O *D sky130_fd_sc_hd__dlxtn_1
*CAP
1 *2524:A1 0.000237376
2 *2996:Q 0.000237376
3 *2524:A1 *2524:A2 3.26889e-05
4 *2524:A1 *2524:B1 0.000156374
5 *2524:A1 *2524:C1 4.82919e-05
6 *2524:A1 *864:47 3.23663e-05
*RES
1 *2996:Q *2524:A1 7.475 
*END

*D_NET *147 0.000333134
*CONN
*I *2535:A1 I *D sky130_fd_sc_hd__a211o_1
*I *2997:Q O *D sky130_fd_sc_hd__dlxtn_1
*CAP
1 *2535:A1 0.000111956
2 *2997:Q 0.000111956
3 *2535:A1 *2535:B1 4.82863e-05
4 *2535:A1 *2535:C1 4.62111e-05
5 *2535:A1 *921:34 1.47256e-05
*RES
1 *2997:Q *2535:A1 5.405 
*END

*D_NET *148 0.00132994
*CONN
*I *2542:B2 I *D sky130_fd_sc_hd__a22o_1
*I *2998:Q O *D sky130_fd_sc_hd__dlxtn_1
*CAP
1 *2542:B2 0.000315324
2 *2998:Q 0.000315324
3 *2542:B2 *2542:A2 0
4 *2542:B2 *2544:A1 3.90266e-05
5 *2542:B2 *2544:A2 0.000134516
6 *2542:B2 *2544:B1 0
7 *2542:B2 *851:102 3.94592e-05
8 *2542:B2 *904:16 3.09233e-05
9 *2542:B2 *904:22 0.000455366
*RES
1 *2998:Q *2542:B2 14.055 
*END

*D_NET *149 0.00106116
*CONN
*I *2554:A1 I *D sky130_fd_sc_hd__a22o_1
*I *2999:Q O *D sky130_fd_sc_hd__dlxtn_1
*CAP
1 *2554:A1 0.000365426
2 *2999:Q 0.000365426
3 *2554:A1 *2554:A2 9.50342e-06
4 *2554:A1 *2855:GATE_N 4.69652e-05
5 *2554:A1 *2871:GATE_N 3.32856e-05
6 *2554:A1 *858:42 0
7 *2554:A1 *877:38 0.000200615
8 *2554:A1 *923:50 0
9 *2554:A1 *928:59 3.99395e-05
10 *2578:B2 *2554:A1 0
*RES
1 *2999:Q *2554:A1 12.705 
*END

*D_NET *150 0.00091179
*CONN
*I *2455:B2 I *D sky130_fd_sc_hd__a22o_1
*I *3006:Q O *D sky130_fd_sc_hd__dlxtn_1
*CAP
1 *2455:B2 0.000254658
2 *3006:Q 0.000254658
3 *2455:B2 *2478:A1 4.9968e-05
4 *2455:B2 *3006:D 2.75145e-05
5 *2455:B2 *877:40 2.49909e-05
6 *2455:B2 *877:51 0.000116165
7 *2455:B2 *877:68 0.000136063
8 *2455:A1 *2455:B2 4.77719e-05
*RES
1 *3006:Q *2455:B2 12.12 
*END

*D_NET *151 0.001139
*CONN
*I *2565:B2 I *D sky130_fd_sc_hd__a22o_1
*I *3016:Q O *D sky130_fd_sc_hd__dlxtn_1
*CAP
1 *2565:B2 0.000435278
2 *3016:Q 0.000435278
3 *2565:B2 *2567:B2 0.000196479
4 *2565:B2 *2856:GATE_N 8.30853e-06
5 *2565:B2 *2888:GATE_N 0
6 *2565:B2 *814:80 0
7 *2565:B2 *855:32 6.36578e-05
*RES
1 *3016:Q *2565:B2 14.16 
*END

*D_NET *152 0.000163565
*CONN
*I *2576:B2 I *D sky130_fd_sc_hd__a22o_1
*I *3017:Q O *D sky130_fd_sc_hd__dlxtn_1
*CAP
1 *2576:B2 5.00316e-05
2 *3017:Q 5.00316e-05
3 *2576:B2 *2576:A2 0
4 *2576:B2 *2576:B1 6.35016e-05
5 *2576:B2 *900:71 0
*RES
1 *3017:Q *2576:B2 4.265 
*END

*D_NET *153 0.000343932
*CONN
*I *2590:A1 I *D sky130_fd_sc_hd__a211o_1
*I *3018:Q O *D sky130_fd_sc_hd__dlxtn_1
*CAP
1 *2590:A1 8.41979e-05
2 *3018:Q 8.41979e-05
3 *2590:A1 *2961:GATE_N 3.86529e-05
4 *2590:A1 *2993:GATE_N 0
5 *2590:A1 *833:12 0.000136884
*RES
1 *3018:Q *2590:A1 8.835 
*END

*D_NET *154 0.000557496
*CONN
*I *2597:B2 I *D sky130_fd_sc_hd__a22o_1
*I *3019:Q O *D sky130_fd_sc_hd__dlxtn_1
*CAP
1 *2597:B2 0.000146058
2 *3019:Q 0.000146058
3 *2597:B2 *2597:A1 3.18219e-05
4 *2597:B2 *870:24 0.000119762
5 *2597:B2 *938:14 0.000113797
*RES
1 *3019:Q *2597:B2 9.72 
*END

*D_NET *155 0.000428119
*CONN
*I *2612:A1 I *D sky130_fd_sc_hd__a211o_1
*I *3020:Q O *D sky130_fd_sc_hd__dlxtn_1
*CAP
1 *2612:A1 9.84427e-05
2 *3020:Q 9.84427e-05
3 *2612:A1 *2612:A2 3.26889e-05
4 *2612:A1 *2612:B1 4.66108e-05
5 *2612:A1 *3192:A 6.70134e-05
6 *2612:A1 *900:21 8.49205e-05
*RES
1 *3020:Q *2612:A1 5.405 
*END

*D_NET *156 0.000904953
*CONN
*I *2622:B2 I *D sky130_fd_sc_hd__a22o_1
*I *3021:Q O *D sky130_fd_sc_hd__dlxtn_1
*CAP
1 *2622:B2 0.00018155
2 *3021:Q 0.00018155
3 *2622:B2 *2622:A1 0.000175561
4 *2622:B2 *2988:GATE_N 0.000163439
5 *2622:B2 *3132:A 3.39064e-05
6 *2622:B2 *821:16 4.82919e-05
7 *2622:B2 *834:44 0.000120655
8 *2622:B2 *907:56 0
*RES
1 *3021:Q *2622:B2 12.015 
*END

*D_NET *157 0.000543579
*CONN
*I *2462:B2 I *D sky130_fd_sc_hd__a22o_1
*I *3007:Q O *D sky130_fd_sc_hd__dlxtn_1
*CAP
1 *2462:B2 0.000174904
2 *3007:Q 0.000174904
3 *2462:B2 *2462:A2 0.000120655
4 *2462:B2 *2462:B1 4.21973e-05
5 *2462:B2 *3209:A 3.09179e-05
*RES
1 *3007:Q *2462:B2 6.44 
*END

*D_NET *158 0.000408864
*CONN
*I *2480:A1 I *D sky130_fd_sc_hd__a211o_1
*I *3008:Q O *D sky130_fd_sc_hd__dlxtn_1
*CAP
1 *2480:A1 0.000150021
2 *3008:Q 0.000150021
3 *2480:A1 *2480:B1 7.15894e-05
4 *2480:A1 *3015:GATE_N 2.77283e-05
5 *2480:A1 *853:67 0
6 *2480:A1 *900:79 9.50342e-06
*RES
1 *3008:Q *2480:A1 9.63 
*END

*D_NET *159 0.000773861
*CONN
*I *2489:B2 I *D sky130_fd_sc_hd__a221o_1
*I *3009:Q O *D sky130_fd_sc_hd__dlxtn_1
*CAP
1 *2489:B2 0.000249211
2 *3009:Q 0.000249211
3 *2489:B2 *2489:A1 2.37234e-05
4 *2489:B2 *2489:C1 9.50342e-06
5 *2489:B2 *2491:A2 7.35813e-05
6 *2489:B2 *2492:B 0
7 *2489:B2 *590:24 3.78034e-06
8 *2489:B2 *906:22 0.000106476
9 *2489:B2 *921:26 5.23362e-05
10 *2489:B2 *921:28 6.03947e-06
*RES
1 *3009:Q *2489:B2 11.8687 
*END

*D_NET *160 0.000394877
*CONN
*I *2502:A1 I *D sky130_fd_sc_hd__a211o_1
*I *3010:Q O *D sky130_fd_sc_hd__dlxtn_1
*CAP
1 *2502:A1 7.88885e-05
2 *3010:Q 7.88885e-05
3 *2502:A1 *2500:A1 7.06865e-05
4 *2502:A1 *2502:B1 0.000126474
5 *2502:A1 *903:102 9.50342e-06
6 *2502:A1 *904:16 3.04359e-05
*RES
1 *3010:Q *2502:A1 9.285 
*END

*D_NET *161 0.00247913
*CONN
*I *2512:B2 I *D sky130_fd_sc_hd__a22o_1
*I *3011:Q O *D sky130_fd_sc_hd__dlxtn_1
*CAP
1 *2512:B2 0.000974065
2 *3011:Q 0.000974065
3 *2512:B2 *2851:GATE_N 0.000120407
4 *2512:B2 *2995:GATE_N 3.07433e-05
5 *2512:B2 *3011:D 0.00015409
6 *2512:B2 *817:30 0.000126407
7 *2512:B2 *866:100 9.54399e-05
8 *2510:B2 *2512:B2 3.90873e-06
*RES
1 *3011:Q *2512:B2 20.295 
*END

*D_NET *162 0.00127987
*CONN
*I *2521:B2 I *D sky130_fd_sc_hd__a22o_1
*I *3012:Q O *D sky130_fd_sc_hd__dlxtn_1
*CAP
1 *2521:B2 0.000352114
2 *3012:Q 0.000352114
3 *2521:B2 *2852:GATE_N 1.70935e-05
4 *2521:B2 *2980:GATE_N 0.000136877
5 *2521:B2 *815:38 0.000421675
*RES
1 *3012:Q *2521:B2 12.735 
*END

*D_NET *163 0.00088859
*CONN
*I *2533:B2 I *D sky130_fd_sc_hd__a221o_1
*I *3013:Q O *D sky130_fd_sc_hd__dlxtn_1
*CAP
1 *2533:B2 0.000236809
2 *3013:Q 0.000236809
3 *2533:B2 *2532:A2 8.37791e-05
4 *2533:B2 *2533:A1 6.03947e-06
5 *2533:B2 *2587:A2 0.00010596
6 *2533:B2 *2588:A2 0.000109433
7 *2533:B2 *862:35 1.12643e-05
8 *2533:B2 *923:80 9.84957e-05
*RES
1 *3013:Q *2533:B2 12.2288 
*END

*D_NET *164 0.000448832
*CONN
*I *2544:A1 I *D sky130_fd_sc_hd__a211o_1
*I *3014:Q O *D sky130_fd_sc_hd__dlxtn_1
*CAP
1 *2544:A1 0.000107358
2 *3014:Q 0.000107358
3 *2544:A1 *2543:B2 8.65905e-05
4 *2544:A1 *2544:A2 4.43871e-06
5 *2544:A1 *2544:B1 1.26548e-05
6 *2544:A1 *906:93 9.14049e-05
7 *2542:B2 *2544:A1 3.90266e-05
*RES
1 *3014:Q *2544:A1 9.375 
*END

*D_NET *165 0.000399929
*CONN
*I *2554:B2 I *D sky130_fd_sc_hd__a22o_1
*I *3015:Q O *D sky130_fd_sc_hd__dlxtn_1
*CAP
1 *2554:B2 8.28063e-05
2 *3015:Q 8.28063e-05
3 *2554:B2 *2459:A 4.82919e-05
4 *2554:B2 *2554:B1 4.82919e-05
5 *2554:B2 *2855:GATE_N 6.74415e-05
6 *2554:B2 *923:50 6.57325e-05
7 *2554:B2 *923:63 4.55864e-06
*RES
1 *3015:Q *2554:B2 9.285 
*END

*D_NET *166 0.000917125
*CONN
*I *2454:A1 I *D sky130_fd_sc_hd__a221o_1
*I *3022:Q O *D sky130_fd_sc_hd__dlxtn_1
*CAP
1 *2454:A1 0.000257185
2 *3022:Q 0.000257185
3 *2454:A1 *2454:B2 5.51364e-05
4 *2454:A1 *2475:B1 0.000126143
5 *2454:A1 *2653:A0 0.000157221
6 *2454:A1 *2903:GATE_N 0
7 *2454:A1 *3172:A 1.4399e-05
8 *2454:A1 *377:12 3.14807e-05
9 *2454:A1 *877:6 1.83756e-05
*RES
1 *3022:Q *2454:A1 11.85 
*END

*D_NET *167 0.000814643
*CONN
*I *2564:A1 I *D sky130_fd_sc_hd__a221o_1
*I *3032:Q O *D sky130_fd_sc_hd__dlxtn_1
*CAP
1 *2564:A1 0.000279981
2 *3032:Q 0.000279981
3 *2564:A1 *2492:A 0
4 *2564:A1 *2564:A2 4.43871e-06
5 *2564:A1 *2564:B1 9.50342e-06
6 *2564:A1 *2564:B2 5.34525e-05
7 *2564:A1 *2945:GATE_N 6.0717e-05
8 *2564:A1 *811:52 0.00012657
9 *2564:A1 *827:100 0
10 *2564:A1 *892:49 0
*RES
1 *3032:Q *2564:A1 12.015 
*END

*D_NET *168 0.000758147
*CONN
*I *2572:A1 I *D sky130_fd_sc_hd__a22o_1
*I *3033:Q O *D sky130_fd_sc_hd__dlxtn_1
*CAP
1 *2572:A1 0.000166439
2 *3033:Q 0.000166439
3 *2572:A1 *2550:A2 0.000135533
4 *2572:A1 *2655:A0 0.000134245
5 *2572:A1 *3031:GATE_N 0.000155491
*RES
1 *3033:Q *2572:A1 10.32 
*END

*D_NET *169 0.0010784
*CONN
*I *2585:B2 I *D sky130_fd_sc_hd__a22o_1
*I *3034:Q O *D sky130_fd_sc_hd__dlxtn_1
*CAP
1 *2585:B2 0.000236028
2 *3034:Q 0.000236028
3 *2585:B2 *2540:A2 0.000161837
4 *2585:B2 *831:22 0.000290659
5 *2585:B2 *892:33 0.000153845
*RES
1 *3034:Q *2585:B2 13.14 
*END

*D_NET *170 0.000887362
*CONN
*I *2596:B2 I *D sky130_fd_sc_hd__a22o_1
*I *3035:Q O *D sky130_fd_sc_hd__dlxtn_1
*CAP
1 *2596:B2 0.000179104
2 *3035:Q 0.000179104
3 *2596:B2 *2602:B 4.41506e-05
4 *2596:B2 *3146:A 2.14129e-05
5 *2596:B2 *3191:A 4.82919e-05
6 *2596:B2 *3203:A 0.000159747
7 *2596:B2 *491:6 4.79712e-05
8 *2596:B2 *834:72 4.75576e-05
9 *2596:B2 *849:10 0
10 *2596:B2 *850:8 0.000117825
11 *2596:B2 *919:14 4.21973e-05
*RES
1 *3035:Q *2596:B2 11.7 
*END

*D_NET *171 0.00109278
*CONN
*I *2605:B2 I *D sky130_fd_sc_hd__a22o_1
*I *3036:Q O *D sky130_fd_sc_hd__dlxtn_1
*CAP
1 *2605:B2 0.000361954
2 *3036:Q 0.000361954
3 *2605:B2 *2605:A1 3.47837e-05
4 *2605:B2 *2908:D 5.49504e-05
5 *2605:B2 *3110:A 7.3664e-05
6 *2605:B2 *3126:A 0.000118886
7 *2605:B2 *830:90 0
8 *2605:B2 *847:135 8.65905e-05
9 *2605:B2 *914:151 0
*RES
1 *3036:Q *2605:B2 13.455 
*END

*D_NET *172 0.00122497
*CONN
*I *2618:A1 I *D sky130_fd_sc_hd__a22o_1
*I *3037:Q O *D sky130_fd_sc_hd__dlxtn_1
*CAP
1 *2618:A1 0.000262726
2 *3037:Q 0.000262726
3 *2618:A1 *3037:GATE_N 0.000194694
4 *2618:A1 *812:36 0.000203623
5 *2618:A1 *933:24 0.000301205
*RES
1 *3037:Q *2618:A1 12.705 
*END

*D_NET *173 0.000353281
*CONN
*I *2467:A1 I *D sky130_fd_sc_hd__a22o_1
*I *3023:Q O *D sky130_fd_sc_hd__dlxtn_1
*CAP
1 *2467:A1 0.000140699
2 *3023:Q 0.000140699
3 *2467:A1 *2467:B2 2.75145e-05
4 *2467:A1 *2907:GATE_N 4.43682e-05
*RES
1 *3023:Q *2467:A1 5.045 
*END

*D_NET *174 0.000132098
*CONN
*I *2475:B2 I *D sky130_fd_sc_hd__a22o_1
*I *3024:Q O *D sky130_fd_sc_hd__dlxtn_1
*CAP
1 *2475:B2 6.60488e-05
2 *3024:Q 6.60488e-05
*RES
1 *3024:Q *2475:B2 4.265 
*END

*D_NET *175 0.000824939
*CONN
*I *2484:B2 I *D sky130_fd_sc_hd__a22o_1
*I *3025:Q O *D sky130_fd_sc_hd__dlxtn_1
*CAP
1 *2484:B2 0.000221804
2 *3025:Q 0.000221804
3 *2484:B2 *2484:A2 8.49205e-05
4 *2484:B2 *2486:B1 0
5 *2484:B2 *3159:A 0.000163788
6 *2484:B2 *805:12 4.77013e-05
7 *2484:B2 *916:95 8.49205e-05
*RES
1 *3025:Q *2484:B2 11.67 
*END

*D_NET *176 0.000744737
*CONN
*I *2495:B2 I *D sky130_fd_sc_hd__a22o_1
*I *3026:Q O *D sky130_fd_sc_hd__dlxtn_1
*CAP
1 *2495:B2 0.000207164
2 *3026:Q 0.000207164
3 *2495:B2 *2495:B1 5.04265e-05
4 *2495:B2 *869:19 4.21973e-05
5 *2495:B2 *899:85 0.000124895
6 *2495:B2 *919:29 0.000104176
7 *2495:B2 *919:35 8.7152e-06
*RES
1 *3026:Q *2495:B2 10.41 
*END

*D_NET *177 0.00167698
*CONN
*I *2507:A1 I *D sky130_fd_sc_hd__a221o_1
*I *3027:Q O *D sky130_fd_sc_hd__dlxtn_1
*CAP
1 *2507:A1 0.000508058
2 *3027:Q 0.000508058
3 *2507:A1 *2507:B1 8.23457e-05
4 *2507:A1 *2507:B2 0.000222959
5 *2507:A1 *2515:B2 0
6 *2507:A1 *3075:D 5.83121e-06
7 *2507:A1 *3105:A 0.000101062
8 *2507:A1 *3109:A 4.48849e-05
9 *2507:A1 *808:14 8.40269e-05
10 *2507:A1 *838:18 0
11 *2507:A1 *839:75 0.000119756
12 *2515:A1 *2507:A1 0
*RES
1 *3027:Q *2507:A1 19.12 
*END

*D_NET *178 0.000363753
*CONN
*I *2520:B2 I *D sky130_fd_sc_hd__a221o_1
*I *3028:Q O *D sky130_fd_sc_hd__dlxtn_1
*CAP
1 *2520:B2 5.61451e-05
2 *3028:Q 5.61451e-05
3 *2520:B2 *2520:A2 1.12643e-05
4 *2520:B2 *2520:C1 0.000134509
5 *2520:B2 *3186:A 3.50033e-05
6 *2520:B2 *580:16 7.06865e-05
*RES
1 *3028:Q *2520:B2 8.94375 
*END

*D_NET *179 0.00103683
*CONN
*I *2530:A1 I *D sky130_fd_sc_hd__a22o_1
*I *3029:Q O *D sky130_fd_sc_hd__dlxtn_1
*CAP
1 *2530:A1 0.000164092
2 *3029:Q 0.000164092
3 *2530:A1 *2531:B2 9.47454e-05
4 *2530:A1 *805:34 4.82919e-05
5 *2530:A1 *831:28 6.00919e-05
6 *2530:A1 *892:33 9.50342e-06
7 *2530:A1 *892:39 0.000315818
8 *2530:A1 *898:31 0.000180192
*RES
1 *3029:Q *2530:A1 12.6 
*END

*D_NET *180 0.000768153
*CONN
*I *2539:A1 I *D sky130_fd_sc_hd__a22o_1
*I *3030:Q O *D sky130_fd_sc_hd__dlxtn_1
*CAP
1 *2539:A1 0.000175994
2 *3030:Q 0.000175994
3 *2539:A1 *852:16 0.000200615
4 *2539:A1 *881:57 7.63125e-05
5 *2539:A1 *898:95 0.000139238
*RES
1 *3030:Q *2539:A1 10.665 
*END

*D_NET *181 0.000834998
*CONN
*I *2550:A1 I *D sky130_fd_sc_hd__a22o_1
*I *3031:Q O *D sky130_fd_sc_hd__dlxtn_1
*CAP
1 *2550:A1 0.000298072
2 *3031:Q 0.000298072
3 *2550:A1 *2473:B1 9.97548e-05
4 *2550:A1 *2550:A2 4.43871e-06
5 *2550:A1 *2639:B 8.09021e-06
6 *2550:A1 *2655:A0 0
7 *2550:A1 *3031:D 0
8 *2550:A1 *521:18 0.00012657
9 *2550:A1 *859:69 0
*RES
1 *3031:Q *2550:A1 12.015 
*END

*D_NET *182 0.000709265
*CONN
*I *2452:B2 I *D sky130_fd_sc_hd__a221o_1
*I *3038:Q O *D sky130_fd_sc_hd__dlxtn_1
*CAP
1 *2452:B2 0.000262312
2 *3038:Q 0.000262312
3 *2452:B2 *2452:A1 4.76647e-05
4 *2452:B2 *2452:B1 2.49764e-05
5 *2452:B2 *2452:C1 4.43871e-06
6 *2452:B2 *2460:B2 4.80285e-05
7 *2452:B2 *2573:A2 8.53411e-06
8 *2452:B2 *2841:GATE_N 0
9 *2452:B2 *521:18 4.9253e-06
10 *2452:B2 *809:44 0
11 *2452:B2 *878:10 4.60736e-05
*RES
1 *3038:Q *2452:B2 10.995 
*END

*D_NET *183 0.000375515
*CONN
*I *2563:B2 I *D sky130_fd_sc_hd__a22o_1
*I *3048:Q O *D sky130_fd_sc_hd__dlxtn_1
*CAP
1 *2563:B2 6.46152e-05
2 *3048:Q 6.46152e-05
3 *2563:B2 *2486:B1 4.7043e-05
4 *2563:B2 *2563:A1 0.000122319
5 *2563:B2 *2563:B1 1.16578e-05
6 *2563:B2 *3159:A 1.53032e-05
7 *2563:B2 *896:98 4.99619e-05
*RES
1 *3048:Q *2563:B2 9.03 
*END

*D_NET *184 0.00108323
*CONN
*I *2572:B2 I *D sky130_fd_sc_hd__a22o_1
*I *3049:Q O *D sky130_fd_sc_hd__dlxtn_1
*CAP
1 *2572:B2 0.000279096
2 *3049:Q 0.000279096
3 *2572:B2 *2573:A1 0.000103983
4 *2572:B2 *2841:D 1.71013e-05
5 *2572:B2 *2905:D 0
6 *2572:B2 *3031:GATE_N 9.46859e-06
7 *2572:B2 *3033:D 2.41373e-05
8 *2572:B2 *854:79 0.000124204
9 *2572:B2 *911:72 0
10 *2572:B2 *932:70 0.000246147
*RES
1 *3049:Q *2572:B2 12.285 
*END

*D_NET *185 0.0007155
*CONN
*I *2583:B2 I *D sky130_fd_sc_hd__a22o_1
*I *3050:Q O *D sky130_fd_sc_hd__dlxtn_1
*CAP
1 *2583:B2 0.00016767
2 *3050:Q 0.00016767
3 *2583:B2 *2583:A1 8.52133e-05
4 *2583:B2 *2922:D 7.57302e-05
5 *2583:B2 *911:54 1.71013e-05
6 *2583:B2 *911:72 0.000152667
7 *2583:B2 *916:95 4.94474e-05
*RES
1 *3050:Q *2583:B2 11.325 
*END

*D_NET *186 0.000225047
*CONN
*I *2595:B2 I *D sky130_fd_sc_hd__a221o_1
*I *3051:Q O *D sky130_fd_sc_hd__dlxtn_1
*CAP
1 *2595:B2 5.25807e-05
2 *3051:Q 5.25807e-05
3 *2595:B2 *2595:A1 1.23707e-05
4 *2595:B2 *3205:A 4.93821e-05
5 *2595:B2 *498:16 5.81326e-05
*RES
1 *3051:Q *2595:B2 4.82375 
*END

*D_NET *187 0.000645366
*CONN
*I *2607:B2 I *D sky130_fd_sc_hd__a22o_1
*I *3052:Q O *D sky130_fd_sc_hd__dlxtn_1
*CAP
1 *2607:B2 0.000183494
2 *3052:Q 0.000183494
3 *2607:B2 *2607:A1 2.97192e-05
4 *2607:B2 *2607:B1 2.97561e-05
5 *2607:B2 *2613:A 8.7152e-06
6 *2607:B2 *822:49 3.98712e-05
7 *2607:B2 *894:112 0.000170316
8 *2607:B2 *896:12 0
*RES
1 *3052:Q *2607:B2 10.875 
*END

*D_NET *188 0.000515677
*CONN
*I *2618:B2 I *D sky130_fd_sc_hd__a22o_1
*I *3053:Q O *D sky130_fd_sc_hd__dlxtn_1
*CAP
1 *2618:B2 0.00015016
2 *3053:Q 0.00015016
3 *2618:B2 *3039:GATE_N 8.65905e-05
4 *2618:B2 *812:36 0.000128768
*RES
1 *3053:Q *2618:B2 9.63 
*END

*D_NET *189 0.000913073
*CONN
*I *2463:B2 I *D sky130_fd_sc_hd__a22o_1
*I *3039:Q O *D sky130_fd_sc_hd__dlxtn_1
*CAP
1 *2463:B2 0.000241968
2 *3039:Q 0.000241968
3 *2463:B2 *2464:A1 0.00027042
4 *2463:B2 *830:31 5.80204e-05
5 *2463:B2 *881:57 0.000100695
*RES
1 *3039:Q *2463:B2 11.1 
*END

*D_NET *190 0.000262899
*CONN
*I *2474:B2 I *D sky130_fd_sc_hd__a221o_1
*I *3040:Q O *D sky130_fd_sc_hd__dlxtn_1
*CAP
1 *2474:B2 5.29702e-05
2 *3040:Q 5.29702e-05
3 *2474:B2 *2474:A1 2.59387e-05
4 *2474:B2 *2474:C1 4.99619e-05
5 *2474:B2 *2560:B 8.10581e-05
*RES
1 *3040:Q *2474:B2 4.82375 
*END

*D_NET *191 0.00103974
*CONN
*I *2485:A1 I *D sky130_fd_sc_hd__a221o_1
*I *3041:Q O *D sky130_fd_sc_hd__dlxtn_1
*CAP
1 *2485:A1 0.000279132
2 *3041:Q 0.000279132
3 *2485:A1 *2485:B1 1.80024e-05
4 *2485:A1 *2493:B1 0.00011456
5 *2485:A1 *809:28 9.50342e-06
6 *2485:A1 *809:32 1.95461e-05
7 *2485:A1 *809:38 7.21296e-06
8 *2485:A1 *829:73 9.30787e-05
9 *2485:A1 *829:88 0.000190274
10 *2485:A1 *856:60 2.93014e-05
*RES
1 *3041:Q *2485:A1 12.21 
*END

*D_NET *192 0.000636016
*CONN
*I *2497:B2 I *D sky130_fd_sc_hd__a22o_1
*I *3042:Q O *D sky130_fd_sc_hd__dlxtn_1
*CAP
1 *2497:B2 0.00013947
2 *3042:Q 0.00013947
3 *2497:B2 *2497:A1 2.11084e-05
4 *2497:B2 *3109:A 8.7152e-06
5 *2497:B2 *839:75 5.8685e-05
6 *2497:B2 *915:48 0
7 *2497:B2 *917:62 0.000201508
8 *2497:B2 *1012:16 6.70585e-05
*RES
1 *3042:Q *2497:B2 10.665 
*END

*D_NET *193 0.000945673
*CONN
*I *2507:B2 I *D sky130_fd_sc_hd__a221o_1
*I *3043:Q O *D sky130_fd_sc_hd__dlxtn_1
*CAP
1 *2507:B2 0.000256271
2 *3043:Q 0.000256271
3 *2507:B2 *2507:A2 1.12643e-05
4 *2507:B2 *2507:B1 1.12643e-05
5 *2507:B2 *2507:C1 9.50342e-06
6 *2507:B2 *2515:B2 0
7 *2507:B2 *3105:A 3.4804e-05
8 *2507:B2 *808:14 0
9 *2507:B2 *838:18 0.000143336
10 *2507:A1 *2507:B2 0.000222959
*RES
1 *3043:Q *2507:B2 11.7788 
*END

*D_NET *194 0.00124062
*CONN
*I *2517:A1 I *D sky130_fd_sc_hd__a22o_1
*I *3044:Q O *D sky130_fd_sc_hd__dlxtn_1
*CAP
1 *2517:A1 0.000426789
2 *3044:Q 0.000426789
3 *2517:A1 *2518:C1 0.00035576
4 *2517:A1 *2547:B1 1.73877e-05
5 *2517:A1 *2548:B2 8.53113e-06
6 *2517:A1 *382:10 0
7 *2517:A1 *933:39 5.36384e-06
*RES
1 *3044:Q *2517:A1 14.64 
*END

*D_NET *195 0.000958125
*CONN
*I *2529:B2 I *D sky130_fd_sc_hd__a221o_1
*I *3045:Q O *D sky130_fd_sc_hd__dlxtn_1
*CAP
1 *2529:B2 0.000223897
2 *3045:Q 0.000223897
3 *2529:B2 *2529:A1 0.000129217
4 *2529:B2 *2529:B1 6.30415e-05
5 *2529:B2 *2529:C1 5.58436e-05
6 *2529:B2 *2655:S 8.51589e-06
7 *2529:B2 *838:34 0.000135889
8 *2529:B2 *838:40 0.000117825
*RES
1 *3045:Q *2529:B2 12.0787 
*END

*D_NET *196 0.000740799
*CONN
*I *2546:A1 I *D sky130_fd_sc_hd__a22o_1
*I *3046:Q O *D sky130_fd_sc_hd__dlxtn_1
*CAP
1 *2546:A1 0.000221613
2 *3046:Q 0.000221613
3 *2546:A1 *2546:A2 0.000141365
4 *2546:A1 *825:130 5.13155e-05
5 *2546:A1 *860:34 0.000104892
*RES
1 *3046:Q *2546:A1 10.5 
*END

*D_NET *197 0.000638555
*CONN
*I *2553:B2 I *D sky130_fd_sc_hd__a221o_1
*I *3047:Q O *D sky130_fd_sc_hd__dlxtn_1
*CAP
1 *2553:B2 0.000186025
2 *3047:Q 0.000186025
3 *2553:B2 *2476:B1 3.18737e-05
4 *2553:B2 *2476:B2 6.8691e-05
5 *2553:B2 *2553:A1 1.12643e-05
6 *2553:B2 *2553:A2 1.12643e-05
7 *2553:B2 *2553:B1 4.43871e-06
8 *2553:B2 *894:50 6.2893e-05
9 *2553:B2 *918:29 7.60809e-05
*RES
1 *3047:Q *2553:B2 11.1788 
*END

*D_NET *198 0.00015445
*CONN
*I *2451:B2 I *D sky130_fd_sc_hd__a22o_1
*I *3054:Q O *D sky130_fd_sc_hd__dlxtn_1
*CAP
1 *2451:B2 4.48767e-05
2 *3054:Q 4.48767e-05
3 *2451:B2 *2451:B1 1.55953e-05
4 *2451:B2 *858:15 2.75145e-05
5 *2451:B2 *894:69 2.15864e-05
*RES
1 *3054:Q *2451:B2 4.265 
*END

*D_NET *199 0.000672513
*CONN
*I *2562:B2 I *D sky130_fd_sc_hd__a221o_1
*I *3064:Q O *D sky130_fd_sc_hd__dlxtn_1
*CAP
1 *2562:B2 0.000115774
2 *3064:Q 0.000115774
3 *2562:B2 *2562:A2 0.000286055
4 *2562:B2 *2562:B1 5.54274e-05
5 *2562:B2 *2655:A1 1.12643e-05
6 *2562:B2 *3040:GATE_N 8.82193e-05
*RES
1 *3064:Q *2562:B2 10.7288 
*END

*D_NET *200 0.00167241
*CONN
*I *2574:B2 I *D sky130_fd_sc_hd__a22o_1
*I *3065:Q O *D sky130_fd_sc_hd__dlxtn_1
*CAP
1 *2574:B2 0.000518053
2 *3065:Q 0.000518053
3 *2574:B2 *3065:GATE_N 0.000341879
4 *2574:B2 *3151:A 0.000105654
5 *2574:B2 *825:43 6.28843e-05
6 *2574:B2 *827:64 2.86265e-06
7 *2574:B2 *914:16 8.53113e-06
8 *2574:B2 *914:18 0.000114492
*RES
1 *3065:Q *2574:B2 14.55 
*END

*D_NET *201 0.000445888
*CONN
*I *2586:B2 I *D sky130_fd_sc_hd__a221o_1
*I *3066:Q O *D sky130_fd_sc_hd__dlxtn_1
*CAP
1 *2586:B2 0.000118468
2 *3066:Q 0.000118468
3 *2586:B2 *2586:C1 8.7152e-06
4 *2586:B2 *2591:A 7.00225e-05
5 *2586:B2 *2886:GATE_N 4.99619e-05
6 *2586:B2 *2938:D 3.91039e-05
7 *2586:B2 *807:18 2.98851e-05
8 *2586:B2 *847:131 1.12643e-05
*RES
1 *3066:Q *2586:B2 9.39375 
*END

*D_NET *202 0.000150334
*CONN
*I *2600:B2 I *D sky130_fd_sc_hd__a22o_1
*I *3067:Q O *D sky130_fd_sc_hd__dlxtn_1
*CAP
1 *2600:B2 5.2222e-05
2 *3067:Q 5.2222e-05
3 *2600:B2 *3209:A 2.75145e-05
4 *2600:B2 *808:80 1.83756e-05
*RES
1 *3067:Q *2600:B2 4.265 
*END

*D_NET *203 0.000452654
*CONN
*I *2608:B2 I *D sky130_fd_sc_hd__a221o_1
*I *3068:Q O *D sky130_fd_sc_hd__dlxtn_1
*CAP
1 *2608:B2 0.000112349
2 *3068:Q 0.000112349
3 *2608:B2 *2608:C1 4.43871e-06
4 *2608:B2 *2924:GATE_N 4.34171e-05
5 *2608:B2 *3110:A 1.1392e-05
6 *2608:B2 *894:127 2.66464e-05
7 *2608:B2 *896:12 0.000133528
8 *2608:B2 *914:151 8.53411e-06
*RES
1 *3068:Q *2608:B2 9.525 
*END

*D_NET *204 0.000747424
*CONN
*I *2617:B2 I *D sky130_fd_sc_hd__a221o_1
*I *3069:Q O *D sky130_fd_sc_hd__dlxtn_1
*CAP
1 *2617:B2 0.000137411
2 *3069:Q 0.000137411
3 *2617:B2 *2617:B1 2.49708e-05
4 *2617:B2 *2950:GATE_N 5.50357e-05
5 *2617:B2 *823:68 8.92657e-05
6 *2617:B2 *838:28 0.00027836
7 *2617:B2 *917:90 2.49708e-05
*RES
1 *3069:Q *2617:B2 10.86 
*END

*D_NET *205 0.000569689
*CONN
*I *2467:B2 I *D sky130_fd_sc_hd__a22o_1
*I *3055:Q O *D sky130_fd_sc_hd__dlxtn_1
*CAP
1 *2467:B2 0.000108388
2 *3055:Q 0.000108388
3 *2467:B2 *2907:GATE_N 0.000151579
4 *2467:B2 *834:72 3.69421e-05
5 *2467:B2 *925:43 0.000136877
6 *2467:A1 *2467:B2 2.75145e-05
*RES
1 *3055:Q *2467:B2 9.975 
*END

*D_NET *206 0.00130037
*CONN
*I *2476:B2 I *D sky130_fd_sc_hd__a221o_1
*I *3056:Q O *D sky130_fd_sc_hd__dlxtn_1
*CAP
1 *2476:B2 0.000446266
2 *3056:Q 0.000446266
3 *2476:B2 *2476:B1 0
4 *2476:B2 *2928:D 4.16262e-05
5 *2476:B2 *2928:GATE_N 3.00381e-05
6 *2476:B2 *3054:GATE_N 7.49334e-05
7 *2476:B2 *918:29 0.000115253
8 *2476:B2 *918:55 7.73007e-05
9 *2553:B2 *2476:B2 6.8691e-05
*RES
1 *3056:Q *2476:B2 14.0887 
*END

*D_NET *207 0.00103533
*CONN
*I *2487:B2 I *D sky130_fd_sc_hd__a221o_1
*I *3057:Q O *D sky130_fd_sc_hd__dlxtn_1
*CAP
1 *2487:B2 0.000205047
2 *3057:Q 0.000205047
3 *2487:B2 *2486:A1 0.000122331
4 *2487:B2 *2486:B2 3.67779e-05
5 *2487:B2 *2487:C1 0.000307067
6 *2487:B2 *2564:C1 1.12643e-05
7 *2487:B2 *872:12 3.09233e-05
8 *2487:B2 *872:55 1.12643e-05
9 *2487:B2 *894:37 0.000105607
*RES
1 *3057:Q *2487:B2 12.1237 
*END

*D_NET *208 0.000651823
*CONN
*I *2496:A1 I *D sky130_fd_sc_hd__a22o_1
*I *3058:Q O *D sky130_fd_sc_hd__dlxtn_1
*CAP
1 *2496:A1 0.000159823
2 *3058:Q 0.000159823
3 *2496:A1 *3129:A 8.79804e-05
4 *2496:A1 *808:80 0.000156658
5 *2496:A1 *869:33 8.75387e-05
*RES
1 *3058:Q *2496:A1 9.81 
*END

*D_NET *209 0.000669248
*CONN
*I *2506:A1 I *D sky130_fd_sc_hd__a22o_1
*I *3059:Q O *D sky130_fd_sc_hd__dlxtn_1
*CAP
1 *2506:A1 0.000196926
2 *3059:Q 0.000196926
3 *2506:A1 *2507:A2 0.000160641
4 *2506:A1 *2507:B1 2.16833e-05
5 *2506:A1 *3105:A 0
6 *2506:A1 *828:60 9.30717e-05
*RES
1 *3059:Q *2506:A1 10.155 
*END

*D_NET *210 0.000677877
*CONN
*I *2517:B2 I *D sky130_fd_sc_hd__a22o_1
*I *3060:Q O *D sky130_fd_sc_hd__dlxtn_1
*CAP
1 *2517:B2 0.000138011
2 *3060:Q 0.000138011
3 *2517:B2 *2507:A2 0.000177723
4 *2517:B2 *2517:B1 0.00017584
5 *2517:B2 *865:47 4.82919e-05
*RES
1 *3060:Q *2517:B2 11.325 
*END

*D_NET *211 0.000460224
*CONN
*I *2528:B2 I *D sky130_fd_sc_hd__a22o_1
*I *3061:Q O *D sky130_fd_sc_hd__dlxtn_1
*CAP
1 *2528:B2 0.000148781
2 *3061:Q 0.000148781
3 *2528:B2 *2528:A1 3.59997e-05
4 *2528:B2 *2561:B1 0
5 *2528:B2 *2562:B1 4.75576e-05
6 *2528:B2 *2837:D 7.35729e-05
7 *2528:B2 *838:34 0
8 *2528:B2 *894:142 5.53249e-06
*RES
1 *3061:Q *2528:B2 9.72 
*END

*D_NET *212 0.000588463
*CONN
*I *2546:B2 I *D sky130_fd_sc_hd__a22o_1
*I *3062:Q O *D sky130_fd_sc_hd__dlxtn_1
*CAP
1 *2546:B2 0.000126652
2 *3062:Q 0.000126652
3 *2546:B2 *2547:C1 4.82919e-05
4 *2546:B2 *827:44 0.000206798
5 *2546:B2 *894:127 2.31329e-05
6 *2546:B2 *894:142 5.6937e-05
*RES
1 *3062:Q *2546:B2 6.335 
*END

*D_NET *213 0.000809284
*CONN
*I *2551:B2 I *D sky130_fd_sc_hd__a221o_1
*I *3063:Q O *D sky130_fd_sc_hd__dlxtn_1
*CAP
1 *2551:B2 0.000210681
2 *3063:Q 0.000210681
3 *2551:B2 *2452:B1 8.44343e-05
4 *2551:B2 *2551:B1 9.61848e-05
5 *2551:B2 *2551:C1 9.50342e-06
6 *2551:B2 *858:15 6.3124e-06
7 *2551:B2 *892:121 0.000116645
8 *2551:B2 *896:50 6.28498e-05
9 *2581:A1 *2551:B2 1.19928e-05
*RES
1 *3063:Q *2551:B2 10.7738 
*END

*D_NET *214 0.00159851
*CONN
*I *2454:B2 I *D sky130_fd_sc_hd__a221o_1
*I *3070:Q O *D sky130_fd_sc_hd__dlxtn_1
*CAP
1 *2454:B2 0.000337975
2 *3070:Q 0.000337975
3 *2454:B2 *2454:B1 8.53113e-06
4 *2454:B2 *2454:C1 5.53249e-06
5 *2454:B2 *2475:B1 5.11148e-06
6 *2454:B2 *2653:A0 0.000328598
7 *2454:B2 *2653:A1 0.000283133
8 *2454:B2 *2910:D 0
9 *2454:B2 *2926:D 1.34967e-05
10 *2454:B2 *3024:GATE_N 0.000198051
11 *2454:B2 *825:51 2.49708e-05
12 *2454:A1 *2454:B2 5.51364e-05
*RES
1 *3070:Q *2454:B2 14.73 
*END

*D_NET *215 0.000743036
*CONN
*I *2564:B2 I *D sky130_fd_sc_hd__a221o_1
*I *3080:Q O *D sky130_fd_sc_hd__dlxtn_1
*CAP
1 *2564:B2 0.000245548
2 *3080:Q 0.000245548
3 *2564:B2 *2564:A2 6.00562e-05
4 *2564:B2 *2564:C1 1.85674e-05
5 *2564:B2 *2913:GATE_N 0.000116893
6 *2564:B2 *811:97 0
7 *2564:B2 *827:100 0
8 *2564:B2 *831:28 2.97004e-06
9 *2564:A1 *2564:B2 5.34525e-05
*RES
1 *3080:Q *2564:B2 11.775 
*END

*D_NET *216 0.00166086
*CONN
*I *2575:B2 I *D sky130_fd_sc_hd__a221o_1
*I *3081:Q O *D sky130_fd_sc_hd__dlxtn_1
*CAP
1 *2575:B2 0.000534452
2 *3081:Q 0.000534452
3 *2575:B2 *2453:A2 2.97004e-06
4 *2575:B2 *2575:B1 2.66464e-05
5 *2575:B2 *2921:D 0
6 *2575:B2 *2937:GATE_N 0
7 *2575:B2 *853:6 0.00026389
8 *2575:B2 *853:12 0.000160635
9 *2575:B2 *892:49 0.000112837
10 *2575:B2 *916:50 2.49764e-05
*RES
1 *3081:Q *2575:B2 15.36 
*END

*D_NET *217 0.000204496
*CONN
*I *2584:B2 I *D sky130_fd_sc_hd__a221o_1
*I *3082:Q O *D sky130_fd_sc_hd__dlxtn_1
*CAP
1 *2584:B2 7.48023e-05
2 *3082:Q 7.48023e-05
3 *2584:B2 *2584:B1 1.20741e-05
4 *2584:B2 *892:105 3.09088e-05
5 *2584:B2 *916:103 1.19081e-05
6 *2584:B2 *916:111 0
*RES
1 *3082:Q *2584:B2 4.82375 
*END

*D_NET *218 0.0005857
*CONN
*I *2598:B2 I *D sky130_fd_sc_hd__a221o_1
*I *3083:Q O *D sky130_fd_sc_hd__dlxtn_1
*CAP
1 *2598:B2 9.71272e-05
2 *3083:Q 9.71272e-05
3 *2598:B2 *2503:D 6.00112e-05
4 *2598:B2 *2598:A2 0.000102788
5 *2598:B2 *2598:C1 0.000186449
6 *2598:B2 *909:18 4.21973e-05
*RES
1 *3083:Q *2598:B2 6.335 
*END

*D_NET *219 0.000222827
*CONN
*I *2606:B2 I *D sky130_fd_sc_hd__a221o_1
*I *3084:Q O *D sky130_fd_sc_hd__dlxtn_1
*CAP
1 *2606:B2 8.64324e-05
2 *3084:Q 8.64324e-05
3 *2606:B2 *2606:C1 4.99619e-05
*RES
1 *3084:Q *2606:B2 4.71875 
*END

*D_NET *220 0.000944327
*CONN
*I *2619:B2 I *D sky130_fd_sc_hd__a221o_1
*I *3085:Q O *D sky130_fd_sc_hd__dlxtn_1
*CAP
1 *2619:B2 0.000256999
2 *3085:Q 0.000256999
3 *2619:B2 *2619:B1 2.66464e-05
4 *2619:B2 *2619:C1 1.35051e-05
5 *2619:B2 *2909:D 4.26788e-05
6 *2619:B2 *3108:A 0
7 *2619:B2 *3110:A 0.000284189
8 *2619:B2 *810:41 6.33103e-05
*RES
1 *3085:Q *2619:B2 12 
*END

*D_NET *221 0.00112332
*CONN
*I *2468:B2 I *D sky130_fd_sc_hd__a221o_1
*I *3071:Q O *D sky130_fd_sc_hd__dlxtn_1
*CAP
1 *2468:B2 0.000247675
2 *3071:Q 0.000247675
3 *2468:B2 *2395:A 6.03947e-06
4 *2468:B2 *3007:GATE_N 0.000158066
5 *2468:B2 *3192:A 0.000114492
6 *2468:B2 *905:10 6.28765e-05
7 *2468:B2 *906:10 0
8 *2468:B2 *929:58 4.41506e-05
9 *2468:B2 *936:49 0.00015639
10 *2462:A1 *2468:B2 8.59528e-05
*RES
1 *3071:Q *2468:B2 12.3638 
*END

*D_NET *222 0.000837237
*CONN
*I *2473:B2 I *D sky130_fd_sc_hd__a22o_1
*I *3072:Q O *D sky130_fd_sc_hd__dlxtn_1
*CAP
1 *2473:B2 0.000286328
2 *3072:Q 0.000286328
3 *2473:B2 *2473:A2 0
4 *2473:B2 *2473:B1 5.53249e-06
5 *2473:B2 *2560:B 0.0001249
6 *2473:B2 *838:44 0
7 *2473:B2 *838:54 0.000134148
8 *2473:B2 *874:20 0
9 *2473:B2 *874:44 0
*RES
1 *3072:Q *2473:B2 11.76 
*END

*D_NET *223 0.000989004
*CONN
*I *2485:B2 I *D sky130_fd_sc_hd__a221o_1
*I *3073:Q O *D sky130_fd_sc_hd__dlxtn_1
*CAP
1 *2485:B2 0.000206157
2 *3073:Q 0.000206157
3 *2485:B2 *2485:B1 0
4 *2485:B2 *2485:C1 0.000216539
5 *2485:B2 *2833:D 8.09021e-06
6 *2485:B2 *2833:GATE_N 9.47454e-05
7 *2485:B2 *856:60 0.000158309
8 *2485:B2 *896:98 2.66464e-05
9 *2485:B2 *898:118 7.23602e-05
*RES
1 *3073:Q *2485:B2 12.9 
*END

*D_NET *224 0.000686596
*CONN
*I *2496:B2 I *D sky130_fd_sc_hd__a22o_1
*I *3074:Q O *D sky130_fd_sc_hd__dlxtn_1
*CAP
1 *2496:B2 0.000132375
2 *3074:Q 0.000132375
3 *2496:B2 *2465:B1 0
4 *2496:B2 *2603:B1 9.50342e-06
5 *2496:B2 *3188:A 0.000108257
6 *2496:B2 *651:26 0
7 *2496:B2 *866:35 0.000109386
8 *2496:B2 *893:37 0.0001947
*RES
1 *3074:Q *2496:B2 10.41 
*END

*D_NET *225 0.00082834
*CONN
*I *2506:B2 I *D sky130_fd_sc_hd__a22o_1
*I *3075:Q O *D sky130_fd_sc_hd__dlxtn_1
*CAP
1 *2506:B2 0.00015695
2 *3075:Q 0.00015695
3 *2506:B2 *2506:A2 0.000240107
4 *2506:B2 *3059:D 0.000133698
5 *2506:B2 *3109:A 4.82863e-05
6 *2506:B2 *3112:A 0
7 *2506:B2 *810:14 6.81237e-05
8 *2506:B2 *828:60 2.42236e-05
*RES
1 *3075:Q *2506:B2 11.07 
*END

*D_NET *226 0.00152136
*CONN
*I *2518:B2 I *D sky130_fd_sc_hd__a221o_1
*I *3076:Q O *D sky130_fd_sc_hd__dlxtn_1
*CAP
1 *2518:B2 0.000253614
2 *3076:Q 0.000253614
3 *2518:B2 *2518:B1 0.000113105
4 *2518:B2 *2916:D 0.000118081
5 *2518:B2 *661:26 0.000122337
6 *2518:B2 *838:28 0.000289004
7 *2518:B2 *839:79 0.00028733
8 *2518:B2 *865:6 8.42772e-05
*RES
1 *3076:Q *2518:B2 14.0588 
*END

*D_NET *227 0.000863831
*CONN
*I *2530:B2 I *D sky130_fd_sc_hd__a22o_1
*I *3077:Q O *D sky130_fd_sc_hd__dlxtn_1
*CAP
1 *2530:B2 0.000279452
2 *3077:Q 0.000279452
3 *2530:B2 *3158:A 0.000113537
4 *2530:B2 *831:28 0.000141599
5 *2530:B2 *862:23 4.97915e-05
*RES
1 *3077:Q *2530:B2 11.7 
*END

*D_NET *228 0.00155011
*CONN
*I *2539:B2 I *D sky130_fd_sc_hd__a22o_1
*I *3078:Q O *D sky130_fd_sc_hd__dlxtn_1
*CAP
1 *2539:B2 0.000537838
2 *3078:Q 0.000537838
3 *2539:B2 *2486:B1 0
4 *2539:B2 *2540:A1 2.75229e-05
5 *2539:B2 *2541:A1 4.82919e-05
6 *2539:B2 *2886:GATE_N 3.00381e-05
7 *2539:B2 *2934:GATE_N 5.30242e-05
8 *2539:B2 *3078:D 4.16262e-05
9 *2539:B2 *829:69 2.11084e-05
10 *2539:B2 *860:36 0.000119827
11 *2539:B2 *860:38 1.56428e-05
12 *2539:B2 *881:57 0.000117348
13 *2539:B2 *911:25 0
*RES
1 *3078:Q *2539:B2 15.24 
*END

*D_NET *229 0.000424561
*CONN
*I *2550:B2 I *D sky130_fd_sc_hd__a22o_1
*I *3079:Q O *D sky130_fd_sc_hd__dlxtn_1
*CAP
1 *2550:B2 0.000125468
2 *3079:Q 0.000125468
3 *2550:B2 *2473:B1 0.000165094
4 *2550:B2 *859:69 0
5 *2550:B2 *892:121 8.53113e-06
*RES
1 *3079:Q *2550:B2 9.285 
*END

*D_NET *230 0.00114782
*CONN
*I *2456:A1 I *D sky130_fd_sc_hd__a221o_1
*I *2846:Q O *D sky130_fd_sc_hd__dlxtn_1
*CAP
1 *2456:A1 0.000368186
2 *2846:Q 0.000368186
3 *2456:A1 *2455:B1 8.2334e-05
4 *2456:A1 *2456:B2 1.20741e-05
5 *2456:A1 *2456:C1 0.000201508
6 *2456:A1 *2992:D 0
7 *2456:A1 *3006:GATE_N 4.19603e-05
8 *2456:A1 *904:61 0
9 *2479:B2 *2456:A1 7.35729e-05
*RES
1 *2846:Q *2456:A1 14.19 
*END

*D_NET *231 0.000525418
*CONN
*I *2566:A1 I *D sky130_fd_sc_hd__a221o_1
*I *2856:Q O *D sky130_fd_sc_hd__dlxtn_1
*CAP
1 *2566:A1 0.00011619
2 *2856:Q 0.00011619
3 *2566:A1 *2567:B2 1.1392e-05
4 *2566:A1 *816:30 0.000139245
5 *2566:A1 *836:57 3.1562e-06
6 *2566:A1 *921:46 0.000139245
*RES
1 *2856:Q *2566:A1 9.63 
*END

*D_NET *232 0.000425751
*CONN
*I *2577:A1 I *D sky130_fd_sc_hd__a221o_1
*I *2857:Q O *D sky130_fd_sc_hd__dlxtn_1
*CAP
1 *2577:A1 0.00016824
2 *2857:Q 0.00016824
3 *2577:A1 *2577:B2 6.03947e-06
4 *2577:A1 *853:37 8.32316e-05
*RES
1 *2857:Q *2577:A1 5.39 
*END

*D_NET *233 0.000727299
*CONN
*I *2589:A1 I *D sky130_fd_sc_hd__a22o_1
*I *2858:Q O *D sky130_fd_sc_hd__dlxtn_1
*CAP
1 *2589:A1 9.91068e-05
2 *2858:Q 9.91068e-05
3 *2589:A1 *2536:B 0.000115398
4 *2589:A1 *2589:B1 4.82919e-05
5 *2589:A1 *3018:GATE_N 0.000198945
6 *2589:A1 *904:22 8.13092e-05
7 *2589:A1 *908:28 3.518e-05
8 *2589:B2 *2589:A1 4.99619e-05
*RES
1 *2858:Q *2589:A1 10.5 
*END

*D_NET *234 0.000471773
*CONN
*I *2601:A1 I *D sky130_fd_sc_hd__a221o_1
*I *2859:Q O *D sky130_fd_sc_hd__dlxtn_1
*CAP
1 *2601:A1 0.00017052
2 *2859:Q 0.00017052
3 *2601:A1 *2464:A2 4.87465e-06
4 *2601:A1 *2601:B2 9.00095e-05
5 *2601:A1 *2882:GATE_N 3.5848e-05
*RES
1 *2859:Q *2601:A1 5.39 
*END

*D_NET *235 0.000458952
*CONN
*I *2610:A1 I *D sky130_fd_sc_hd__a221o_1
*I *2860:Q O *D sky130_fd_sc_hd__dlxtn_1
*CAP
1 *2610:A1 9.51114e-05
2 *2860:Q 9.51114e-05
3 *2610:A1 *2610:A2 7.13722e-05
4 *2610:A1 *2610:B1 0.000135201
5 *2610:A1 *928:14 6.21553e-05
*RES
1 *2860:Q *2610:A1 9.285 
*END

*D_NET *236 0.00111915
*CONN
*I *2622:A1 I *D sky130_fd_sc_hd__a22o_1
*I *2861:Q O *D sky130_fd_sc_hd__dlxtn_1
*CAP
1 *2622:A1 0.000370366
2 *2861:Q 0.000370366
3 *2622:A1 *2622:B1 2.75229e-05
4 *2622:A1 *2988:GATE_N 5.11148e-06
5 *2622:A1 *821:16 0.000100139
6 *2622:A1 *834:44 2.17931e-05
7 *2622:A1 *907:56 0
8 *2622:A1 *922:68 4.82863e-05
9 *2622:B2 *2622:A1 0.000175561
*RES
1 *2861:Q *2622:A1 12.675 
*END

*D_NET *237 0.00218476
*CONN
*I *2464:A1 I *D sky130_fd_sc_hd__a221o_1
*I *2847:Q O *D sky130_fd_sc_hd__dlxtn_1
*CAP
1 *2464:A1 0.000458454
2 *2847:Q 0.000458454
3 *2464:A1 *2464:A2 0.000332116
4 *2464:A1 *2464:B2 5.3609e-05
5 *2464:A1 *3039:D 0.000449395
6 *2464:A1 *876:48 0.000162311
7 *2463:B2 *2464:A1 0.00027042
*RES
1 *2847:Q *2464:A1 13.325 
*END

*D_NET *238 0.000855099
*CONN
*I *2479:A1 I *D sky130_fd_sc_hd__a22o_1
*I *2848:Q O *D sky130_fd_sc_hd__dlxtn_1
*CAP
1 *2479:A1 0.000241049
2 *2848:Q 0.000241049
3 *2479:A1 *2479:A2 9.40874e-05
4 *2479:A1 *814:120 6.3124e-06
5 *2479:A1 *873:50 1.91597e-05
6 *2479:A1 *873:54 0.000160635
7 *2479:A1 *904:61 9.28053e-05
*RES
1 *2848:Q *2479:A1 10.845 
*END

*D_NET *239 0.000712774
*CONN
*I *2490:A1 I *D sky130_fd_sc_hd__a22o_1
*I *2849:Q O *D sky130_fd_sc_hd__dlxtn_1
*CAP
1 *2490:A1 0.000313405
2 *2849:Q 0.000313405
3 *2490:A1 *2490:A2 9.50342e-06
4 *2490:A1 *2555:A2 7.646e-05
5 *2490:A1 *805:78 0
6 *2490:A1 *906:22 0
7 *2490:A1 *906:26 0
*RES
1 *2849:Q *2490:A1 11.01 
*END

*D_NET *240 0.000700932
*CONN
*I *2501:A1 I *D sky130_fd_sc_hd__a221o_1
*I *2850:Q O *D sky130_fd_sc_hd__dlxtn_1
*CAP
1 *2501:A1 0.000188575
2 *2850:Q 0.000188575
3 *2501:A1 *2501:B2 4.43871e-06
4 *2501:A1 *2501:C1 0
5 *2501:A1 *2512:B1 0.000203178
6 *2501:A1 *929:18 0.000116165
*RES
1 *2850:Q *2501:A1 10.41 
*END

*D_NET *241 0.000650826
*CONN
*I *2511:A1 I *D sky130_fd_sc_hd__a221o_1
*I *2851:Q O *D sky130_fd_sc_hd__dlxtn_1
*CAP
1 *2511:A1 0.000174767
2 *2851:Q 0.000174767
3 *2511:A1 *2511:B2 2.46007e-05
4 *2511:A1 *2513:A1 7.06865e-05
5 *2511:A1 *2513:A2 9.5433e-05
6 *2511:A1 *2521:A2 5.53249e-06
7 *2511:A1 *929:26 1.86911e-05
8 *2510:B2 *2511:A1 8.63479e-05
*RES
1 *2851:Q *2511:A1 10.32 
*END

*D_NET *242 0.00137831
*CONN
*I *2521:A1 I *D sky130_fd_sc_hd__a22o_1
*I *2852:Q O *D sky130_fd_sc_hd__dlxtn_1
*CAP
1 *2521:A1 0.0002333
2 *2852:Q 0.0002333
3 *2521:A1 *2522:A2 0.000286649
4 *2521:A1 *2522:C1 0.000407505
5 *2521:A1 *2524:C1 0
6 *2521:A1 *2525:B 4.66108e-05
7 *2521:A1 *2852:GATE_N 0.000160213
8 *2521:A1 *832:47 1.07285e-05
*RES
1 *2852:Q *2521:A1 13.83 
*END

*D_NET *243 0.000458991
*CONN
*I *2533:A1 I *D sky130_fd_sc_hd__a221o_1
*I *2853:Q O *D sky130_fd_sc_hd__dlxtn_1
*CAP
1 *2533:A1 0.000179506
2 *2853:Q 0.000179506
3 *2533:A1 *2533:C1 4.82919e-05
4 *2533:A1 *862:35 4.56483e-05
5 *2533:B2 *2533:A1 6.03947e-06
*RES
1 *2853:Q *2533:A1 5.39 
*END

*D_NET *244 0.000867963
*CONN
*I *2543:A1 I *D sky130_fd_sc_hd__a221o_1
*I *2854:Q O *D sky130_fd_sc_hd__dlxtn_1
*CAP
1 *2543:A1 0.000228117
2 *2854:Q 0.000228117
3 *2543:A1 *2544:B1 9.30787e-05
4 *2543:A1 *2544:C1 7.00889e-06
5 *2543:A1 *3020:GATE_N 7.68414e-06
6 *2543:A1 *3132:A 9.30787e-05
7 *2543:A1 *814:37 1.61831e-05
8 *2543:A1 *906:93 0.000194694
*RES
1 *2854:Q *2543:A1 10.845 
*END

*D_NET *245 0.000527176
*CONN
*I *2556:A1 I *D sky130_fd_sc_hd__a22o_1
*I *2855:Q O *D sky130_fd_sc_hd__dlxtn_1
*CAP
1 *2556:A1 0.000128878
2 *2855:Q 0.000128878
3 *2556:A1 *2556:B1 0.000134215
4 *2556:A1 *2645:A0 2.65814e-06
5 *2556:A1 *3070:GATE_N 0.000132548
*RES
1 *2855:Q *2556:A1 9.63 
*END

*D_NET *246 0.00128542
*CONN
*I *2457:A1 I *D sky130_fd_sc_hd__a22o_1
*I *2862:Q O *D sky130_fd_sc_hd__dlxtn_1
*CAP
1 *2457:A1 0.000358286
2 *2862:Q 0.000358286
3 *2457:A1 *820:24 9.30787e-05
4 *2457:A1 *833:52 0.000460549
5 *2457:A1 *923:71 1.52184e-05
*RES
1 *2862:Q *2457:A1 12.57 
*END

*D_NET *247 0.0011618
*CONN
*I *2567:A1 I *D sky130_fd_sc_hd__a22o_1
*I *2872:Q O *D sky130_fd_sc_hd__dlxtn_1
*CAP
1 *2567:A1 0.000345846
2 *2872:Q 0.000345846
3 *2567:A1 *2565:A1 1.33205e-05
4 *2567:A1 *2566:A2 1.54111e-05
5 *2567:A1 *2566:B2 1.34543e-05
6 *2567:A1 *2566:C1 8.71734e-05
7 *2567:A1 *816:30 0.000164679
8 *2567:A1 *921:42 1.1392e-05
9 *2567:A1 *923:71 9.50342e-06
10 *2567:A1 *923:80 0.000155176
*RES
1 *2872:Q *2567:A1 13.335 
*END

*D_NET *248 0.00045952
*CONN
*I *2578:A1 I *D sky130_fd_sc_hd__a22o_1
*I *2873:Q O *D sky130_fd_sc_hd__dlxtn_1
*CAP
1 *2578:A1 9.06035e-05
2 *2873:Q 9.06035e-05
3 *2578:A1 *3015:GATE_N 1.4389e-05
4 *2578:A1 *833:18 0.000132796
5 *2578:A1 *923:50 0.000131129
*RES
1 *2873:Q *2578:A1 9.285 
*END

*D_NET *249 0.000330386
*CONN
*I *2587:A1 I *D sky130_fd_sc_hd__a22o_1
*I *2874:Q O *D sky130_fd_sc_hd__dlxtn_1
*CAP
1 *2587:A1 0.000150844
2 *2874:Q 0.000150844
3 *2587:A1 *2587:B2 2.86975e-05
*RES
1 *2874:Q *2587:A1 5.045 
*END

*D_NET *250 0.000754162
*CONN
*I *2594:A1 I *D sky130_fd_sc_hd__a22o_1
*I *2875:Q O *D sky130_fd_sc_hd__dlxtn_1
*CAP
1 *2594:A1 0.000212027
2 *2875:Q 0.000212027
3 *2594:A1 *2594:B1 9.5433e-05
4 *2594:A1 *881:31 0
5 *2594:A1 *899:85 0.000234674
*RES
1 *2875:Q *2594:A1 10.5 
*END

*D_NET *251 0.000513697
*CONN
*I *2611:A1 I *D sky130_fd_sc_hd__a22o_1
*I *2876:Q O *D sky130_fd_sc_hd__dlxtn_1
*CAP
1 *2611:A1 0.000151243
2 *2876:Q 0.000151243
3 *2611:A1 *2611:B1 4.21973e-05
4 *2611:A1 *847:131 0.000169014
*RES
1 *2876:Q *2611:A1 6.455 
*END

*D_NET *252 0.00041745
*CONN
*I *2621:A1 I *D sky130_fd_sc_hd__a221o_1
*I *2877:Q O *D sky130_fd_sc_hd__dlxtn_1
*CAP
1 *2621:A1 8.29851e-05
2 *2877:Q 8.29851e-05
3 *2621:A1 *2621:A2 1.85674e-05
4 *2621:A1 *2621:B2 1.12643e-05
5 *2621:A1 *3130:A 0.000109739
6 *2621:A1 *925:86 0.000111909
*RES
1 *2877:Q *2621:A1 5.75 
*END

*D_NET *253 0.000371182
*CONN
*I *2465:A1 I *D sky130_fd_sc_hd__a22o_1
*I *2863:Q O *D sky130_fd_sc_hd__dlxtn_1
*CAP
1 *2465:A1 0.000111508
2 *2863:Q 0.000111508
3 *2465:A1 *2465:B1 4.42526e-05
4 *2465:A1 *2465:B2 4.99619e-05
5 *2465:A1 *834:72 5.39509e-05
*RES
1 *2863:Q *2465:A1 5.51 
*END

*D_NET *254 0.0022994
*CONN
*I *2478:A1 I *D sky130_fd_sc_hd__a221o_1
*I *2864:Q O *D sky130_fd_sc_hd__dlxtn_1
*CAP
1 *2478:A1 0.000455212
2 *2864:Q 0.000455212
3 *2478:A1 *2456:B1 9.13949e-06
4 *2478:A1 *2457:B2 4.36847e-05
5 *2478:A1 *2477:B1 0.000371598
6 *2478:A1 *2477:B2 0
7 *2478:A1 *2478:A2 2.61183e-06
8 *2478:A1 *2478:B2 3.06315e-05
9 *2478:A1 *2478:C1 0.000373209
10 *2478:A1 *818:54 0.000134018
11 *2478:A1 *877:68 0.000178075
12 *2455:A1 *2478:A1 0.000196045
13 *2455:B2 *2478:A1 4.9968e-05
*RES
1 *2864:Q *2478:A1 18.3 
*END

*D_NET *255 0.00126805
*CONN
*I *2488:A1 I *D sky130_fd_sc_hd__a22o_1
*I *2865:Q O *D sky130_fd_sc_hd__dlxtn_1
*CAP
1 *2488:A1 0.000223597
2 *2865:Q 0.000223597
3 *2488:A1 *2488:B2 1.01661e-05
4 *2488:A1 *831:28 0.000160641
5 *2488:A1 *831:30 4.82863e-05
6 *2488:A1 *906:22 0.000312077
7 *2488:A1 *923:36 0.000289684
*RES
1 *2865:Q *2488:A1 12.705 
*END

*D_NET *256 0.000430134
*CONN
*I *2495:A1 I *D sky130_fd_sc_hd__a22o_1
*I *2866:Q O *D sky130_fd_sc_hd__dlxtn_1
*CAP
1 *2495:A1 0.000109214
2 *2866:Q 0.000109214
3 *2495:A1 *2495:A2 8.8266e-05
4 *2495:A1 *2495:B1 0
5 *2495:A1 *2504:B1 2.76781e-05
6 *2495:A1 *881:31 9.57611e-05
*RES
1 *2866:Q *2495:A1 9.465 
*END

*D_NET *257 0.00117627
*CONN
*I *2511:B2 I *D sky130_fd_sc_hd__a221o_1
*I *2867:Q O *D sky130_fd_sc_hd__dlxtn_1
*CAP
1 *2511:B2 0.000288303
2 *2867:Q 0.000288303
3 *2511:B2 *2511:C1 1.12643e-05
4 *2511:B2 *2513:A1 6.81315e-05
5 *2511:B2 *2513:B1 0.00011379
6 *2511:B2 *2883:GATE_N 5.58206e-05
7 *2511:B2 *2978:GATE_N 0.000309722
8 *2511:B2 *3118:A 7.25921e-06
9 *2511:B2 *866:41 9.07997e-06
10 *2511:A1 *2511:B2 2.46007e-05
*RES
1 *2867:Q *2511:B2 12.8138 
*END

*D_NET *258 0.000958306
*CONN
*I *2522:A1 I *D sky130_fd_sc_hd__a221o_1
*I *2868:Q O *D sky130_fd_sc_hd__dlxtn_1
*CAP
1 *2522:A1 0.000321761
2 *2868:Q 0.000321761
3 *2522:A1 *2522:A2 5.12942e-05
4 *2522:A1 *2522:B2 3.03465e-05
5 *2522:A1 *2852:GATE_N 7.06865e-05
6 *2522:A1 *864:47 9.85467e-05
7 *2522:A1 *864:49 6.39105e-05
*RES
1 *2868:Q *2522:A1 12.045 
*END

*D_NET *259 0.000399377
*CONN
*I *2532:A1 I *D sky130_fd_sc_hd__a22o_1
*I *2869:Q O *D sky130_fd_sc_hd__dlxtn_1
*CAP
1 *2532:A1 0.000179002
2 *2869:Q 0.000179002
3 *2532:A1 *2532:B1 2.93678e-05
4 *2532:A1 *2533:C1 1.20052e-05
*RES
1 *2869:Q *2532:A1 5.39 
*END

*D_NET *260 0.00111878
*CONN
*I *2540:A1 I *D sky130_fd_sc_hd__a221o_1
*I *2870:Q O *D sky130_fd_sc_hd__dlxtn_1
*CAP
1 *2540:A1 0.000274641
2 *2870:Q 0.000274641
3 *2540:A1 *2539:B1 4.99619e-05
4 *2540:A1 *2545:C 3.85204e-05
5 *2540:A1 *829:69 1.17437e-05
6 *2540:A1 *881:57 0.000137104
7 *2540:A1 *898:93 0.000304647
8 *2539:B2 *2540:A1 2.75229e-05
*RES
1 *2870:Q *2540:A1 12.705 
*END

*D_NET *261 0.000647958
*CONN
*I *2556:B2 I *D sky130_fd_sc_hd__a22o_1
*I *2871:Q O *D sky130_fd_sc_hd__dlxtn_1
*CAP
1 *2556:B2 0.000231683
2 *2871:Q 0.000231683
3 *2556:B2 *2556:B1 0.00013463
4 *2556:B2 *858:59 0
5 *2556:B2 *877:38 4.99619e-05
6 *2556:B2 *923:36 0
*RES
1 *2871:Q *2556:B2 11.325 
*END

*D_NET *262 0.000946577
*CONN
*I *2456:B2 I *D sky130_fd_sc_hd__a221o_1
*I *2878:Q O *D sky130_fd_sc_hd__dlxtn_1
*CAP
1 *2456:B2 0.000309061
2 *2878:Q 0.000309061
3 *2456:B2 *2455:B1 1.12643e-05
4 *2456:B2 *2456:B1 6.10014e-05
5 *2456:B2 *2458:C1 0.000163199
6 *2456:B2 *2477:A2 8.09157e-05
7 *2456:A1 *2456:B2 1.20741e-05
*RES
1 *2878:Q *2456:B2 11.8988 
*END

*D_NET *263 0.00116885
*CONN
*I *2566:B2 I *D sky130_fd_sc_hd__a221o_1
*I *2888:Q O *D sky130_fd_sc_hd__dlxtn_1
*CAP
1 *2566:B2 0.000360685
2 *2888:Q 0.000360685
3 *2566:B2 *836:38 0
4 *2566:B2 *855:22 0.000134018
5 *2566:B2 *921:46 0.00030001
6 *2567:A1 *2566:B2 1.34543e-05
*RES
1 *2888:Q *2566:B2 13.29 
*END

*D_NET *264 0.000640222
*CONN
*I *2576:A1 I *D sky130_fd_sc_hd__a22o_1
*I *2889:Q O *D sky130_fd_sc_hd__dlxtn_1
*CAP
1 *2576:A1 0.000216981
2 *2889:Q 0.000216981
3 *2576:A1 *2977:GATE_N 0
4 *2576:A1 *853:37 5.30673e-05
5 *2576:A1 *853:39 2.75229e-05
6 *2576:A1 *853:41 7.35729e-05
7 *2576:A1 *934:51 5.20968e-05
*RES
1 *2889:Q *2576:A1 10.5 
*END

*D_NET *265 0.000484396
*CONN
*I *2588:A1 I *D sky130_fd_sc_hd__a221o_1
*I *2890:Q O *D sky130_fd_sc_hd__dlxtn_1
*CAP
1 *2588:A1 6.62134e-05
2 *2890:Q 6.62134e-05
3 *2588:A1 *2588:B2 5.9329e-05
4 *2588:A1 *2970:GATE_N 5.83576e-05
5 *2588:A1 *851:102 0.000234282
*RES
1 *2890:Q *2588:A1 5.75 
*END

*D_NET *266 0.00106445
*CONN
*I *2600:A1 I *D sky130_fd_sc_hd__a22o_1
*I *2891:Q O *D sky130_fd_sc_hd__dlxtn_1
*CAP
1 *2600:A1 0.000195836
2 *2891:Q 0.000195836
3 *2600:A1 *2600:B1 4.82919e-05
4 *2600:A1 *2859:GATE_N 0.000175955
5 *2600:A1 *3186:A 3.49165e-05
6 *2600:A1 *3209:A 2.16833e-05
7 *2600:A1 *499:18 4.66108e-05
8 *2600:A1 *808:80 3.03775e-05
9 *2600:A1 *895:8 1.65804e-05
10 *2600:A1 *925:43 0.000298367
*RES
1 *2891:Q *2600:A1 12.12 
*END

*D_NET *267 0.000397823
*CONN
*I *2609:A1 I *D sky130_fd_sc_hd__a22o_1
*I *2892:Q O *D sky130_fd_sc_hd__dlxtn_1
*CAP
1 *2609:A1 0.000140761
2 *2892:Q 0.000140761
3 *2609:A1 *2525:A 0.000116301
4 *2609:A1 *928:14 0
*RES
1 *2892:Q *2609:A1 5.045 
*END

*D_NET *268 0.000362088
*CONN
*I *2623:A1 I *D sky130_fd_sc_hd__a211o_1
*I *2893:Q O *D sky130_fd_sc_hd__dlxtn_1
*CAP
1 *2623:A1 0.000117844
2 *2893:Q 0.000117844
3 *2623:A1 *2623:C1 4.66108e-05
4 *2623:A1 *922:47 3.26889e-05
5 *2623:A1 *922:68 4.7101e-05
*RES
1 *2893:Q *2623:A1 5.405 
*END

*D_NET *269 0.000975089
*CONN
*I *2466:A1 I *D sky130_fd_sc_hd__a221o_1
*I *2879:Q O *D sky130_fd_sc_hd__dlxtn_1
*CAP
1 *2466:A1 0.000196806
2 *2879:Q 0.000196806
3 *2466:A1 *2520:B1 1.61696e-05
4 *2466:A1 *2859:GATE_N 0.000171585
5 *2466:A1 *2932:GATE_N 1.33293e-05
6 *2466:A1 *2943:GATE_N 6.83488e-05
7 *2466:A1 *837:83 0.000177826
8 *2466:A1 *899:33 6.3875e-05
9 *2466:A1 *922:47 7.03434e-05
*RES
1 *2879:Q *2466:A1 11.67 
*END

*D_NET *270 0.00133118
*CONN
*I *2478:B2 I *D sky130_fd_sc_hd__a221o_1
*I *2880:Q O *D sky130_fd_sc_hd__dlxtn_1
*CAP
1 *2478:B2 0.000384614
2 *2880:Q 0.000384614
3 *2478:B2 *2457:B2 8.50736e-05
4 *2478:B2 *2478:C1 0.000119246
5 *2478:B2 *2974:D 9.22308e-05
6 *2478:B2 *818:54 5.5489e-05
7 *2478:B2 *833:52 0.000160125
8 *2478:B2 *833:56 1.91597e-05
9 *2478:A1 *2478:B2 3.06315e-05
*RES
1 *2880:Q *2478:B2 13.8337 
*END

*D_NET *271 0.000187573
*CONN
*I *2489:A1 I *D sky130_fd_sc_hd__a221o_1
*I *2881:Q O *D sky130_fd_sc_hd__dlxtn_1
*CAP
1 *2489:A1 7.13886e-05
2 *2881:Q 7.13886e-05
3 *2489:A1 *2489:B1 9.50342e-06
4 *2489:A1 *2492:B 0
5 *2489:A1 *2917:GATE_N 0
6 *2489:A1 *921:26 1.15688e-05
7 *2489:B2 *2489:A1 2.37234e-05
*RES
1 *2881:Q *2489:A1 8.325 
*END

*D_NET *272 0.000708376
*CONN
*I *2499:A1 I *D sky130_fd_sc_hd__a22o_1
*I *2882:Q O *D sky130_fd_sc_hd__dlxtn_1
*CAP
1 *2499:A1 0.000251839
2 *2882:Q 0.000251839
3 *2499:A1 *2464:A2 4.63871e-05
4 *2499:A1 *3188:A 7.15815e-05
5 *2499:A1 *869:35 8.67294e-05
*RES
1 *2882:Q *2499:A1 11.01 
*END

*D_NET *273 0.000729607
*CONN
*I *2513:A1 I *D sky130_fd_sc_hd__a211o_1
*I *2883:Q O *D sky130_fd_sc_hd__dlxtn_1
*CAP
1 *2513:A1 0.000187794
2 *2883:Q 0.000187794
3 *2513:A1 *2511:C1 6.97118e-05
4 *2513:A1 *2513:A2 3.50033e-05
5 *2513:A1 *2513:B1 9.50342e-06
6 *2513:A1 *2513:C1 4.82919e-05
7 *2513:A1 *3118:A 4.39911e-06
8 *2510:B2 *2513:A1 4.82919e-05
9 *2511:A1 *2513:A1 7.06865e-05
10 *2511:B2 *2513:A1 6.81315e-05
*RES
1 *2883:Q *2513:A1 10.77 
*END

*D_NET *274 0.00120235
*CONN
*I *2523:A1 I *D sky130_fd_sc_hd__a22o_1
*I *2884:Q O *D sky130_fd_sc_hd__dlxtn_1
*CAP
1 *2523:A1 0.000421497
2 *2884:Q 0.000421497
3 *2523:A1 *2523:A2 3.13354e-05
4 *2523:A1 *2523:B1 8.80293e-06
5 *2523:A1 *2523:B2 4.77757e-05
6 *2523:A1 *2980:GATE_N 6.60042e-05
7 *2523:A1 *2996:GATE_N 0.000205435
*RES
1 *2884:Q *2523:A1 14.76 
*END

*D_NET *275 0.000307988
*CONN
*I *2534:A1 I *D sky130_fd_sc_hd__a22o_1
*I *2885:Q O *D sky130_fd_sc_hd__dlxtn_1
*CAP
1 *2534:A1 0.000108292
2 *2885:Q 0.000108292
3 *2534:A1 *831:40 9.14035e-05
*RES
1 *2885:Q *2534:A1 5.045 
*END

*D_NET *276 0.000887566
*CONN
*I *2541:A1 I *D sky130_fd_sc_hd__a22o_1
*I *2886:Q O *D sky130_fd_sc_hd__dlxtn_1
*CAP
1 *2541:A1 0.000242069
2 *2886:Q 0.000242069
3 *2541:A1 *2509:A2 2.02553e-05
4 *2541:A1 *2541:B1 1.20741e-05
5 *2541:A1 *2541:B2 0.000110082
6 *2541:A1 *2934:GATE_N 1.81461e-05
7 *2541:A1 *807:18 3.1835e-05
8 *2541:A1 *830:31 2.77052e-05
9 *2541:A1 *860:36 3.00381e-05
10 *2541:A1 *881:57 0
11 *2541:A1 *911:25 5.68936e-05
12 *2541:A1 *914:118 2.75919e-05
13 *2541:A1 *918:124 2.0514e-05
14 *2539:B2 *2541:A1 4.82919e-05
*RES
1 *2886:Q *2541:A1 12.12 
*END

*D_NET *277 0.000435328
*CONN
*I *2555:A1 I *D sky130_fd_sc_hd__a221o_1
*I *2887:Q O *D sky130_fd_sc_hd__dlxtn_1
*CAP
1 *2555:A1 0.000168079
2 *2887:Q 0.000168079
3 *2555:A1 *2555:B2 1.60203e-05
4 *2555:A1 *2555:C1 4.82863e-05
5 *2555:A1 *2557:A1 0
6 *2555:A1 *2557:A2 3.48638e-05
*RES
1 *2887:Q *2555:A1 5.39 
*END

*D_NET *278 0.000680206
*CONN
*I *2452:A1 I *D sky130_fd_sc_hd__a221o_1
*I *2894:Q O *D sky130_fd_sc_hd__dlxtn_1
*CAP
1 *2452:A1 0.000232063
2 *2894:Q 0.000232063
3 *2452:A1 *2460:B1 3.77742e-05
4 *2452:A1 *2460:B2 4.23757e-05
5 *2452:A1 *2841:GATE_N 0
6 *2452:A1 *3353:A 8.8266e-05
7 *2452:A1 *521:18 0
8 *2452:A1 *809:44 0
9 *2452:B2 *2452:A1 4.76647e-05
10 *2460:A1 *2452:A1 0
*RES
1 *2894:Q *2452:A1 11.16 
*END

*D_NET *279 0.000428139
*CONN
*I *2563:A1 I *D sky130_fd_sc_hd__a22o_1
*I *2904:Q O *D sky130_fd_sc_hd__dlxtn_1
*CAP
1 *2563:A1 0.000112056
2 *2904:Q 0.000112056
3 *2563:A1 *2563:B1 2.78441e-05
4 *2563:A1 *3064:D 1.33293e-05
5 *2563:A1 *3159:A 4.05358e-05
6 *2563:B2 *2563:A1 0.000122319
*RES
1 *2904:Q *2563:A1 9.57 
*END

*D_NET *280 0.00113926
*CONN
*I *2573:A1 I *D sky130_fd_sc_hd__a221o_1
*I *2905:Q O *D sky130_fd_sc_hd__dlxtn_1
*CAP
1 *2573:A1 0.000286619
2 *2905:Q 0.000286619
3 *2573:A1 *2573:A2 1.2818e-05
4 *2573:A1 *2573:B2 0.000120655
5 *2573:A1 *2841:D 8.27125e-05
6 *2573:A1 *2905:D 0
7 *2573:A1 *856:60 1.11766e-05
8 *2573:A1 *911:72 0.000117009
9 *2573:A1 *911:131 5.89614e-05
10 *2573:A1 *932:70 5.87061e-05
11 *2572:B2 *2573:A1 0.000103983
*RES
1 *2905:Q *2573:A1 11.9345 
*END

*D_NET *281 0.000872966
*CONN
*I *2586:A1 I *D sky130_fd_sc_hd__a221o_1
*I *2906:Q O *D sky130_fd_sc_hd__dlxtn_1
*CAP
1 *2586:A1 0.000212069
2 *2906:Q 0.000212069
3 *2586:A1 *3078:GATE_N 5.8842e-05
4 *2586:A1 *3202:A 5.86432e-05
5 *2586:A1 *807:18 0.000296734
6 *2586:A1 *807:22 8.53113e-06
7 *2586:A1 *829:41 2.6078e-05
*RES
1 *2906:Q *2586:A1 11.67 
*END

*D_NET *282 0.000966253
*CONN
*I *2596:A1 I *D sky130_fd_sc_hd__a22o_1
*I *2907:Q O *D sky130_fd_sc_hd__dlxtn_1
*CAP
1 *2596:A1 0.000258353
2 *2907:Q 0.000258353
3 *2596:A1 *2596:B1 5.16418e-05
4 *2596:A1 *3190:A 0
5 *2596:A1 *3191:A 0
6 *2596:A1 *889:56 0
7 *2596:A1 *899:23 0.000175894
8 *2596:A1 *899:29 9.54399e-05
9 *2596:A1 *925:133 0.00012657
*RES
1 *2907:Q *2596:A1 12.015 
*END

*D_NET *283 0.000595602
*CONN
*I *2608:A1 I *D sky130_fd_sc_hd__a221o_1
*I *2908:Q O *D sky130_fd_sc_hd__dlxtn_1
*CAP
1 *2608:A1 0.00018885
2 *2908:Q 0.00018885
3 *2608:A1 *894:112 2.15271e-05
4 *2608:A1 *894:127 0.000196376
*RES
1 *2908:Q *2608:A1 5.735 
*END

*D_NET *284 0.000545399
*CONN
*I *2619:A1 I *D sky130_fd_sc_hd__a221o_1
*I *2909:Q O *D sky130_fd_sc_hd__dlxtn_1
*CAP
1 *2619:A1 0.00011886
2 *2909:Q 0.00011886
3 *2619:A1 *3110:A 9.30717e-05
4 *2619:A1 *3126:A 9.30717e-05
5 *2619:A1 *897:47 0.000121536
*RES
1 *2909:Q *2619:A1 9.465 
*END

*D_NET *285 0.00075845
*CONN
*I *2463:A1 I *D sky130_fd_sc_hd__a22o_1
*I *2895:Q O *D sky130_fd_sc_hd__dlxtn_1
*CAP
1 *2463:A1 0.000219155
2 *2895:Q 0.000219155
3 *2463:A1 *2520:A2 0.000270415
4 *2463:A1 *3188:A 1.37861e-05
5 *2463:A1 *881:57 2.64352e-05
6 *2463:A1 *919:55 9.50342e-06
*RES
1 *2895:Q *2463:A1 10.335 
*END

*D_NET *286 0.000335803
*CONN
*I *2475:A1 I *D sky130_fd_sc_hd__a22o_1
*I *2896:Q O *D sky130_fd_sc_hd__dlxtn_1
*CAP
1 *2475:A1 7.29801e-05
2 *2896:Q 7.29801e-05
3 *2475:A1 *2646:A0 5.04265e-05
4 *2475:A1 *2654:A0 9.28053e-05
5 *2475:A1 *3172:A 4.66108e-05
*RES
1 *2896:Q *2475:A1 8.775 
*END

*D_NET *287 0.000931931
*CONN
*I *2484:A1 I *D sky130_fd_sc_hd__a22o_1
*I *2897:Q O *D sky130_fd_sc_hd__dlxtn_1
*CAP
1 *2484:A1 0.000206658
2 *2897:Q 0.000206658
3 *2484:A1 *2484:B1 9.50342e-06
4 *2484:A1 *2485:C1 0.000247567
5 *2484:A1 *872:62 6.97118e-05
6 *2484:A1 *881:57 0.00016092
7 *2484:A1 *898:118 3.09128e-05
*RES
1 *2897:Q *2484:A1 12.015 
*END

*D_NET *288 0.00106247
*CONN
*I *2498:A1 I *D sky130_fd_sc_hd__a221o_1
*I *2898:Q O *D sky130_fd_sc_hd__dlxtn_1
*CAP
1 *2498:A1 0.000206585
2 *2898:Q 0.000206585
3 *2498:A1 *2419:A 6.07575e-06
4 *2498:A1 *3112:A 4.04859e-05
5 *2498:A1 *3124:A 0
6 *2498:A1 *441:10 0.00023991
7 *2498:A1 *828:60 0.000344454
8 *2498:A1 *841:15 1.83756e-05
9 *2498:A1 *1012:16 0
*RES
1 *2898:Q *2498:A1 12.3 
*END

*D_NET *289 0.000434648
*CONN
*I *2509:A1 I *D sky130_fd_sc_hd__a221o_1
*I *2899:Q O *D sky130_fd_sc_hd__dlxtn_1
*CAP
1 *2509:A1 8.3794e-05
2 *2899:Q 8.3794e-05
3 *2509:A1 *3110:A 0.000111061
4 *2509:A1 *897:45 0.000109388
5 *2509:A1 *912:43 4.66108e-05
*RES
1 *2899:Q *2509:A1 9.03 
*END

*D_NET *290 0.000345068
*CONN
*I *2519:A1 I *D sky130_fd_sc_hd__a22o_1
*I *2900:Q O *D sky130_fd_sc_hd__dlxtn_1
*CAP
1 *2519:A1 8.17237e-05
2 *2900:Q 8.17237e-05
3 *2519:A1 *2519:B2 4.66108e-05
4 *2519:A1 *2520:C1 4.59464e-05
5 *2519:A1 *3186:A 8.90632e-05
*RES
1 *2900:Q *2519:A1 8.775 
*END

*D_NET *291 0.000563733
*CONN
*I *2531:A1 I *D sky130_fd_sc_hd__a221o_1
*I *2901:Q O *D sky130_fd_sc_hd__dlxtn_1
*CAP
1 *2531:A1 0.000219109
2 *2901:Q 0.000219109
3 *2531:A1 *3158:A 0.000113247
4 *2531:A1 *892:43 1.22676e-05
*RES
1 *2901:Q *2531:A1 10.155 
*END

*D_NET *292 0.000519123
*CONN
*I *2541:B2 I *D sky130_fd_sc_hd__a22o_1
*I *2902:Q O *D sky130_fd_sc_hd__dlxtn_1
*CAP
1 *2541:B2 0.000106469
2 *2902:Q 0.000106469
3 *2541:B2 *847:131 8.57024e-05
4 *2541:B2 *914:118 0.000110399
5 *2541:A1 *2541:B2 0.000110082
*RES
1 *2902:Q *2541:B2 9.375 
*END

*D_NET *293 0.00050907
*CONN
*I *2552:A1 I *D sky130_fd_sc_hd__a22o_1
*I *2903:Q O *D sky130_fd_sc_hd__dlxtn_1
*CAP
1 *2552:A1 0.000204972
2 *2903:Q 0.000204972
3 *2552:A1 *2903:D 0
4 *2552:A1 *3047:GATE_N 0
5 *2552:A1 *3169:A 9.91257e-05
*RES
1 *2903:Q *2552:A1 9.81 
*END

*D_NET *294 0.00120755
*CONN
*I *2453:A1 I *D sky130_fd_sc_hd__a22o_1
*I *2910:Q O *D sky130_fd_sc_hd__dlxtn_1
*CAP
1 *2453:A1 0.0004783
2 *2910:Q 0.0004783
3 *2453:A1 *2453:B1 0
4 *2453:A1 *2453:B2 5.6219e-05
5 *2453:A1 *2454:C1 0
6 *2453:A1 *2558:A 2.85364e-05
7 *2453:A1 *2910:D 0
8 *2453:A1 *2910:GATE_N 0.000163199
9 *2453:A1 *2937:GATE_N 2.99518e-06
10 *2453:A1 *811:60 0
11 *2453:A1 *825:61 0
*RES
1 *2910:Q *2453:A1 14.085 
*END

*D_NET *295 0.000684244
*CONN
*I *2561:A1 I *D sky130_fd_sc_hd__a22o_1
*I *2920:Q O *D sky130_fd_sc_hd__dlxtn_1
*CAP
1 *2561:A1 0.000181541
2 *2920:Q 0.000181541
3 *2561:A1 *2474:A2 9.17274e-05
4 *2561:A1 *551:40 0.000229435
*RES
1 *2920:Q *2561:A1 10.155 
*END

*D_NET *296 0.00033482
*CONN
*I *2575:A1 I *D sky130_fd_sc_hd__a221o_1
*I *2921:Q O *D sky130_fd_sc_hd__dlxtn_1
*CAP
1 *2575:A1 0.000105481
2 *2921:Q 0.000105481
3 *2575:A1 *2558:A 2.53317e-05
4 *2575:A1 *2921:D 4.82919e-05
5 *2575:A1 *916:50 5.0234e-05
*RES
1 *2921:Q *2575:A1 5.045 
*END

*D_NET *297 0.00122591
*CONN
*I *2584:A1 I *D sky130_fd_sc_hd__a221o_1
*I *2922:Q O *D sky130_fd_sc_hd__dlxtn_1
*CAP
1 *2584:A1 0.000255457
2 *2922:Q 0.000255457
3 *2584:A1 *825:130 0
4 *2584:A1 *863:38 0.000193011
5 *2584:A1 *896:48 0.000312083
6 *2584:A1 *932:30 4.47504e-06
7 *2592:A1 *2584:A1 0.000205428
*RES
1 *2922:Q *2584:A1 12.705 
*END

*D_NET *298 0.001303
*CONN
*I *2595:A1 I *D sky130_fd_sc_hd__a221o_1
*I *2923:Q O *D sky130_fd_sc_hd__dlxtn_1
*CAP
1 *2595:A1 0.000373081
2 *2923:Q 0.000373081
3 *2595:A1 *2465:B1 0.00013062
4 *2595:A1 *2595:B1 5.10477e-05
5 *2595:A1 *2595:C1 2.60049e-05
6 *2595:A1 *3051:D 0
7 *2595:A1 *3205:A 8.40269e-05
8 *2595:A1 *498:16 2.57231e-05
9 *2595:A1 *849:98 0
10 *2595:A1 *866:35 0.000124007
11 *2595:A1 *917:8 2.90881e-05
12 *2595:A1 *933:82 7.9642e-06
13 *2595:B2 *2595:A1 1.23707e-05
14 *2603:A1 *2595:A1 6.59891e-05
*RES
1 *2923:Q *2595:A1 13.68 
*END

*D_NET *299 0.000297393
*CONN
*I *2605:A1 I *D sky130_fd_sc_hd__a22o_1
*I *2924:Q O *D sky130_fd_sc_hd__dlxtn_1
*CAP
1 *2605:A1 7.63903e-05
2 *2924:Q 7.63903e-05
3 *2605:A1 *2614:B2 1.4389e-05
4 *2605:A1 *830:90 9.54399e-05
5 *2605:B2 *2605:A1 3.47837e-05
*RES
1 *2924:Q *2605:A1 8.775 
*END

*D_NET *300 0.000838812
*CONN
*I *2616:A1 I *D sky130_fd_sc_hd__a22o_1
*I *2925:Q O *D sky130_fd_sc_hd__dlxtn_1
*CAP
1 *2616:A1 0.00024164
2 *2925:Q 0.00024164
3 *2616:A1 *2472:B 0.000269521
4 *2616:A1 *2616:B2 3.39151e-05
5 *2616:A1 *839:75 5.20968e-05
*RES
1 *2925:Q *2616:A1 10.845 
*END

*D_NET *301 0.000437212
*CONN
*I *2465:B2 I *D sky130_fd_sc_hd__a22o_1
*I *2911:Q O *D sky130_fd_sc_hd__dlxtn_1
*CAP
1 *2465:B2 0.000122957
2 *2911:Q 0.000122957
3 *2465:B2 *2911:D 0
4 *2465:B2 *834:72 5.05521e-05
5 *2465:B2 *892:33 1.9541e-05
6 *2465:B2 *922:47 7.1242e-05
7 *2465:A1 *2465:B2 4.99619e-05
*RES
1 *2911:Q *2465:B2 9.63 
*END

*D_NET *302 0.00100949
*CONN
*I *2474:A1 I *D sky130_fd_sc_hd__a221o_1
*I *2912:Q O *D sky130_fd_sc_hd__dlxtn_1
*CAP
1 *2474:A1 0.00015383
2 *2912:Q 0.00015383
3 *2474:A1 *2474:A2 0.000381979
4 *2474:A1 *2474:C1 0.000195586
5 *2474:A1 *2560:B 5.03209e-05
6 *2474:A1 *838:44 0
7 *2474:A1 *884:20 4.80085e-05
8 *2474:B2 *2474:A1 2.59387e-05
*RES
1 *2912:Q *2474:A1 11.88 
*END

*D_NET *303 0.00135364
*CONN
*I *2486:A1 I *D sky130_fd_sc_hd__a22o_1
*I *2913:Q O *D sky130_fd_sc_hd__dlxtn_1
*CAP
1 *2486:A1 0.000233838
2 *2913:Q 0.000233838
3 *2486:A1 *2487:C1 1.16578e-05
4 *2486:A1 *2929:D 0.000136604
5 *2486:A1 *3153:A 0.000244979
6 *2486:A1 *381:18 6.26978e-05
7 *2486:A1 *811:52 0.000288387
8 *2486:A1 *871:10 8.53113e-06
9 *2486:A1 *914:16 1.07797e-05
10 *2487:B2 *2486:A1 0.000122331
*RES
1 *2913:Q *2486:A1 13.59 
*END

*D_NET *304 0.000397539
*CONN
*I *2497:A1 I *D sky130_fd_sc_hd__a22o_1
*I *2914:Q O *D sky130_fd_sc_hd__dlxtn_1
*CAP
1 *2497:A1 0.000165747
2 *2914:Q 0.000165747
3 *2497:A1 *3112:A 0
4 *2497:A1 *917:62 4.49367e-05
5 *2497:B2 *2497:A1 2.11084e-05
*RES
1 *2914:Q *2497:A1 5.555 
*END

*D_NET *305 0.000395896
*CONN
*I *2508:A1 I *D sky130_fd_sc_hd__a22o_1
*I *2915:Q O *D sky130_fd_sc_hd__dlxtn_1
*CAP
1 *2508:A1 0.000129816
2 *2915:Q 0.000129816
3 *2508:A1 *2508:B1 0.000124007
4 *2508:A1 *2509:C1 1.22572e-05
5 *2508:A1 *912:58 0
*RES
1 *2915:Q *2508:A1 5.045 
*END

*D_NET *306 0.000474688
*CONN
*I *2518:A1 I *D sky130_fd_sc_hd__a221o_1
*I *2916:Q O *D sky130_fd_sc_hd__dlxtn_1
*CAP
1 *2518:A1 0.000149322
2 *2916:Q 0.000149322
3 *2518:A1 *2518:B1 0.000164358
4 *2518:A1 *865:6 1.16854e-05
*RES
1 *2916:Q *2518:A1 5.39 
*END

*D_NET *307 0.000529273
*CONN
*I *2531:B2 I *D sky130_fd_sc_hd__a221o_1
*I *2917:Q O *D sky130_fd_sc_hd__dlxtn_1
*CAP
1 *2531:B2 8.2197e-05
2 *2917:Q 8.2197e-05
3 *2531:B2 *2531:B1 5.4155e-06
4 *2531:B2 *805:34 5.16274e-05
5 *2531:B2 *892:39 0.000120012
6 *2531:B2 *898:31 9.30787e-05
7 *2530:A1 *2531:B2 9.47454e-05
*RES
1 *2917:Q *2531:B2 9.93375 
*END

*D_NET *308 0.000556125
*CONN
*I *2547:A1 I *D sky130_fd_sc_hd__a221o_1
*I *2918:Q O *D sky130_fd_sc_hd__dlxtn_1
*CAP
1 *2547:A1 9.27458e-05
2 *2918:Q 9.27458e-05
3 *2547:A1 *2547:B1 0.000272313
4 *2547:A1 *2547:B2 0
5 *2547:A1 *2548:B2 9.83202e-05
*RES
1 *2918:Q *2547:A1 10.365 
*END

*D_NET *309 0.00039315
*CONN
*I *2553:A1 I *D sky130_fd_sc_hd__a221o_1
*I *2919:Q O *D sky130_fd_sc_hd__dlxtn_1
*CAP
1 *2553:A1 0.000123593
2 *2919:Q 0.000123593
3 *2553:A1 *2553:A2 8.47373e-05
4 *2553:A1 *2553:C1 4.99619e-05
5 *2553:B2 *2553:A1 1.12643e-05
*RES
1 *2919:Q *2553:A1 5.39 
*END

*D_NET *310 0.000366122
*CONN
*I *2453:B2 I *D sky130_fd_sc_hd__a22o_1
*I *2926:Q O *D sky130_fd_sc_hd__dlxtn_1
*CAP
1 *2453:B2 9.96679e-05
2 *2926:Q 9.96679e-05
3 *2453:B2 *2558:A 2.85364e-05
4 *2453:B2 *2558:C 6.31709e-05
5 *2453:B2 *2559:B2 1.88602e-05
6 *2453:A1 *2453:B2 5.6219e-05
*RES
1 *2926:Q *2453:B2 9.285 
*END

*D_NET *311 0.000621476
*CONN
*I *2561:B2 I *D sky130_fd_sc_hd__a22o_1
*I *2936:Q O *D sky130_fd_sc_hd__dlxtn_1
*CAP
1 *2561:B2 0.000106163
2 *2936:Q 0.000106163
3 *2561:B2 *2655:A1 0.000109377
4 *2561:B2 *2655:S 7.20038e-05
5 *2561:B2 *3157:A 0.00011321
6 *2561:B2 *827:48 0.00011456
*RES
1 *2936:Q *2561:B2 10.41 
*END

*D_NET *312 0.000892673
*CONN
*I *2574:A1 I *D sky130_fd_sc_hd__a22o_1
*I *2937:Q O *D sky130_fd_sc_hd__dlxtn_1
*CAP
1 *2574:A1 0.00026434
2 *2937:Q 0.00026434
3 *2574:A1 *2574:A2 4.99619e-05
4 *2574:A1 *2945:GATE_N 9.49333e-05
5 *2574:A1 *853:6 2.11084e-05
6 *2574:A1 *854:42 0.00019799
*RES
1 *2937:Q *2574:A1 8.285 
*END

*D_NET *313 0.000307791
*CONN
*I *2585:A1 I *D sky130_fd_sc_hd__a22o_1
*I *2938:Q O *D sky130_fd_sc_hd__dlxtn_1
*CAP
1 *2585:A1 8.03119e-05
2 *2938:Q 8.03119e-05
3 *2585:A1 *2585:B1 9.57555e-05
4 *2585:A1 *2586:C1 3.86607e-05
5 *2585:A1 *2938:D 5.83121e-06
6 *2585:A1 *807:18 0
7 *2585:A1 *847:131 6.91939e-06
*RES
1 *2938:Q *2585:A1 8.775 
*END

*D_NET *314 0.000266295
*CONN
*I *2594:B2 I *D sky130_fd_sc_hd__a22o_1
*I *2939:Q O *D sky130_fd_sc_hd__dlxtn_1
*CAP
1 *2594:B2 7.33628e-05
2 *2939:Q 7.33628e-05
3 *2594:B2 *2595:C1 0
4 *2594:B2 *889:56 7.12774e-05
5 *2594:B2 *925:133 4.82919e-05
*RES
1 *2939:Q *2594:B2 8.52 
*END

*D_NET *315 0.000787912
*CONN
*I *2606:A1 I *D sky130_fd_sc_hd__a221o_1
*I *2940:Q O *D sky130_fd_sc_hd__dlxtn_1
*CAP
1 *2606:A1 0.000310929
2 *2940:Q 0.000310929
3 *2606:A1 *2918:GATE_N 2.8185e-05
4 *2606:A1 *3124:A 0
5 *2606:A1 *3157:A 2.75229e-05
6 *2606:A1 *807:115 3.1562e-06
7 *2606:A1 *825:6 1.54878e-05
8 *2606:A1 *825:8 9.60582e-07
9 *2606:A1 *914:157 9.07407e-05
*RES
1 *2940:Q *2606:A1 11.19 
*END

*D_NET *316 0.000563035
*CONN
*I *2616:B2 I *D sky130_fd_sc_hd__a22o_1
*I *2941:Q O *D sky130_fd_sc_hd__dlxtn_1
*CAP
1 *2616:B2 0.000147441
2 *2941:Q 0.000147441
3 *2616:B2 *2472:B 0.000118081
4 *2616:B2 *810:22 0.000116158
5 *2616:B2 *839:75 0
6 *2616:A1 *2616:B2 3.39151e-05
*RES
1 *2941:Q *2616:B2 9.72 
*END

*D_NET *317 0.00146267
*CONN
*I *2464:B2 I *D sky130_fd_sc_hd__a221o_1
*I *2927:Q O *D sky130_fd_sc_hd__dlxtn_1
*CAP
1 *2464:B2 0.000413209
2 *2927:Q 0.000413209
3 *2464:B2 *2464:A2 9.27157e-05
4 *2464:B2 *2471:B1 0.000200615
5 *2464:B2 *3039:D 6.54766e-05
6 *2464:B2 *881:57 0.000158965
7 *2464:B2 *915:81 6.48748e-05
8 *2464:A1 *2464:B2 5.3609e-05
*RES
1 *2927:Q *2464:B2 10.8725 
*END

*D_NET *318 0.000753033
*CONN
*I *2476:A1 I *D sky130_fd_sc_hd__a221o_1
*I *2928:Q O *D sky130_fd_sc_hd__dlxtn_1
*CAP
1 *2476:A1 0.000193755
2 *2928:Q 0.000193755
3 *2476:A1 *2476:B1 0.000135889
4 *2476:A1 *3054:GATE_N 4.71333e-05
5 *2476:A1 *3159:A 0.000135889
6 *2476:A1 *894:69 4.66108e-05
*RES
1 *2928:Q *2476:A1 10.665 
*END

*D_NET *319 0.000675086
*CONN
*I *2487:A1 I *D sky130_fd_sc_hd__a221o_1
*I *2929:Q O *D sky130_fd_sc_hd__dlxtn_1
*CAP
1 *2487:A1 0.000172996
2 *2929:Q 0.000172996
3 *2487:A1 *2493:B2 4.67945e-05
4 *2487:A1 *825:41 0.000136884
5 *2487:A1 *825:43 8.53113e-06
6 *2487:A1 *894:37 0.000136884
*RES
1 *2929:Q *2487:A1 10.32 
*END

*D_NET *320 0.000598471
*CONN
*I *2498:B2 I *D sky130_fd_sc_hd__a221o_1
*I *2930:Q O *D sky130_fd_sc_hd__dlxtn_1
*CAP
1 *2498:B2 9.22588e-05
2 *2930:Q 9.22588e-05
3 *2498:B2 *2498:A2 0.000107418
4 *2498:B2 *3112:A 0.000194351
5 *2498:B2 *915:33 6.22219e-05
6 *2498:B2 *915:48 4.99619e-05
*RES
1 *2930:Q *2498:B2 6.335 
*END

*D_NET *321 0.000635875
*CONN
*I *2509:B2 I *D sky130_fd_sc_hd__a221o_1
*I *2931:Q O *D sky130_fd_sc_hd__dlxtn_1
*CAP
1 *2509:B2 0.000150028
2 *2931:Q 0.000150028
3 *2509:B2 *2423:A 2.49764e-05
4 *2509:B2 *2509:C1 7.03626e-05
5 *2509:B2 *2931:D 4.80285e-05
6 *2509:B2 *3108:A 7.1932e-06
7 *2509:B2 *3110:A 0.000171752
8 *2509:B2 *3122:A 1.35051e-05
*RES
1 *2931:Q *2509:B2 10.635 
*END

*D_NET *322 0.000971252
*CONN
*I *2520:A1 I *D sky130_fd_sc_hd__a221o_1
*I *2932:Q O *D sky130_fd_sc_hd__dlxtn_1
*CAP
1 *2520:A1 0.000196168
2 *2932:Q 0.000196168
3 *2520:A1 *2525:A 2.84224e-05
4 *2520:A1 *2614:B2 8.8266e-05
5 *2520:A1 *2932:D 0
6 *2520:A1 *2943:GATE_N 0.000157602
7 *2520:A1 *3186:A 0.000304625
*RES
1 *2932:Q *2520:A1 11.67 
*END

*D_NET *323 0.000751809
*CONN
*I *2528:A1 I *D sky130_fd_sc_hd__a22o_1
*I *2933:Q O *D sky130_fd_sc_hd__dlxtn_1
*CAP
1 *2528:A1 0.000205665
2 *2933:Q 0.000205665
3 *2528:A1 *2561:B1 0.000264936
4 *2528:A1 *2562:B1 0
5 *2528:A1 *3045:D 1.45531e-05
6 *2528:A1 *3045:GATE_N 2.49909e-05
7 *2528:B2 *2528:A1 3.59997e-05
*RES
1 *2933:Q *2528:A1 11.16 
*END

*D_NET *324 0.000602275
*CONN
*I *2540:B2 I *D sky130_fd_sc_hd__a221o_1
*I *2934:Q O *D sky130_fd_sc_hd__dlxtn_1
*CAP
1 *2540:B2 0.000153997
2 *2934:Q 0.000153997
3 *2540:B2 *2540:C1 0.000131907
4 *2540:B2 *847:131 1.12643e-05
5 *2540:B2 *860:34 6.97118e-05
6 *2540:B2 *898:93 7.01332e-05
7 *2540:B2 *914:151 1.12643e-05
*RES
1 *2934:Q *2540:B2 10.0837 
*END

*D_NET *325 0.000866333
*CONN
*I *2552:B2 I *D sky130_fd_sc_hd__a22o_1
*I *2935:Q O *D sky130_fd_sc_hd__dlxtn_1
*CAP
1 *2552:B2 0.000109493
2 *2935:Q 0.000109493
3 *2552:B2 *2926:D 0.000233781
4 *2552:B2 *377:12 0.000135201
5 *2552:B2 *381:18 4.62553e-05
6 *2552:B2 *825:51 0.000232111
*RES
1 *2935:Q *2552:B2 11.01 
*END

*D_NET *326 0.00050182
*CONN
*I *2451:A1 I *D sky130_fd_sc_hd__a22o_1
*I *2942:Q O *D sky130_fd_sc_hd__dlxtn_1
*CAP
1 *2451:A1 0.000148213
2 *2942:Q 0.000148213
3 *2451:A1 *2942:GATE_N 0.00015847
4 *2451:A1 *809:44 4.69247e-05
*RES
1 *2942:Q *2451:A1 9.63 
*END

*D_NET *327 0.000802644
*CONN
*I *2562:A1 I *D sky130_fd_sc_hd__a221o_1
*I *2952:Q O *D sky130_fd_sc_hd__dlxtn_1
*CAP
1 *2562:A1 0.000146642
2 *2952:Q 0.000146642
3 *2562:A1 *2562:A2 5.20437e-05
4 *2562:A1 *2570:B1 0.000267933
5 *2562:A1 *2642:B 9.34171e-06
6 *2562:A1 *2655:A1 8.79352e-05
7 *2562:A1 *2658:A0 9.21068e-05
*RES
1 *2952:Q *2562:A1 11.19 
*END

*D_NET *328 0.000648179
*CONN
*I *2573:B2 I *D sky130_fd_sc_hd__a221o_1
*I *2953:Q O *D sky130_fd_sc_hd__dlxtn_1
*CAP
1 *2573:B2 0.000227842
2 *2953:Q 0.000227842
3 *2573:B2 *2562:A2 3.68519e-05
4 *2573:B2 *2573:B1 9.53428e-06
5 *2573:B2 *911:131 2.54522e-05
6 *2573:A1 *2573:B2 0.000120655
*RES
1 *2953:Q *2573:B2 6.23 
*END

*D_NET *329 0.000663899
*CONN
*I *2583:A1 I *D sky130_fd_sc_hd__a22o_1
*I *2954:Q O *D sky130_fd_sc_hd__dlxtn_1
*CAP
1 *2583:A1 0.000197395
2 *2954:Q 0.000197395
3 *2583:A1 *2529:A2 9.16315e-05
4 *2583:A1 *2584:C1 0
5 *2583:A1 *2922:D 4.23031e-05
6 *2583:A1 *916:95 4.99619e-05
7 *2583:B2 *2583:A1 8.52133e-05
*RES
1 *2954:Q *2583:A1 11.325 
*END

*D_NET *330 0.00116579
*CONN
*I *2601:B2 I *D sky130_fd_sc_hd__a221o_1
*I *2955:Q O *D sky130_fd_sc_hd__dlxtn_1
*CAP
1 *2601:B2 0.000264665
2 *2955:Q 0.000264665
3 *2601:B2 *2882:GATE_N 0.00021134
4 *2601:B2 *3186:A 0.000158066
5 *2601:B2 *823:20 1.6408e-05
6 *2601:B2 *849:37 0.000160635
7 *2601:A1 *2601:B2 9.00095e-05
*RES
1 *2955:Q *2601:B2 8.96375 
*END

*D_NET *331 0.00037077
*CONN
*I *2607:A1 I *D sky130_fd_sc_hd__a22o_1
*I *2956:Q O *D sky130_fd_sc_hd__dlxtn_1
*CAP
1 *2607:A1 0.000114179
2 *2956:Q 0.000114179
3 *2607:A1 *2607:B1 5.16348e-05
4 *2607:A1 *2922:GATE_N 0
5 *2607:A1 *3036:GATE_N 4.9253e-06
6 *2607:A1 *848:27 1.03423e-05
7 *2607:A1 *896:12 4.57897e-05
8 *2607:B2 *2607:A1 2.97192e-05
*RES
1 *2956:Q *2607:A1 9.285 
*END

*D_NET *332 0.000880371
*CONN
*I *2617:A1 I *D sky130_fd_sc_hd__a221o_1
*I *2957:Q O *D sky130_fd_sc_hd__dlxtn_1
*CAP
1 *2617:A1 0.000193789
2 *2957:Q 0.000193789
3 *2617:A1 *2518:A2 9.54399e-05
4 *2617:A1 *2617:A2 2.91343e-05
5 *2617:A1 *2625:B1 4.82863e-05
6 *2617:A1 *3143:A 0.000178947
7 *2617:A1 *917:90 0.000140986
*RES
1 *2957:Q *2617:A1 11.535 
*END

*D_NET *333 0.00051567
*CONN
*I *2466:B2 I *D sky130_fd_sc_hd__a221o_1
*I *2943:Q O *D sky130_fd_sc_hd__dlxtn_1
*CAP
1 *2466:B2 9.83507e-05
2 *2943:Q 9.83507e-05
3 *2466:B2 *2465:B1 2.48591e-05
4 *2466:B2 *2847:GATE_N 5.83121e-06
5 *2466:B2 *2859:GATE_N 0.000130938
6 *2466:B2 *831:18 0.000134272
7 *2466:B2 *876:41 1.47256e-05
8 *2466:B2 *922:47 8.34281e-06
*RES
1 *2943:Q *2466:B2 9.525 
*END

*D_NET *334 0.000349029
*CONN
*I *2473:A1 I *D sky130_fd_sc_hd__a22o_1
*I *2944:Q O *D sky130_fd_sc_hd__dlxtn_1
*CAP
1 *2473:A1 0.000102265
2 *2944:Q 0.000102265
3 *2473:A1 *2473:A2 9.14314e-05
4 *2473:A1 *2474:C1 0
5 *2473:A1 *2636:A 5.30673e-05
*RES
1 *2944:Q *2473:A1 9.12 
*END

*D_NET *335 0.00137495
*CONN
*I *2486:B2 I *D sky130_fd_sc_hd__a22o_1
*I *2945:Q O *D sky130_fd_sc_hd__dlxtn_1
*CAP
1 *2486:B2 0.000385713
2 *2945:Q 0.000385713
3 *2486:B2 *2486:B1 5.53249e-06
4 *2486:B2 *2493:B2 0.000449095
5 *2486:B2 *894:37 0.000112123
6 *2486:B2 *916:19 0
7 *2487:B2 *2486:B2 3.67779e-05
*RES
1 *2945:Q *2486:B2 12.825 
*END

*D_NET *336 0.000173079
*CONN
*I *2499:B2 I *D sky130_fd_sc_hd__a22o_1
*I *2946:Q O *D sky130_fd_sc_hd__dlxtn_1
*CAP
1 *2499:B2 5.54125e-05
2 *2946:Q 5.54125e-05
3 *2499:B2 *2499:A2 0
4 *2499:B2 *823:8 1.56428e-05
5 *2499:B2 *912:27 4.66108e-05
*RES
1 *2946:Q *2499:B2 4.265 
*END

*D_NET *337 0.000604019
*CONN
*I *2508:B2 I *D sky130_fd_sc_hd__a22o_1
*I *2947:Q O *D sky130_fd_sc_hd__dlxtn_1
*CAP
1 *2508:B2 0.000216279
2 *2947:Q 0.000216279
3 *2508:B2 *2508:A2 0
4 *2508:B2 *2515:A2 0
5 *2508:B2 *3162:A 0.00012327
6 *2508:B2 *838:28 0
7 *2508:B2 *867:16 3.10977e-05
8 *2508:B2 *912:62 1.70935e-05
*RES
1 *2947:Q *2508:B2 10.65 
*END

*D_NET *338 0.00165511
*CONN
*I *2519:B2 I *D sky130_fd_sc_hd__a22o_1
*I *2948:Q O *D sky130_fd_sc_hd__dlxtn_1
*CAP
1 *2519:B2 0.000468913
2 *2948:Q 0.000468913
3 *2519:B2 *2520:C1 0.000133535
4 *2519:B2 *2525:A 0.000311288
5 *2519:B2 *2943:GATE_N 8.37346e-05
6 *2519:B2 *3202:A 0.000133535
7 *2519:B2 *580:16 8.58339e-06
8 *2519:A1 *2519:B2 4.66108e-05
*RES
1 *2948:Q *2519:B2 14.925 
*END

*D_NET *339 0.000801356
*CONN
*I *2529:A1 I *D sky130_fd_sc_hd__a221o_1
*I *2949:Q O *D sky130_fd_sc_hd__dlxtn_1
*CAP
1 *2529:A1 0.000231203
2 *2949:Q 0.000231203
3 *2529:A1 *2537:B1 3.69198e-05
4 *2529:A1 *2547:A2 0
5 *2529:A1 *838:34 9.3062e-06
6 *2529:A1 *838:40 0.000163508
7 *2529:B2 *2529:A1 0.000129217
*RES
1 *2949:Q *2529:A1 12.405 
*END

*D_NET *340 0.000709624
*CONN
*I *2547:B2 I *D sky130_fd_sc_hd__a221o_1
*I *2950:Q O *D sky130_fd_sc_hd__dlxtn_1
*CAP
1 *2547:B2 0.000224819
2 *2950:Q 0.000224819
3 *2547:B2 *2547:A2 4.43527e-05
4 *2547:B2 *2548:B2 7.4027e-05
5 *2547:B2 *3046:GATE_N 0
6 *2547:B2 *838:34 0
7 *2547:B2 *884:20 0.000141606
8 *2547:A1 *2547:B2 0
*RES
1 *2950:Q *2547:B2 11.61 
*END

*D_NET *341 0.0012924
*CONN
*I *2551:A1 I *D sky130_fd_sc_hd__a221o_1
*I *2951:Q O *D sky130_fd_sc_hd__dlxtn_1
*CAP
1 *2551:A1 0.000286713
2 *2951:Q 0.000286713
3 *2551:A1 *2944:GATE_N 0.000193801
4 *2551:A1 *3154:A 0.000134509
5 *2551:A1 *859:67 0.000302475
6 *2551:A1 *896:50 8.8191e-05
*RES
1 *2951:Q *2551:A1 12.705 
*END

*D_NET *342 0.000440216
*CONN
*I *2458:A1 I *D sky130_fd_sc_hd__a211o_1
*I *2958:Q O *D sky130_fd_sc_hd__dlxtn_1
*CAP
1 *2458:A1 0.00014808
2 *2958:Q 0.00014808
3 *2458:A1 *2456:B1 4.83324e-05
4 *2458:A1 *2458:B1 7.09921e-05
5 *2458:A1 *833:52 2.47313e-05
*RES
1 *2958:Q *2458:A1 9.63 
*END

*D_NET *343 0.00158432
*CONN
*I *2567:B2 I *D sky130_fd_sc_hd__a22o_1
*I *2968:Q O *D sky130_fd_sc_hd__dlxtn_1
*CAP
1 *2567:B2 0.00039966
2 *2968:Q 0.00039966
3 *2567:B2 *2856:GATE_N 0.000264583
4 *2567:B2 *3013:GATE_N 4.43871e-06
5 *2567:B2 *814:80 5.20968e-05
6 *2567:B2 *836:57 0.000194151
7 *2567:B2 *855:32 3.18219e-05
8 *2567:B2 *855:46 3.00381e-05
9 *2565:B2 *2567:B2 0.000196479
10 *2566:A1 *2567:B2 1.1392e-05
*RES
1 *2968:Q *2567:B2 15.45 
*END

*D_NET *344 0.000402892
*CONN
*I *2579:A1 I *D sky130_fd_sc_hd__a211o_1
*I *2969:Q O *D sky130_fd_sc_hd__dlxtn_1
*CAP
1 *2579:A1 0.000152685
2 *2969:Q 0.000152685
3 *2579:A1 *2579:A2 9.53428e-06
4 *2579:A1 *2579:C1 5.05521e-05
5 *2579:A1 *908:125 3.74359e-05
*RES
1 *2969:Q *2579:A1 5.645 
*END

*D_NET *345 0.000976654
*CONN
*I *2587:B2 I *D sky130_fd_sc_hd__a22o_1
*I *2970:Q O *D sky130_fd_sc_hd__dlxtn_1
*CAP
1 *2587:B2 0.000293589
2 *2970:Q 0.000293589
3 *2587:B2 *2874:D 0.000162014
4 *2587:B2 *2890:GATE_N 0.000169122
5 *2587:B2 *2970:D 2.96426e-05
6 *2587:A1 *2587:B2 2.86975e-05
*RES
1 *2970:Q *2587:B2 12.495 
*END

*D_NET *346 0.000593404
*CONN
*I *2598:A1 I *D sky130_fd_sc_hd__a221o_1
*I *2971:Q O *D sky130_fd_sc_hd__dlxtn_1
*CAP
1 *2598:A1 0.000186683
2 *2971:Q 0.000186683
3 *2598:A1 *2385:B 4.66108e-05
4 *2598:A1 *2424:D 4.94326e-05
5 *2598:A1 *2598:B1 9.50342e-06
6 *2598:A1 *3212:A 0
7 *2598:A1 *936:18 0.000114492
*RES
1 *2971:Q *2598:A1 10.065 
*END

*D_NET *347 0.00119417
*CONN
*I *2611:B2 I *D sky130_fd_sc_hd__a22o_1
*I *2972:Q O *D sky130_fd_sc_hd__dlxtn_1
*CAP
1 *2611:B2 0.000343719
2 *2972:Q 0.000343719
3 *2611:B2 *2591:A 0.000102348
4 *2611:B2 *3034:GATE_N 6.28765e-05
5 *2611:B2 *3198:A 0.000183445
6 *2611:B2 *900:38 0.00015806
*RES
1 *2972:Q *2611:B2 12.48 
*END

*D_NET *348 0.000646968
*CONN
*I *2621:B2 I *D sky130_fd_sc_hd__a221o_1
*I *2973:Q O *D sky130_fd_sc_hd__dlxtn_1
*CAP
1 *2621:B2 0.000179403
2 *2973:Q 0.000179403
3 *2621:B2 *2621:B1 4.43871e-06
4 *2621:B2 *2621:C1 9.50342e-06
5 *2621:B2 *3130:A 1.12643e-05
6 *2621:B2 *821:16 0.000160641
7 *2621:B2 *907:56 9.10513e-05
8 *2621:A1 *2621:B2 1.12643e-05
*RES
1 *2973:Q *2621:B2 10.1737 
*END

*D_NET *349 0.000494552
*CONN
*I *2469:A1 I *D sky130_fd_sc_hd__a211o_1
*I *2959:Q O *D sky130_fd_sc_hd__dlxtn_1
*CAP
1 *2469:A1 0.000111319
2 *2959:Q 0.000111319
3 *2469:A1 *2469:A2 7.47284e-05
4 *2469:A1 *2610:B1 3.23391e-05
5 *2469:A1 *906:20 7.65808e-05
6 *2469:A1 *925:72 8.8266e-05
*RES
1 *2959:Q *2469:A1 9.63 
*END

*D_NET *350 0.000402777
*CONN
*I *2477:A1 I *D sky130_fd_sc_hd__a22o_1
*I *2960:Q O *D sky130_fd_sc_hd__dlxtn_1
*CAP
1 *2477:A1 0.000155482
2 *2960:Q 0.000155482
3 *2477:A1 *2477:A2 3.13354e-05
4 *2477:A1 *2477:B1 2.04902e-05
5 *2477:A1 *831:69 3.99879e-05
*RES
1 *2960:Q *2477:A1 5.39 
*END

*D_NET *351 0.000234837
*CONN
*I *2488:B2 I *D sky130_fd_sc_hd__a22o_1
*I *2961:Q O *D sky130_fd_sc_hd__dlxtn_1
*CAP
1 *2488:B2 8.12881e-05
2 *2961:Q 8.12881e-05
3 *2488:B2 *2993:GATE_N 0
4 *2488:B2 *923:36 6.20952e-05
5 *2488:A1 *2488:B2 1.01661e-05
*RES
1 *2961:Q *2488:B2 8.835 
*END

*D_NET *352 0.00150295
*CONN
*I *2500:A1 I *D sky130_fd_sc_hd__a22o_1
*I *2962:Q O *D sky130_fd_sc_hd__dlxtn_1
*CAP
1 *2500:A1 0.000485646
2 *2962:Q 0.000485646
3 *2500:A1 *2501:A2 4.30176e-06
4 *2500:A1 *2501:B2 8.525e-06
5 *2500:A1 *2501:C1 2.11084e-05
6 *2500:A1 *2502:B1 3.8459e-05
7 *2500:A1 *2502:C1 2.93678e-05
8 *2500:A1 *2512:A2 3.07153e-05
9 *2500:A1 *2850:D 0
10 *2500:A1 *817:28 8.40269e-05
11 *2500:A1 *903:91 3.56128e-06
12 *2500:A1 *904:10 2.14129e-05
13 *2500:A1 *904:16 0.000139245
14 *2500:A1 *907:14 4.54499e-05
15 *2500:A1 *907:16 3.47997e-05
16 *2502:A1 *2500:A1 7.06865e-05
*RES
1 *2962:Q *2500:A1 14.475 
*END

*D_NET *353 0.00212361
*CONN
*I *2510:A1 I *D sky130_fd_sc_hd__a22o_1
*I *2963:Q O *D sky130_fd_sc_hd__dlxtn_1
*CAP
1 *2510:A1 0.000742369
2 *2963:Q 0.000742369
3 *2510:A1 *2514:A 2.05571e-05
4 *2510:A1 *2523:B1 0.000113125
5 *2510:A1 *3134:A 3.0422e-05
6 *2510:A1 *819:35 4.40325e-06
7 *2510:A1 *819:39 0.000144557
8 *2510:A1 *905:47 0.000136884
9 *2510:A1 *909:66 4.43871e-06
10 *2510:A1 *922:87 9.30787e-05
11 *2510:A1 *925:86 9.14049e-05
*RES
1 *2963:Q *2510:A1 17.88 
*END

*D_NET *354 0.00214896
*CONN
*I *2523:B2 I *D sky130_fd_sc_hd__a22o_1
*I *2964:Q O *D sky130_fd_sc_hd__dlxtn_1
*CAP
1 *2523:B2 0.000719094
2 *2964:Q 0.000719094
3 *2523:B2 *2964:D 0.000156613
4 *2523:B2 *2980:GATE_N 0.000307607
5 *2523:B2 *3012:D 9.09788e-06
6 *2523:B2 *864:49 2.68526e-05
7 *2523:B2 *864:51 5.05437e-05
8 *2523:B2 *864:89 0.000112284
9 *2523:A1 *2523:B2 4.77757e-05
*RES
1 *2964:Q *2523:B2 17.76 
*END

*D_NET *355 0.000584576
*CONN
*I *2534:B2 I *D sky130_fd_sc_hd__a22o_1
*I *2965:Q O *D sky130_fd_sc_hd__dlxtn_1
*CAP
1 *2534:B2 0.000186581
2 *2965:Q 0.000186581
3 *2534:B2 *2569:A 3.47837e-05
4 *2534:B2 *2569:B 0
5 *2534:B2 *2569:C 2.75229e-05
6 *2534:B2 *908:68 0.000149108
*RES
1 *2965:Q *2534:B2 10.92 
*END

*D_NET *356 0.000342056
*CONN
*I *2542:A1 I *D sky130_fd_sc_hd__a22o_1
*I *2966:Q O *D sky130_fd_sc_hd__dlxtn_1
*CAP
1 *2542:A1 8.89577e-05
2 *2966:Q 8.89577e-05
3 *2542:A1 *2542:B1 6.25449e-05
4 *2542:A1 *2609:B1 8.8266e-05
5 *2542:A1 *2860:GATE_N 1.33293e-05
*RES
1 *2966:Q *2542:A1 5.15 
*END

*D_NET *357 0.0011399
*CONN
*I *2557:A1 I *D sky130_fd_sc_hd__a211o_1
*I *2967:Q O *D sky130_fd_sc_hd__dlxtn_1
*CAP
1 *2557:A1 0.000447264
2 *2967:Q 0.000447264
3 *2557:A1 *2459:A 6.68963e-05
4 *2557:A1 *2555:A2 6.8725e-06
5 *2557:A1 *2556:A2 2.49909e-05
6 *2557:A1 *2557:A2 7.82661e-05
7 *2557:A1 *2557:B1 0
8 *2557:A1 *3070:GATE_N 6.83447e-05
9 *2555:A1 *2557:A1 0
*RES
1 *2967:Q *2557:A1 13.035 
*END

*D_NET *358 0.00086955
*CONN
*I *2457:B2 I *D sky130_fd_sc_hd__a22o_1
*I *2974:Q O *D sky130_fd_sc_hd__dlxtn_1
*CAP
1 *2457:B2 0.000275945
2 *2974:Q 0.000275945
3 *2457:B2 *2456:B1 8.09157e-06
4 *2457:B2 *2478:A2 7.59392e-05
5 *2457:B2 *816:38 4.9968e-05
6 *2457:B2 *818:54 3.26223e-06
7 *2457:B2 *923:71 5.16418e-05
8 *2478:A1 *2457:B2 4.36847e-05
9 *2478:B2 *2457:B2 8.50736e-05
*RES
1 *2974:Q *2457:B2 11.025 
*END

*D_NET *359 0.00239662
*CONN
*I *2565:A1 I *D sky130_fd_sc_hd__a22o_1
*I *2984:Q O *D sky130_fd_sc_hd__dlxtn_1
*CAP
1 *2565:A1 0.000704672
2 *2984:Q 0.000704672
3 *2565:A1 *2565:A2 4.77719e-05
4 *2565:A1 *2565:B1 2.20014e-05
5 *2565:A1 *2566:C1 0.000577255
6 *2565:A1 *2856:D 0.000154557
7 *2565:A1 *2888:GATE_N 0
8 *2565:A1 *2984:D 9.2741e-05
9 *2565:A1 *836:38 8.53113e-06
10 *2565:A1 *855:32 5.05437e-05
11 *2565:A1 *906:114 2.05583e-05
12 *2567:A1 *2565:A1 1.33205e-05
*RES
1 *2984:Q *2565:A1 19.83 
*END

*D_NET *360 0.000675256
*CONN
*I *2577:B2 I *D sky130_fd_sc_hd__a221o_1
*I *2985:Q O *D sky130_fd_sc_hd__dlxtn_1
*CAP
1 *2577:B2 0.000244254
2 *2985:Q 0.000244254
3 *2577:B2 *2577:C1 9.50342e-06
4 *2577:B2 *2849:GATE_N 6.45236e-05
5 *2577:B2 *2855:GATE_N 7.06865e-05
6 *2577:B2 *833:14 0
7 *2577:B2 *853:37 1.12643e-05
8 *2577:B2 *923:63 2.47313e-05
9 *2577:A1 *2577:B2 6.03947e-06
*RES
1 *2985:Q *2577:B2 10.7738 
*END

*D_NET *361 0.000633268
*CONN
*I *2588:B2 I *D sky130_fd_sc_hd__a221o_1
*I *2986:Q O *D sky130_fd_sc_hd__dlxtn_1
*CAP
1 *2588:B2 0.000134501
2 *2986:Q 0.000134501
3 *2588:B2 *2970:GATE_N 0.000207226
4 *2588:B2 *851:102 9.77103e-05
5 *2588:B2 *906:99 0
6 *2588:A1 *2588:B2 5.9329e-05
*RES
1 *2986:Q *2588:B2 10.6237 
*END

*D_NET *362 0.000893065
*CONN
*I *2597:A1 I *D sky130_fd_sc_hd__a22o_1
*I *2987:Q O *D sky130_fd_sc_hd__dlxtn_1
*CAP
1 *2597:A1 0.000312384
2 *2987:Q 0.000312384
3 *2597:A1 *2599:A2 4.48319e-05
4 *2597:A1 *3193:A 0
5 *2597:A1 *3213:A 0.00011577
6 *2597:A1 *850:31 8.53113e-06
7 *2597:A1 *938:14 0
8 *2597:B2 *2597:A1 3.18219e-05
9 *2599:A1 *2597:A1 6.73424e-05
*RES
1 *2987:Q *2597:A1 12.195 
*END

*D_NET *363 0.000614728
*CONN
*I *2609:B2 I *D sky130_fd_sc_hd__a22o_1
*I *2988:Q O *D sky130_fd_sc_hd__dlxtn_1
*CAP
1 *2609:B2 0.000104642
2 *2988:Q 0.000104642
3 *2609:B2 *2525:A 0.000198046
4 *2609:B2 *3071:GATE_N 7.63204e-05
5 *2609:B2 *3192:A 5.63318e-05
6 *2609:B2 *580:16 7.47457e-05
*RES
1 *2988:Q *2609:B2 10.665 
*END

*D_NET *364 0.000421768
*CONN
*I *2620:A1 I *D sky130_fd_sc_hd__a22o_1
*I *2989:Q O *D sky130_fd_sc_hd__dlxtn_1
*CAP
1 *2620:A1 0.000139709
2 *2989:Q 0.000139709
3 *2620:A1 *905:20 1.47347e-05
4 *2620:A1 *905:33 0.000127615
*RES
1 *2989:Q *2620:A1 5.045 
*END

*D_NET *365 0.00101529
*CONN
*I *2468:A1 I *D sky130_fd_sc_hd__a221o_1
*I *2975:Q O *D sky130_fd_sc_hd__dlxtn_1
*CAP
1 *2468:A1 0.000222701
2 *2975:Q 0.000222701
3 *2468:A1 *2469:B1 1.16578e-05
4 *2468:A1 *2469:C1 0.000233481
5 *2468:A1 *2623:C1 0
6 *2468:A1 *905:94 2.54522e-05
7 *2468:A1 *906:20 0.000296329
8 *2468:A1 *936:24 2.97004e-06
*RES
1 *2975:Q *2468:A1 11.67 
*END

*D_NET *366 0.000902542
*CONN
*I *2477:B2 I *D sky130_fd_sc_hd__a22o_1
*I *2976:Q O *D sky130_fd_sc_hd__dlxtn_1
*CAP
1 *2477:B2 0.0002495
2 *2976:Q 0.0002495
3 *2477:B2 *2478:C1 0
4 *2477:B2 *2864:GATE_N 0
5 *2477:B2 *2888:GATE_N 9.30717e-05
6 *2477:B2 *2974:D 3.90349e-05
7 *2477:B2 *818:43 8.40213e-05
8 *2477:B2 *831:69 0.000184444
9 *2477:B2 *873:73 2.97004e-06
10 *2478:A1 *2477:B2 0
*RES
1 *2976:Q *2477:B2 11.67 
*END

*D_NET *367 0.000947894
*CONN
*I *2490:B2 I *D sky130_fd_sc_hd__a22o_1
*I *2977:Q O *D sky130_fd_sc_hd__dlxtn_1
*CAP
1 *2490:B2 0.000310481
2 *2977:Q 0.000310481
3 *2490:B2 *2490:B1 3.29384e-05
4 *2490:B2 *2977:D 0.000155491
5 *2490:B2 *855:20 9.02099e-05
6 *2491:A1 *2490:B2 4.82919e-05
*RES
1 *2977:Q *2490:B2 8.51 
*END

*D_NET *368 0.000649921
*CONN
*I *2501:B2 I *D sky130_fd_sc_hd__a221o_1
*I *2978:Q O *D sky130_fd_sc_hd__dlxtn_1
*CAP
1 *2501:B2 0.000231117
2 *2978:Q 0.000231117
3 *2501:B2 *2512:A2 2.66464e-05
4 *2501:B2 *815:22 5.30673e-05
5 *2501:B2 *870:43 4.58166e-05
6 *2501:B2 *929:10 4.91927e-05
7 *2500:A1 *2501:B2 8.525e-06
8 *2501:A1 *2501:B2 4.43871e-06
*RES
1 *2978:Q *2501:B2 10.905 
*END

*D_NET *369 0.000327322
*CONN
*I *2512:A1 I *D sky130_fd_sc_hd__a22o_1
*I *2979:Q O *D sky130_fd_sc_hd__dlxtn_1
*CAP
1 *2512:A1 0.000153725
2 *2979:Q 0.000153725
3 *2512:A1 *2512:B1 1.9872e-05
*RES
1 *2979:Q *2512:A1 5.045 
*END

*D_NET *370 0.00116039
*CONN
*I *2522:B2 I *D sky130_fd_sc_hd__a221o_1
*I *2980:Q O *D sky130_fd_sc_hd__dlxtn_1
*CAP
1 *2522:B2 0.000328231
2 *2980:Q 0.000328231
3 *2522:B2 *2522:C1 2.49381e-05
4 *2522:B2 *2852:GATE_N 0.000237684
5 *2522:B2 *2980:GATE_N 0.000195658
6 *2522:B2 *832:47 1.53053e-05
7 *2522:A1 *2522:B2 3.03465e-05
*RES
1 *2980:Q *2522:B2 12.945 
*END

*D_NET *371 0.000286562
*CONN
*I *2532:B2 I *D sky130_fd_sc_hd__a22o_1
*I *2981:Q O *D sky130_fd_sc_hd__dlxtn_1
*CAP
1 *2532:B2 0.000128262
2 *2981:Q 0.000128262
3 *2532:B2 *2532:A2 0
4 *2532:B2 *2874:GATE_N 0
5 *2532:B2 *833:80 0
6 *2532:B2 *862:45 3.00381e-05
*RES
1 *2981:Q *2532:B2 9.03 
*END

*D_NET *372 0.00132363
*CONN
*I *2543:B2 I *D sky130_fd_sc_hd__a221o_1
*I *2982:Q O *D sky130_fd_sc_hd__dlxtn_1
*CAP
1 *2543:B2 0.000467515
2 *2982:Q 0.000467515
3 *2543:B2 *2543:B1 4.92433e-06
4 *2543:B2 *2543:C1 3.92616e-05
5 *2543:B2 *2860:GATE_N 7.24717e-05
6 *2543:B2 *2982:D 9.87637e-05
7 *2543:B2 *814:37 8.65905e-05
8 *2543:B2 *820:10 0
9 *2544:A1 *2543:B2 8.65905e-05
*RES
1 *2982:Q *2543:B2 14.8538 
*END

*D_NET *373 0.00103269
*CONN
*I *2555:B2 I *D sky130_fd_sc_hd__a221o_1
*I *2983:Q O *D sky130_fd_sc_hd__dlxtn_1
*CAP
1 *2555:B2 0.000273719
2 *2983:Q 0.000273719
3 *2555:B2 *2555:B1 7.18727e-05
4 *2555:B2 *2557:A2 1.34967e-05
5 *2555:B2 *2557:C1 0.000313852
6 *2555:B2 *3070:GATE_N 7.00054e-05
7 *2555:A1 *2555:B2 1.60203e-05
*RES
1 *2983:Q *2555:B2 11.94 
*END

*D_NET *374 0.00647018
*CONN
*I *2446:A I *D sky130_fd_sc_hd__and2_1
*I *2444:A I *D sky130_fd_sc_hd__and2_1
*I *2445:A I *D sky130_fd_sc_hd__and2_1
*I *2823:Q O *D sky130_fd_sc_hd__dlxtn_1
*CAP
1 *2446:A 0.000387373
2 *2444:A 0.000505187
3 *2445:A 0.000478215
4 *2823:Q 0.000109417
5 *374:27 0.000976737
6 *374:8 0.00067181
7 *2444:A *2659:S 0.000193801
8 *2444:A *2751:B2 4.41506e-05
9 *2444:A *2752:A1 0
10 *2444:A *2758:B 0.000310121
11 *2444:A *2759:A1 0.000243539
12 *2444:A *2760:B2 2.14129e-05
13 *2444:A *739:22 0.000187346
14 *2444:A *739:44 0.000470207
15 *2445:A *2672:A 0.000280187
16 *2445:A *2757:A2 0.000160635
17 *2445:A *2757:B1 6.52265e-05
18 *2445:A *2757:B2 3.72413e-05
19 *2445:A *2823:D 0.00015806
20 *2445:A *3178:A 4.66826e-05
21 *2446:A *2659:S 0.000181249
22 *374:8 *2661:A0 7.08403e-05
23 *374:8 *3323:A 9.37731e-05
24 *374:8 *3325:A 9.34411e-05
25 *374:8 *970:12 7.23533e-05
26 *374:27 *2661:A0 2.67591e-05
27 *374:27 *3091:D 0.000183036
28 *374:27 *3323:A 0.000157602
29 *374:27 *3325:A 2.13396e-05
30 *2445:B *2445:A 6.46447e-05
31 *2446:B *2446:A 7.10866e-05
32 *2446:B *374:27 7.47145e-05
33 *115:16 *2444:A 1.19928e-05
*RES
1 *2823:Q *374:8 6.765 
2 *374:8 *2445:A 12.03 
3 *374:8 *374:27 5.165 
4 *374:27 *2444:A 17.495 
5 *374:27 *2446:A 6.46 
*END

*D_NET *375 0.00161128
*CONN
*I *2438:B I *D sky130_fd_sc_hd__and2_4
*I *2824:Q O *D sky130_fd_sc_hd__dlxtn_1
*CAP
1 *2438:B 0.000232032
2 *2824:Q 0.000232032
3 *2438:B *2438:A 9.66123e-05
4 *2438:B *2661:A0 0.000286642
5 *2438:B *2825:D 2.39856e-05
6 *2438:B *3178:A 8.40269e-05
7 *2438:B *3324:A 0.000267846
8 *2438:B *3326:A 4.82863e-05
9 *2438:B *3345:A 1.60203e-05
10 *2438:B *887:22 1.19928e-05
11 *2438:B *970:12 0.000284281
12 PSEL2 *2438:B 2.75229e-05
*RES
1 *2824:Q *2438:B 14.535 
*END

*D_NET *376 0.00570413
*CONN
*I *3173:A I *D sky130_fd_sc_hd__buf_1
*I *3172:A I *D sky130_fd_sc_hd__clkbuf_2
*I *2643:X O *D sky130_fd_sc_hd__mux2_1
*CAP
1 *3173:A 0.000880848
2 *3172:A 0.000623364
3 *2643:X 0.000169023
4 *376:10 0.00167323
5 *3172:A *2646:A0 0.00015896
6 *3172:A *2896:D 0.000500381
7 *3172:A *2903:GATE_N 4.41363e-05
8 *3172:A *3168:A 4.99619e-05
9 *3172:A *829:113 4.79239e-05
10 *3172:A *873:28 0.000123225
11 *3172:A *874:20 4.66108e-05
12 *3173:A *2460:A2 3.67871e-05
13 *3173:A *2639:B 1.37328e-05
14 *3173:A *3047:GATE_N 2.18002e-05
15 *3173:A *3159:A 0.000158316
16 *3173:A *809:44 1.10767e-05
17 *3173:A *838:70 1.08758e-05
18 *3173:A *874:10 0.000135237
19 *3173:A *874:20 2.07184e-05
20 *3173:A *878:10 0.000637969
21 *376:10 *2646:A1 6.15223e-05
22 *376:10 *2650:A0 4.99619e-05
23 *376:10 *2830:D 0
24 *376:10 *3159:A 9.30717e-05
25 *376:10 *874:20 2.92496e-05
26 *376:10 *884:44 4.51323e-05
27 *2454:A1 *3172:A 1.4399e-05
28 *2475:A1 *3172:A 4.66108e-05
*RES
1 *2643:X *376:10 7.215 
2 *376:10 *3172:A 15.09 
3 *376:10 *3173:A 16.68 
*END

*D_NET *377 0.00457598
*CONN
*I *3153:A I *D sky130_fd_sc_hd__buf_1
*I *3152:A I *D sky130_fd_sc_hd__clkbuf_2
*I *2653:X O *D sky130_fd_sc_hd__mux2_1
*CAP
1 *3153:A 0.000262685
2 *3152:A 2.77279e-05
3 *2653:X 0.000390733
4 *377:12 0.000681145
5 *3152:A *3064:D 3.03684e-05
6 *3152:A *811:52 6.25157e-05
7 *3153:A *2486:A2 4.99619e-05
8 *3153:A *2486:B1 0.000199833
9 *3153:A *2487:C1 2.7441e-05
10 *3153:A *2563:B1 0
11 *3153:A *3064:D 0.000214802
12 *3153:A *811:52 0.000282369
13 *3153:A *855:8 4.00541e-06
14 *377:12 *2459:A 0.00013909
15 *377:12 *2475:B1 0.0001453
16 *377:12 *2903:GATE_N 1.22762e-05
17 *377:12 *3056:GATE_N 0.000115046
18 *377:12 *381:18 0
19 *377:12 *807:24 0.000322604
20 *377:12 *807:26 0.000261136
21 *377:12 *884:65 4.99619e-05
22 *377:12 *898:50 0.000885317
23 *2454:A1 *377:12 3.14807e-05
24 *2486:A1 *3153:A 0.000244979
25 *2552:B2 *377:12 0.000135201
*RES
1 *2653:X *377:12 18.905 
2 *377:12 *3152:A 2.395 
3 *377:12 *3153:A 10.255 
*END

*D_NET *378 0.00248607
*CONN
*I *3151:A I *D sky130_fd_sc_hd__dlymetal6s2s_1
*I *2654:X O *D sky130_fd_sc_hd__mux2_1
*CAP
1 *3151:A 0.000717514
2 *2654:X 0.000717514
3 *3151:A *2475:B1 3.87296e-05
4 *3151:A *2553:C1 1.26626e-05
5 *3151:A *2654:A0 3.63701e-06
6 *3151:A *2654:A1 4.90071e-05
7 *3151:A *2903:D 0
8 *3151:A *2919:GATE_N 4.40725e-05
9 *3151:A *3047:D 0.000318619
10 *3151:A *3047:GATE_N 7.2513e-05
11 *3151:A *3054:GATE_N 4.61256e-05
12 *3151:A *3169:A 0
13 *3151:A *385:8 0
14 *3151:A *825:43 0
15 *3151:A *825:51 0
16 *3151:A *827:62 7.10578e-05
17 *3151:A *827:64 0.000242354
18 *3151:A *884:65 4.66108e-05
19 *3151:A *916:32 0
20 *3151:A *916:50 0
21 *2574:B2 *3151:A 0.000105654
*RES
1 *2654:X *3151:A 21.36 
*END

*D_NET *379 0.00153514
*CONN
*I *3149:A I *D sky130_fd_sc_hd__buf_1
*I *3148:A I *D sky130_fd_sc_hd__clkbuf_2
*I *2655:X O *D sky130_fd_sc_hd__mux2_1
*CAP
1 *3149:A 0.000232753
2 *3148:A 0
3 *2655:X 0.000298075
4 *379:10 0.000530828
5 *3149:A *2922:D 1.83847e-05
6 *3149:A *811:26 4.82919e-05
7 *3149:A *811:143 0
8 *3149:A *852:40 7.72123e-05
9 *3149:A *911:72 0.000134517
10 *379:10 *551:40 9.45943e-05
11 *379:10 *811:143 0
12 *379:10 *911:72 0.000100487
*RES
1 *2655:X *379:10 8.25 
2 *379:10 *3148:A 3.6 
3 *379:10 *3149:A 8.49 
*END

*D_NET *380 0.00501798
*CONN
*I *3147:A I *D sky130_fd_sc_hd__dlymetal6s2s_1
*I *2656:X O *D sky130_fd_sc_hd__mux2_1
*CAP
1 *3147:A 0.00103436
2 *2656:X 0.00103436
3 *3147:A *2392:A 0
4 *3147:A *2602:B 9.27495e-05
5 *3147:A *3086:RESET_B 0
6 *3147:A *3088:D 0
7 *3147:A *3093:D 0.000121022
8 *3147:A *3095:D 0.000159059
9 *3147:A *3165:A 0.00203076
10 *3147:A *3226:A 9.50036e-05
11 *3147:A *489:10 0
12 *3147:A *783:12 0
13 *3147:A *783:26 0
14 *3147:A *785:14 0
15 *3147:A *834:72 9.2741e-05
16 *3147:A *849:10 7.3664e-05
17 *3147:A *955:10 0
18 *3147:A *955:59 0.000284274
*RES
1 *2656:X *3147:A 34.545 
*END

*D_NET *381 0.0139095
*CONN
*I *3145:A I *D sky130_fd_sc_hd__buf_1
*I *3144:A I *D sky130_fd_sc_hd__clkbuf_2
*I *2657:X O *D sky130_fd_sc_hd__mux2_1
*CAP
1 *3145:A 0.000434942
2 *3144:A 0.00131222
3 *2657:X 0.00156674
4 *381:18 0.0033139
5 *3144:A *2545:C 0.00041719
6 *3144:A *2592:B2 0
7 *3144:A *2938:GATE_N 0.000515582
8 *3144:A *847:25 1.54712e-05
9 *3144:A *851:20 0.00067175
10 *3144:A *851:53 0.000600129
11 *3144:A *934:22 4.36369e-05
12 *3145:A *2519:A2 0.00091577
13 *3145:A *2519:B1 0.000161623
14 *3145:A *2586:B1 8.80711e-05
15 *3145:A *2614:B2 0.000442608
16 *3145:A *2900:GATE_N 0
17 *3145:A *3186:A 1.88466e-05
18 *3145:A *3190:A 0.00019655
19 *3145:A *3202:A 0.000101344
20 *3145:A *918:109 0.000159697
21 *3145:A *918:124 0.000105856
22 *381:18 *2459:A 3.84133e-05
23 *381:18 *2575:C1 0.000309729
24 *381:18 *2653:A0 0
25 *381:18 *2903:D 2.14532e-05
26 *381:18 *2903:GATE_N 0.000113416
27 *381:18 *2929:D 0.000137886
28 *381:18 *3024:GATE_N 0.000164874
29 *381:18 *3056:GATE_N 3.83368e-05
30 *381:18 *3057:D 7.82855e-05
31 *381:18 *3078:GATE_N 7.38214e-05
32 *381:18 *3202:A 0.000208033
33 *381:18 *805:18 4.19967e-05
34 *381:18 *807:22 0
35 *381:18 *807:24 7.59233e-05
36 *381:18 *807:26 1.73877e-05
37 *381:18 *871:10 0.000172151
38 *381:18 *873:10 0.000579741
39 *381:18 *873:28 0
40 *381:18 *914:10 0.000113595
41 *381:18 *914:16 0
42 *381:18 *914:18 0
43 *381:18 *918:10 0.000398706
44 *381:18 *918:109 0.000134861
45 *2486:A1 *381:18 6.26978e-05
46 *2552:B2 *381:18 4.62553e-05
47 *377:12 *381:18 0
*RES
1 *2657:X *381:18 37.2075 
2 *381:18 *3144:A 8.2719 
3 *381:18 *3145:A 18.0825 
*END

*D_NET *382 0.00560015
*CONN
*I *3143:A I *D sky130_fd_sc_hd__buf_1
*I *3142:A I *D sky130_fd_sc_hd__clkbuf_2
*I *2658:X O *D sky130_fd_sc_hd__mux2_1
*CAP
1 *3143:A 0.000199772
2 *3142:A 0.000319401
3 *2658:X 0.000889136
4 *382:10 0.00140831
5 *3142:A *2625:A2 4.66108e-05
6 *3143:A *2515:A2 0.000140681
7 *3143:A *2518:A2 0.000269059
8 *3143:A *917:90 4.77719e-05
9 *3143:A *962:60 4.21973e-05
10 *382:10 *2515:A2 0.000108432
11 *382:10 *2518:A2 0.000116853
12 *382:10 *2518:C1 0
13 *382:10 *2526:B1 9.30787e-05
14 *382:10 *2526:B2 0.00011379
15 *382:10 *2548:B2 0
16 *382:10 *2642:B 0.000134245
17 *382:10 *2655:S 9.14035e-05
18 *382:10 *2799:D 4.46808e-07
19 *382:10 *884:20 0.000208891
20 *382:10 *889:26 0.000142653
21 *382:10 *932:14 0.000164588
22 *382:10 *932:22 0.000746982
23 *2517:A1 *382:10 0
24 *2617:A1 *3143:A 0.000178947
25 *2625:A1 *3143:A 0.000136905
*RES
1 *2658:X *382:10 24.315 
2 *382:10 *3142:A 7.17 
3 *382:10 *3143:A 9.435 
*END

*D_NET *383 0.00723705
*CONN
*I *3170:A I *D sky130_fd_sc_hd__clkbuf_2
*I *3171:A I *D sky130_fd_sc_hd__buf_1
*I *2644:X O *D sky130_fd_sc_hd__mux2_1
*CAP
1 *3170:A 2.75319e-05
2 *3171:A 0.000225101
3 *2644:X 0.00162332
4 *383:10 0.00187595
5 *3170:A *2948:GATE_N 2.75145e-05
6 *3171:A *2395:B 6.63219e-06
7 *3171:A *2948:GATE_N 0
8 *3171:A *3035:GATE_N 1.7994e-05
9 *3171:A *3055:GATE_N 0.000159582
10 *3171:A *3216:A 0
11 *3171:A *808:80 7.3253e-05
12 *3171:A *840:44 6.63219e-06
13 *3171:A *875:10 0.000306528
14 *3171:A *876:10 5.83121e-06
15 *383:10 *3035:GATE_N 0.000192717
16 *383:10 *3087:CLK 0.000145922
17 *383:10 *3089:D 6.55328e-05
18 *383:10 *3094:D 6.28765e-05
19 *383:10 *3096:RESET_B 0
20 *383:10 *3098:A 3.83895e-05
21 *383:10 *3216:A 0
22 *383:10 *3220:A 0.00035991
23 *383:10 *3222:A 0.000291358
24 *383:10 *3223:A 0.000413946
25 *383:10 *3226:A 0
26 *383:10 *3304:A 0
27 *383:10 *435:12 0
28 *383:10 *771:12 0
29 *383:10 *771:14 0
30 *383:10 *771:22 0
31 *383:10 *771:67 0
32 *383:10 *771:78 0
33 *383:10 *771:89 0
34 *383:10 *840:44 4.41804e-05
35 *383:10 *885:115 0.000633183
36 *383:10 *942:59 0.000279486
37 *383:10 *944:12 1.59207e-05
38 *383:10 *944:16 4.9646e-05
39 *383:10 *945:25 0.000288111
40 *383:10 *949:57 0
41 *383:10 *955:30 0
*RES
1 *2644:X *383:10 41.235 
2 *383:10 *3171:A 8.835 
3 *383:10 *3170:A 4.05 
*END

*D_NET *384 0.00340243
*CONN
*I *3169:A I *D sky130_fd_sc_hd__buf_1
*I *3168:A I *D sky130_fd_sc_hd__clkbuf_2
*I *2645:X O *D sky130_fd_sc_hd__mux2_1
*CAP
1 *3169:A 0.000313447
2 *3168:A 3.94109e-05
3 *2645:X 0.000540123
4 *384:14 0.000892981
5 *3168:A *2654:A1 0
6 *3168:A *2903:GATE_N 1.83756e-05
7 *3168:A *873:10 2.28346e-05
8 *3169:A *2654:A1 0.000193806
9 *3169:A *2903:D 8.7152e-06
10 *3169:A *3047:GATE_N 0.000194949
11 *3169:A *873:10 7.79709e-05
12 *3169:A *884:57 6.83659e-05
13 *3169:A *884:65 0.000155271
14 *384:14 *2460:B2 0.000595958
15 *384:14 *2657:A1 0.000110089
16 *384:14 *811:60 2.10433e-05
17 *2552:A1 *3169:A 9.91257e-05
18 *3151:A *3169:A 0
19 *3172:A *3168:A 4.99619e-05
*RES
1 *2645:X *384:14 6.38543 
2 *384:14 *3168:A 4.5375 
3 *384:14 *3169:A 11.5875 
*END

*D_NET *385 0.00451027
*CONN
*I *3167:A I *D sky130_fd_sc_hd__buf_1
*I *3166:A I *D sky130_fd_sc_hd__clkbuf_2
*I *2646:X O *D sky130_fd_sc_hd__mux2_1
*CAP
1 *3167:A 0.000166168
2 *3166:A 2.25345e-05
3 *2646:X 0.000771179
4 *385:8 0.000959881
5 *3166:A *805:18 4.80285e-05
6 *3166:A *871:10 4.82919e-05
7 *3166:A *871:118 4.82863e-05
8 *3167:A *2484:A2 3.57349e-05
9 *3167:A *3030:GATE_N 0
10 *3167:A *916:19 0
11 *3167:A *916:95 0.000120655
12 *3167:A *918:21 8.49205e-05
13 *3167:A *918:25 0.000115796
14 *385:8 *2475:A2 0.000258863
15 *385:8 *2553:C1 0
16 *385:8 *2564:C1 0.000330747
17 *385:8 *2654:A0 5.55528e-05
18 *385:8 *3047:D 0
19 *385:8 *856:12 0.000112143
20 *385:8 *859:24 7.06865e-05
21 *385:8 *916:19 0
22 *385:8 *916:32 0.00027188
23 *385:8 *916:50 1.07797e-05
24 *385:8 *918:25 7.71211e-05
25 *385:8 *918:29 0.000901024
26 *3151:A *385:8 0
*RES
1 *2646:X *385:8 23.085 
2 *385:8 *3166:A 4.395 
3 *385:8 *3167:A 7.395 
*END

*D_NET *386 0.00806753
*CONN
*I *3165:A I *D sky130_fd_sc_hd__clkbuf_2
*I *2647:X O *D sky130_fd_sc_hd__mux2_1
*CAP
1 *3165:A 0.00108677
2 *2647:X 0.00108677
3 *3165:A *2647:A0 0.000115146
4 *3165:A *2656:A0 0.000124895
5 *3165:A *2767:B 0.000136838
6 *3165:A *3095:RESET_B 0.000132625
7 *3165:A *3226:A 0.000175946
8 *3165:A *489:10 0.000353049
9 *3165:A *753:12 3.96737e-05
10 *3165:A *870:24 0.000799712
11 *3165:A *885:115 0
12 *3165:A *885:126 0
13 *3165:A *889:56 3.66286e-05
14 *3165:A *889:62 0.000164874
15 *3165:A *949:57 0.000192719
16 *3165:A *955:24 0.000166346
17 *3165:A *955:26 0.000252289
18 *3165:A *955:28 0.000471287
19 *3165:A *955:30 0.000204083
20 *3165:A *955:59 0.000497118
21 *3147:A *3165:A 0.00203076
*RES
1 *2647:X *3165:A 45.405 
*END

*D_NET *387 0.00327339
*CONN
*I *3163:A I *D sky130_fd_sc_hd__buf_1
*I *3162:A I *D sky130_fd_sc_hd__clkbuf_2
*I *2648:X O *D sky130_fd_sc_hd__mux2_1
*CAP
1 *3163:A 0.000299151
2 *3162:A 0.00053967
3 *2648:X 0
4 *387:4 0.000838821
5 *3162:A *2515:B2 1.95944e-05
6 *3162:A *2648:A0 8.41703e-06
7 *3162:A *2648:A1 2.05571e-05
8 *3162:A *2648:S 0.000237024
9 *3162:A *867:16 0.000188069
10 *3162:A *867:18 7.14699e-05
11 *3162:A *867:28 0.000191226
12 *3162:A *895:71 4.82863e-05
13 *3163:A *2516:A 0.000110053
14 *3163:A *2631:A 0.000196376
15 *3163:A *2648:S 0.00014781
16 *3163:A *3136:A 8.7152e-06
17 *3163:A *867:6 7.10578e-05
18 *3163:A *962:60 0.000153818
19 *2508:B2 *3162:A 0.00012327
*RES
1 *2648:X *387:4 1.6 
2 *387:4 *3162:A 14.525 
3 *387:4 *3163:A 12.335 
*END

*D_NET *388 0.00166711
*CONN
*I *3161:A I *D sky130_fd_sc_hd__clkbuf_2
*I *2649:X O *D sky130_fd_sc_hd__mux2_1
*CAP
1 *3161:A 0.000335075
2 *2649:X 0.000335075
3 *3161:A *2635:B 0.000123751
4 *3161:A *885:32 0
5 *3161:A *932:14 0.000509445
6 *3161:A *932:22 0.000126725
7 *2526:A1 *3161:A 0.00011852
8 *2548:A1 *3161:A 0.00011852
*RES
1 *2649:X *3161:A 16.995 
*END

*D_NET *389 0.00623111
*CONN
*I *3159:A I *D sky130_fd_sc_hd__clkbuf_2
*I *2650:X O *D sky130_fd_sc_hd__mux2_1
*CAP
1 *3159:A 0.00110281
2 *2650:X 0.00110281
3 *3159:A *2476:A2 3.16707e-06
4 *3159:A *2476:B1 9.34171e-06
5 *3159:A *2476:C1 0
6 *3159:A *2486:B1 0
7 *3159:A *2553:B1 6.57205e-05
8 *3159:A *2830:D 0
9 *3159:A *3030:GATE_N 4.82919e-05
10 *3159:A *829:100 0
11 *3159:A *852:16 0.000223055
12 *3159:A *863:38 0.000766698
13 *3159:A *878:16 0
14 *3159:A *881:57 0.00198653
15 *3159:A *884:57 6.59587e-06
16 *3159:A *894:50 0.000278814
17 *3159:A *914:95 3.03775e-05
18 *2476:A1 *3159:A 0.000135889
19 *2484:B2 *3159:A 0.000163788
20 *2563:A1 *3159:A 4.05358e-05
21 *2563:B2 *3159:A 1.53032e-05
22 *3173:A *3159:A 0.000158316
23 *376:10 *3159:A 9.30717e-05
*RES
1 *2650:X *3159:A 39.81 
*END

*D_NET *390 0.00709415
*CONN
*I *3157:A I *D sky130_fd_sc_hd__clkbuf_2
*I *2651:X O *D sky130_fd_sc_hd__mux2_1
*CAP
1 *3157:A 0.00127772
2 *2651:X 0.00127772
3 *3157:A *2560:B 6.02123e-05
4 *3157:A *2636:B 9.37893e-05
5 *3157:A *2800:D 7.63204e-05
6 *3157:A *2918:GATE_N 0.000195972
7 *3157:A *2944:GATE_N 7.23324e-05
8 *3157:A *2954:GATE_N 0.000333496
9 *3157:A *3031:GATE_N 0
10 *3157:A *3063:GATE_N 0.000514138
11 *3157:A *3079:GATE_N 0.000151165
12 *3157:A *3174:A 0
13 *3157:A *3316:A 0
14 *3157:A *805:148 0.000130106
15 *3157:A *807:119 0.000627928
16 *3157:A *807:121 0.000862705
17 *3157:A *827:48 0.000433067
18 *3157:A *827:52 0.000471989
19 *3157:A *874:20 0
20 *3157:A *874:44 0
21 *3157:A *880:12 9.30787e-05
22 *3157:A *884:24 8.8266e-05
23 *3157:A *914:157 3.29689e-05
24 *2559:A1 *3157:A 0.000113416
25 *2561:B2 *3157:A 0.00011321
26 *2606:A1 *3157:A 2.75229e-05
27 *3294:A *3157:A 4.70343e-05
*RES
1 *2651:X *3157:A 44.31 
*END

*D_NET *391 0.00303037
*CONN
*I *3154:A I *D sky130_fd_sc_hd__clkbuf_2
*I *3155:A I *D sky130_fd_sc_hd__buf_1
*I *2652:X O *D sky130_fd_sc_hd__mux2_1
*CAP
1 *3154:A 0.000540487
2 *3155:A 0
3 *2652:X 0.000234319
4 *391:12 0.000774806
5 *3154:A *2452:B1 9.37731e-05
6 *3154:A *2460:A2 1.43795e-05
7 *3154:A *2550:A2 4.82919e-05
8 *3154:A *2550:B1 4.82863e-05
9 *3154:A *2551:C1 0.000219272
10 *3154:A *2639:B 7.67225e-05
11 *3154:A *3063:GATE_N 0.000133757
12 *3154:A *838:62 4.99619e-05
13 *3154:A *838:70 6.83601e-05
14 *3154:A *858:6 4.31453e-05
15 *3154:A *858:15 3.1562e-06
16 *3154:A *859:14 4.82863e-05
17 *3154:A *859:67 6.67052e-05
18 *3154:A *896:50 7.23602e-05
19 *391:12 *2639:A 1.54862e-05
20 *391:12 *2655:A0 7.3664e-05
21 *391:12 *2803:D 7.23602e-05
22 *391:12 *2830:GATE_N 0
23 *391:12 *3353:A 8.65905e-05
24 *391:12 *881:79 0.000111695
25 *2551:A1 *3154:A 0.000134509
*RES
1 *2652:X *391:12 9.41 
2 *391:12 *3155:A 1.6 
3 *391:12 *3154:A 16.625 
*END

*D_NET *392 0.00108965
*CONN
*I *2823:D I *D sky130_fd_sc_hd__dlxtn_1
*I *2448:X O *D sky130_fd_sc_hd__or2_1
*CAP
1 *2823:D 0.000215746
2 *2448:X 0.000215746
3 *2823:D *3178:A 8.6099e-05
4 *2823:D *882:52 0.000130106
5 *2823:D *885:8 9.21507e-05
6 *2823:D *885:14 0.000191742
7 *2445:A *2823:D 0.00015806
*RES
1 *2448:X *2823:D 12.105 
*END

*D_NET *393 0.000737011
*CONN
*I *2807:D I *D sky130_fd_sc_hd__dlxtn_1
*I *2461:Y O *D sky130_fd_sc_hd__nor2_1
*CAP
1 *2807:D 0.000192436
2 *2461:Y 0.000192436
3 *2807:D *2461:B 7.20038e-05
4 PWDATA[2] *2807:D 0.000139231
5 rdata[10] *2807:D 0.000140905
*RES
1 *2461:Y *2807:D 10.665 
*END

*D_NET *394 0.000435522
*CONN
*I *2817:D I *D sky130_fd_sc_hd__dlxtn_1
*I *2571:Y O *D sky130_fd_sc_hd__nor2_1
*CAP
1 *2817:D 0.00017575
2 *2571:Y 0.00017575
3 *2817:D *2817:GATE_N 8.40213e-05
*RES
1 *2571:Y *2817:D 5.735 
*END

*D_NET *395 0.000472617
*CONN
*I *2818:D I *D sky130_fd_sc_hd__dlxtn_1
*I *2582:Y O *D sky130_fd_sc_hd__nor2_1
*CAP
1 *2818:D 8.02707e-05
2 *2582:Y 8.02707e-05
3 *2818:D *2582:A 2.75229e-05
4 *2818:D *2816:D 0.000196376
5 *2818:D *842:32 8.23457e-05
6 *2818:D *886:54 5.83121e-06
*RES
1 *2582:Y *2818:D 5.39 
*END

*D_NET *396 0.000517461
*CONN
*I *2819:D I *D sky130_fd_sc_hd__dlxtn_1
*I *2593:Y O *D sky130_fd_sc_hd__nor2_1
*CAP
1 *2819:D 0.000169535
2 *2593:Y 0.000169535
3 *2819:D *2593:A 4.82863e-05
4 *2819:D *2655:A1 4.60836e-05
5 *2819:D *2819:GATE_N 8.40213e-05
*RES
1 *2593:Y *2819:D 6.08 
*END

*D_NET *397 0.00147751
*CONN
*I *2820:D I *D sky130_fd_sc_hd__dlxtn_1
*I *2604:Y O *D sky130_fd_sc_hd__nor2_1
*CAP
1 *2820:D 0.000375801
2 *2604:Y 0.000375801
3 *2820:D *2505:A 1.53483e-05
4 *2820:D *2505:B 1.83756e-05
5 *2820:D *2604:A 1.83847e-05
6 *2820:D *2604:B 4.9253e-06
7 *2820:D *2811:D 2.49909e-05
8 *2820:D *3140:A 0.000271334
9 *2820:D *842:12 6.54766e-05
10 *2820:D *843:10 0.000129728
11 *2820:D *843:12 0.000164686
12 *2820:D *887:28 1.26548e-05
*RES
1 *2604:Y *2820:D 14.625 
*END

*D_NET *398 0.000608245
*CONN
*I *2821:D I *D sky130_fd_sc_hd__dlxtn_1
*I *2615:Y O *D sky130_fd_sc_hd__nor2_1
*CAP
1 *2821:D 0.000131888
2 *2615:Y 0.000131888
3 *2821:D *2805:GATE_N 0.000117825
4 *2821:D *2815:D 5.6361e-05
5 *2821:D *2821:GATE_N 4.82919e-05
6 *2821:D *843:20 0.000116158
7 *2821:D *886:14 5.83121e-06
*RES
1 *2615:Y *2821:D 10.41 
*END

*D_NET *399 0.00104808
*CONN
*I *2822:D I *D sky130_fd_sc_hd__dlxtn_1
*I *2626:Y O *D sky130_fd_sc_hd__nor2_1
*CAP
1 *2822:D 0.000302052
2 *2626:Y 0.000302052
3 *2822:D *2538:B 0.000119762
4 *2822:D *2814:D 5.72833e-05
5 *2822:D *2814:GATE_N 3.95073e-05
6 *2822:D *3355:A 7.89611e-05
7 *2822:D *842:20 0.000139933
8 *2822:D *842:22 8.53113e-06
*RES
1 *2626:Y *2822:D 12.855 
*END

*D_NET *400 0.000505187
*CONN
*I *2808:D I *D sky130_fd_sc_hd__dlxtn_1
*I *2472:Y O *D sky130_fd_sc_hd__nor2_1
*CAP
1 *2808:D 0.000232864
2 *2472:Y 0.000232864
3 *2808:D *2808:GATE_N 3.94592e-05
*RES
1 *2472:Y *2808:D 6.425 
*END

*D_NET *401 0.00110123
*CONN
*I *2809:D I *D sky130_fd_sc_hd__dlxtn_1
*I *2483:Y O *D sky130_fd_sc_hd__nor2_1
*CAP
1 *2809:D 0.000356666
2 *2483:Y 0.000356666
3 *2809:D *2461:A 4.82919e-05
4 *2809:D *2461:B 4.43871e-06
5 *2809:D *2483:A 4.66108e-05
6 *2809:D *3350:A 6.58339e-05
7 *2809:D *842:36 1.15688e-05
8 *2809:D *1041:16 0.00011379
9 PWDATA[0] *2809:D 2.11084e-05
10 rdata[0] *2809:D 2.96426e-05
11 rdata[14] *2809:D 4.66108e-05
*RES
1 *2483:Y *2809:D 12.84 
*END

*D_NET *402 0.000924991
*CONN
*I *2810:D I *D sky130_fd_sc_hd__dlxtn_1
*I *2494:Y O *D sky130_fd_sc_hd__nor2_1
*CAP
1 *2810:D 0.000202155
2 *2494:Y 0.000202155
3 *2810:D *2494:A 1.56428e-05
4 *2810:D *2805:D 8.73389e-06
5 *2810:D *842:18 0.000316806
6 *2810:D *886:40 3.64998e-06
7 *2810:D *1041:16 0.000175848
*RES
1 *2494:Y *2810:D 12.015 
*END

*D_NET *403 0.000699958
*CONN
*I *2811:D I *D sky130_fd_sc_hd__dlxtn_1
*I *2505:Y O *D sky130_fd_sc_hd__nor2_1
*CAP
1 *2811:D 0.000231211
2 *2505:Y 0.000231211
3 *2811:D *2505:A 2.75229e-05
4 *2811:D *2662:A1 0
5 *2811:D *2812:D 3.25997e-05
6 *2811:D *3140:A 0
7 *2811:D *3141:A 0.0001249
8 *2811:D *843:10 2.75229e-05
9 *2820:D *2811:D 2.49909e-05
*RES
1 *2505:Y *2811:D 11.52 
*END

*D_NET *404 0.00172021
*CONN
*I *2812:D I *D sky130_fd_sc_hd__dlxtn_1
*I *2516:Y O *D sky130_fd_sc_hd__nor2_1
*CAP
1 *2812:D 0.000678317
2 *2516:Y 0.000678317
3 *2812:D *2648:S 4.82863e-05
4 *2812:D *2662:A1 0.000183462
5 *2812:D *2811:GATE_N 1.83847e-05
6 *2812:D *842:12 8.08439e-05
7 *2812:D *843:12 0
8 *2812:D *843:14 0
9 *2811:D *2812:D 3.25997e-05
*RES
1 *2516:Y *2812:D 17.43 
*END

*D_NET *405 0.000957182
*CONN
*I *2813:D I *D sky130_fd_sc_hd__dlxtn_1
*I *2527:Y O *D sky130_fd_sc_hd__nor2_1
*CAP
1 *2813:D 0.000266795
2 *2527:Y 0.000266795
3 *2813:D *2538:A 0.000114492
4 *2813:D *2633:A 4.82863e-05
5 *2813:D *2633:B 0.00011379
6 *2813:D *2649:A1 0.000134641
7 *2813:D *661:26 8.73389e-06
8 *2813:D *886:14 3.64998e-06
*RES
1 *2527:Y *2813:D 12.36 
*END

*D_NET *406 0.000440476
*CONN
*I *2814:D I *D sky130_fd_sc_hd__dlxtn_1
*I *2538:Y O *D sky130_fd_sc_hd__nor2_1
*CAP
1 *2814:D 0.000149586
2 *2538:Y 0.000149586
3 *2814:D *2814:GATE_N 8.40213e-05
4 *2822:D *2814:D 5.72833e-05
*RES
1 *2538:Y *2814:D 5.735 
*END

*D_NET *407 0.00105144
*CONN
*I *2815:D I *D sky130_fd_sc_hd__dlxtn_1
*I *2549:Y O *D sky130_fd_sc_hd__nor2_1
*CAP
1 *2815:D 0.000356193
2 *2549:Y 0.000356193
3 *2815:D *2549:A 1.83756e-05
4 *2815:D *2549:B 1.08758e-05
5 *2815:D *2821:GATE_N 2.75229e-05
6 *2815:D *842:18 0.000141599
7 *2815:D *886:14 5.35181e-06
8 *2815:D *1041:16 7.89689e-05
9 *2821:D *2815:D 5.6361e-05
*RES
1 *2549:Y *2815:D 12.39 
*END

*D_NET *408 0.000961732
*CONN
*I *2816:D I *D sky130_fd_sc_hd__dlxtn_1
*I *2560:Y O *D sky130_fd_sc_hd__nor2_1
*CAP
1 *2816:D 0.000262562
2 *2560:Y 0.000262562
3 *2816:D *3355:A 6.55328e-05
4 *2816:D *842:26 8.53113e-06
5 *2816:D *842:32 0.000116853
6 *2816:D *886:54 2.17931e-05
7 *2816:D *886:62 2.75229e-05
8 *2818:D *2816:D 0.000196376
*RES
1 *2560:Y *2816:D 11.445 
*END

*D_NET *409 0.00157812
*CONN
*I *2756:B I *D sky130_fd_sc_hd__and2_1
*I *2659:X O *D sky130_fd_sc_hd__mux2_1
*CAP
1 *2756:B 0.000456451
2 *2659:X 0.000456451
3 *2756:B *2659:S 0.000288243
4 *2756:B *2755:A1_N 0.000170618
5 *2756:B *3323:A 0
6 *2756:B *739:10 3.64998e-06
7 *2756:B *982:52 0.000154418
8 *2755:B2 *2756:B 4.82863e-05
*RES
1 *2659:X *2756:B 11.885 
*END

*D_NET *410 0.00098448
*CONN
*I *2827:D I *D sky130_fd_sc_hd__dlxtn_1
*I *2660:X O *D sky130_fd_sc_hd__mux2_1
*CAP
1 *2827:D 0.000220468
2 *2660:X 0.000220468
3 *2827:D *2795:D 5.72004e-05
4 *2827:D *2825:GATE_N 2.68721e-05
5 *2827:D *2826:D 0.000141599
6 *2827:D *3328:A 0.000128445
7 *2827:D *431:10 0
8 *2827:D *970:26 0.000189426
*RES
1 *2660:X *2827:D 13.365 
*END

*D_NET *411 0.000684714
*CONN
*I *2828:D I *D sky130_fd_sc_hd__dlxtn_1
*I *2661:X O *D sky130_fd_sc_hd__mux2_1
*CAP
1 *2828:D 9.52302e-05
2 *2661:X 9.52302e-05
3 *2828:D *2674:B 0.000160635
4 *2828:D *2828:GATE_N 4.66108e-05
5 *2828:D *433:10 2.92496e-05
6 *2828:D *433:16 0.00011852
7 *2828:D *887:22 0.000139238
*RES
1 *2661:X *2828:D 10.32 
*END

*D_NET *412 0.00167194
*CONN
*I *2825:D I *D sky130_fd_sc_hd__dlxtn_1
*I *2662:X O *D sky130_fd_sc_hd__mux2_1
*CAP
1 *2825:D 0.000445891
2 *2662:X 0.000445891
3 *2825:D *431:10 0.000669574
4 *2825:D *887:22 0
5 PSEL2 *2825:D 8.65961e-05
6 *2438:B *2825:D 2.39856e-05
*RES
1 *2662:X *2825:D 16.44 
*END

*D_NET *413 0.000684233
*CONN
*I *2826:D I *D sky130_fd_sc_hd__dlxtn_1
*I *2663:X O *D sky130_fd_sc_hd__mux2_1
*CAP
1 *2826:D 0.000170518
2 *2663:X 0.000170518
3 *2826:D *2825:GATE_N 8.58036e-05
4 *2826:D *2827:GATE_N 4.82919e-05
5 *2826:D *431:10 2.46007e-05
6 *2826:D *433:16 4.29016e-05
7 *2827:D *2826:D 0.000141599
*RES
1 *2663:X *2826:D 11.01 
*END

*D_NET *414 0.000420273
*CONN
*I *2791:D I *D sky130_fd_sc_hd__dlxtn_1
*I *2627:Y O *D sky130_fd_sc_hd__nor2_1
*CAP
1 *2791:D 9.26418e-05
2 *2627:Y 9.26418e-05
3 *2791:D *2461:B 0.000195482
4 *2791:D *2627:B 2.75145e-05
5 *2791:D *2791:GATE_N 1.19928e-05
*RES
1 *2627:Y *2791:D 5.39 
*END

*D_NET *415 0.00054221
*CONN
*I *2801:D I *D sky130_fd_sc_hd__dlxtn_1
*I *2637:Y O *D sky130_fd_sc_hd__nor2_1
*CAP
1 *2801:D 0.000166879
2 *2637:Y 0.000166879
3 *2801:D *2797:D 0.000120186
4 *2801:D *2801:GATE_N 8.8266e-05
5 *2801:D *886:50 0
*RES
1 *2637:Y *2801:D 10.41 
*END

*D_NET *416 0.0011188
*CONN
*I *2802:D I *D sky130_fd_sc_hd__dlxtn_1
*I *2638:Y O *D sky130_fd_sc_hd__nor2_1
*CAP
1 *2802:D 0.000285635
2 *2638:Y 0.000285635
3 *2802:D *2461:B 4.40773e-05
4 *2802:D *2638:A 5.98942e-05
5 *2802:D *2807:GATE_N 8.65905e-05
6 *2802:D *3352:A 1.46828e-05
7 PWDATA[0] *2802:D 0.000109962
8 PWDATA[5] *2802:D 7.21296e-06
9 rdata[3] *2802:D 0.000225113
*RES
1 *2638:Y *2802:D 13.635 
*END

*D_NET *417 0.000598245
*CONN
*I *2803:D I *D sky130_fd_sc_hd__dlxtn_1
*I *2639:Y O *D sky130_fd_sc_hd__nor2_1
*CAP
1 *2803:D 0.000118383
2 *2639:Y 0.000118383
3 *2803:D *2655:A0 2.46007e-05
4 *2803:D *2830:GATE_N 5.13029e-05
5 *2803:D *874:20 0.000118294
6 *2803:D *881:79 9.49203e-05
7 *391:12 *2803:D 7.23602e-05
*RES
1 *2639:Y *2803:D 10.665 
*END

*D_NET *418 0.0009264
*CONN
*I *2804:D I *D sky130_fd_sc_hd__dlxtn_1
*I *2640:Y O *D sky130_fd_sc_hd__nor2_1
*CAP
1 *2804:D 0.000439105
2 *2640:Y 0.000439105
3 *2804:D *2507:C1 0
4 *2804:D *2515:B1 4.05674e-06
5 *2804:D *2796:D 0
6 *2804:D *3105:A 0
7 *2804:D *509:8 0
8 *2804:D *571:10 4.4134e-05
9 *2804:D *889:26 0
10 *2804:D *889:56 0
*RES
1 *2640:Y *2804:D 13.05 
*END

*D_NET *419 0.000650029
*CONN
*I *2805:D I *D sky130_fd_sc_hd__dlxtn_1
*I *2641:Y O *D sky130_fd_sc_hd__nor2_1
*CAP
1 *2805:D 0.000129658
2 *2641:Y 0.000129658
3 *2805:D *2494:A 3.66286e-05
4 *2805:D *842:18 9.24049e-05
5 *2805:D *886:40 8.8266e-05
6 *2805:D *1041:16 0.000164679
7 *2810:D *2805:D 8.73389e-06
*RES
1 *2641:Y *2805:D 10.575 
*END

*D_NET *420 0.00020998
*CONN
*I *2806:D I *D sky130_fd_sc_hd__dlxtn_1
*I *2642:Y O *D sky130_fd_sc_hd__nor2_1
*CAP
1 *2806:D 7.53474e-05
2 *2642:Y 7.53474e-05
3 *2806:D *2473:B1 0
4 *2806:D *884:20 5.92849e-05
*RES
1 *2642:Y *2806:D 8.835 
*END

*D_NET *421 0.0005807
*CONN
*I *2792:D I *D sky130_fd_sc_hd__dlxtn_1
*I *2628:Y O *D sky130_fd_sc_hd__nor2_1
*CAP
1 *2792:D 0.000168493
2 *2628:Y 0.000168493
3 *2792:D *2628:A 6.97118e-05
4 *2792:D *3188:A 6.02123e-05
5 *2792:D *881:39 0.000104287
6 *2792:D *881:57 9.50342e-06
*RES
1 *2628:Y *2792:D 10.065 
*END

*D_NET *422 0.000433404
*CONN
*I *2793:D I *D sky130_fd_sc_hd__dlxtn_1
*I *2629:Y O *D sky130_fd_sc_hd__nor2_1
*CAP
1 *2793:D 8.29259e-05
2 *2629:Y 8.29259e-05
3 *2793:D *2658:A0 0.000108257
4 *2793:D *880:32 4.66108e-05
5 *2793:D *884:20 0.000112685
*RES
1 *2629:Y *2793:D 9.03 
*END

*D_NET *423 0.000478579
*CONN
*I *2794:D I *D sky130_fd_sc_hd__dlxtn_1
*I *2630:Y O *D sky130_fd_sc_hd__nor2_1
*CAP
1 *2794:D 0.000149783
2 *2630:Y 0.000149783
3 *2794:D *2593:B 2.76356e-05
4 *2794:D *2797:D 1.26548e-05
5 *2794:D *551:40 9.37731e-05
6 *2794:D *886:46 4.49498e-05
*RES
1 *2630:Y *2794:D 9.825 
*END

*D_NET *424 0.00063578
*CONN
*I *2795:D I *D sky130_fd_sc_hd__dlxtn_1
*I *2631:Y O *D sky130_fd_sc_hd__nor2_1
*CAP
1 *2795:D 0.00021849
2 *2631:Y 0.00021849
3 *2795:D *431:10 0.000141599
4 *2827:D *2795:D 5.72004e-05
*RES
1 *2631:Y *2795:D 10.665 
*END

*D_NET *425 0.00155453
*CONN
*I *2796:D I *D sky130_fd_sc_hd__dlxtn_1
*I *2632:Y O *D sky130_fd_sc_hd__nor2_1
*CAP
1 *2796:D 0.000535695
2 *2632:Y 0.000535695
3 *2796:D *2516:A 0
4 *2796:D *2804:GATE_N 9.53428e-06
5 *2796:D *881:131 0.00033171
6 *2796:D *881:144 0.000141894
7 *2804:D *2796:D 0
*RES
1 *2632:Y *2796:D 16.26 
*END

*D_NET *426 0.00542826
*CONN
*I *2797:D I *D sky130_fd_sc_hd__dlxtn_1
*I *2633:Y O *D sky130_fd_sc_hd__nor2_1
*CAP
1 *2797:D 0.000915683
2 *2633:Y 0.000915683
3 *2797:D *2461:A 0.000116158
4 *2797:D *2494:B 0.000926908
5 *2797:D *2538:A 5.98004e-06
6 *2797:D *2633:A 6.18754e-05
7 *2797:D *2633:B 5.39961e-05
8 *2797:D *2638:B 0
9 *2797:D *2649:A1 4.66108e-05
10 *2797:D *2794:GATE_N 0.000361306
11 *2797:D *3329:A 7.28749e-05
12 *2797:D *551:40 0.000139245
13 *2797:D *880:86 0.000229203
14 *2797:D *880:99 0.000671175
15 *2797:D *885:36 0.000409921
16 *2797:D *886:46 0
17 *2797:D *886:50 0
18 *2797:D *886:62 0.000110528
19 *2797:D *888:19 7.16181e-05
20 *2797:D *888:21 7.8831e-05
21 *2797:D *888:34 9.766e-05
22 rdata[11] *2797:D 1.01661e-05
23 *2794:D *2797:D 1.26548e-05
24 *2801:D *2797:D 0.000120186
*RES
1 *2633:Y *2797:D 36.825 
*END

*D_NET *427 0.00379756
*CONN
*I *2798:D I *D sky130_fd_sc_hd__dlxtn_1
*I *2634:Y O *D sky130_fd_sc_hd__nor2_1
*CAP
1 *2798:D 0.000548258
2 *2634:Y 0.000548258
3 *2798:D *2482:A2 0.000769138
4 *2798:D *2482:B1 9.30717e-05
5 *2798:D *2482:B2 8.5193e-05
6 *2798:D *2593:B 1.92979e-05
7 *2798:D *2629:B 0.000187522
8 *2798:D *2649:A0 0.00113113
9 *2798:D *3313:A 0.000109962
10 *2798:D *880:62 0
11 *2798:D *888:21 7.68063e-05
12 *2798:D *888:34 6.74407e-05
13 *2798:D *888:36 0.000142003
14 *2798:D *888:42 1.94805e-05
*RES
1 *2634:Y *2798:D 27.195 
*END

*D_NET *428 0.00454206
*CONN
*I *2799:D I *D sky130_fd_sc_hd__dlxtn_1
*I *2635:Y O *D sky130_fd_sc_hd__nor2_1
*CAP
1 *2799:D 0.00091324
2 *2635:Y 0.00091324
3 *2799:D *2474:B1 0.000137894
4 *2799:D *2570:B2 0.000173223
5 *2799:D *2641:A 0.0001249
6 *2799:D *2642:B 0.00130712
7 *2799:D *2649:A0 0.000136881
8 *2799:D *932:22 0.000307152
9 *2799:D *932:119 6.10352e-05
10 *2799:D *932:134 0.000354895
11 *2570:A1 *2799:D 0.000112037
12 *382:10 *2799:D 4.46808e-07
*RES
1 *2635:Y *2799:D 32.97 
*END

*D_NET *429 0.000331474
*CONN
*I *2800:D I *D sky130_fd_sc_hd__dlxtn_1
*I *2636:Y O *D sky130_fd_sc_hd__nor2_1
*CAP
1 *2800:D 0.000118384
2 *2636:Y 0.000118384
3 *2800:D *2636:B 1.83847e-05
4 *2800:D *874:20 0
5 *3157:A *2800:D 7.63204e-05
*RES
1 *2636:Y *2800:D 9.285 
*END

*D_NET *430 0.000952093
*CONN
*I *3175:A I *D sky130_fd_sc_hd__buf_2
*I *2666:X O *D sky130_fd_sc_hd__mux2_1
*CAP
1 *3175:A 0.000231918
2 *2666:X 0.000231918
3 *3175:A *2764:D 0.000314056
4 *3175:A *510:38 4.76303e-05
5 *3175:A *672:84 0.00012657
6 *3175:A *751:16 0
7 *3175:A *889:75 0
*RES
1 *2666:X *3175:A 12.015 
*END

*D_NET *431 0.00523275
*CONN
*I *3141:A I *D sky130_fd_sc_hd__buf_1
*I *3140:A I *D sky130_fd_sc_hd__clkbuf_2
*I *2671:X O *D sky130_fd_sc_hd__o31a_1
*CAP
1 *3141:A 5.05305e-05
2 *3140:A 0.000190618
3 *2671:X 0.000901904
4 *431:10 0.00114305
5 *3140:A *2805:GATE_N 2.49909e-05
6 *3140:A *887:28 0.000305266
7 *431:10 *2438:A 8.25609e-05
8 *431:10 *2505:B 0
9 *431:10 *2661:A0 0.000506335
10 *431:10 *2676:B 2.67184e-05
11 *431:10 *2825:GATE_N 6.5525e-05
12 *431:10 *3178:A 0
13 *431:10 *3328:A 0
14 *431:10 *433:10 0.000122325
15 *431:10 *507:26 8.49205e-05
16 *431:10 *887:22 0
17 *431:10 *970:26 0
18 *431:10 *982:8 0.000496
19 *2795:D *431:10 0.000141599
20 *2811:D *3140:A 0
21 *2811:D *3141:A 0.0001249
22 *2820:D *3140:A 0.000271334
23 *2825:D *431:10 0.000669574
24 *2826:D *431:10 2.46007e-05
25 *2827:D *431:10 0
*RES
1 *2671:X *431:10 24.795 
2 *431:10 *3140:A 8.88 
3 *431:10 *3141:A 4.74 
*END

*D_NET *432 0.000688185
*CONN
*I *2823:GATE_N I *D sky130_fd_sc_hd__dlxtn_1
*I *2824:GATE_N I *D sky130_fd_sc_hd__dlxtn_1
*I *2673:X O *D sky130_fd_sc_hd__and2_1
*CAP
1 *2823:GATE_N 6.93723e-05
2 *2824:GATE_N 8.36656e-05
3 *2673:X 4.39102e-05
4 *432:6 0.000196948
5 *2823:GATE_N *2672:B 1.34503e-05
6 *2823:GATE_N *2673:B 0
7 *2823:GATE_N *677:6 1.16578e-05
8 *2824:GATE_N *2439:B 0.000117825
9 *2824:GATE_N *1050:25 6.47594e-05
10 *432:6 *677:6 8.65961e-05
*RES
1 *2673:X *432:6 2.395 
2 *432:6 *2824:GATE_N 7.34 
3 *432:6 *2823:GATE_N 2.755 
*END

*D_NET *433 0.00318434
*CONN
*I *2828:GATE_N I *D sky130_fd_sc_hd__dlxtn_1
*I *2825:GATE_N I *D sky130_fd_sc_hd__dlxtn_1
*I *2827:GATE_N I *D sky130_fd_sc_hd__dlxtn_1
*I *2826:GATE_N I *D sky130_fd_sc_hd__dlxtn_1
*I *2676:X O *D sky130_fd_sc_hd__and2_1
*CAP
1 *2828:GATE_N 4.76728e-05
2 *2825:GATE_N 9.29128e-05
3 *2827:GATE_N 8.39945e-06
4 *2826:GATE_N 0
5 *2676:X 0.000229367
6 *433:18 4.39501e-05
7 *433:16 0.00045556
8 *433:10 0.000604136
9 *2828:GATE_N *2674:B 2.42043e-05
10 *433:10 *2438:A 0
11 *433:10 *3178:A 9.14049e-05
12 *433:10 *3326:A 1.65105e-05
13 *433:10 *885:26 0.000300212
14 *433:10 *887:22 5.65627e-05
15 *433:16 *881:144 0.000109888
16 *433:16 *885:26 0.000410799
17 *433:16 *887:22 0.000106665
18 *2826:D *2825:GATE_N 8.58036e-05
19 *2826:D *2827:GATE_N 4.82919e-05
20 *2826:D *433:16 4.29016e-05
21 *2827:D *2825:GATE_N 2.68721e-05
22 *2828:D *2828:GATE_N 4.66108e-05
23 *2828:D *433:10 2.92496e-05
24 *2828:D *433:16 0.00011852
25 *431:10 *2825:GATE_N 6.5525e-05
26 *431:10 *433:10 0.000122325
*RES
1 *2676:X *433:10 8.415 
2 *433:10 *433:16 9.215 
3 *433:16 *433:18 0.615 
4 *433:18 *2826:GATE_N 1.6 
5 *433:18 *2827:GATE_N 2.05 
6 *433:16 *2825:GATE_N 7.775 
7 *433:10 *2828:GATE_N 4.395 
*END

*D_NET *434 0.00037608
*CONN
*I *2829:GATE_N I *D sky130_fd_sc_hd__dlxtn_1
*I *2678:X O *D sky130_fd_sc_hd__or2_1
*CAP
1 *2829:GATE_N 7.73507e-05
2 *2678:X 7.73507e-05
3 *2829:GATE_N *2764:A 0.000115254
4 *2829:GATE_N *885:115 4.82863e-05
5 *2829:GATE_N *887:105 5.78379e-05
*RES
1 *2678:X *2829:GATE_N 9.03 
*END

*D_NET *435 0.0122735
*CONN
*I *3136:A I *D sky130_fd_sc_hd__buf_2
*I *3137:A I *D sky130_fd_sc_hd__dlymetal6s2s_1
*I *2395:Y O *D sky130_fd_sc_hd__nand2_1
*CAP
1 *3136:A 0.00126941
2 *3137:A 4.07263e-05
3 *2395:Y 0.00144131
4 *435:12 0.00275144
5 *3136:A *2498:A2 7.20641e-06
6 *3136:A *2516:A 0
7 *3136:A *561:14 0.00132854
8 *3136:A *651:26 0.00215605
9 *3136:A *828:18 0.000540614
10 *3136:A *889:26 1.98547e-06
11 *3136:A *919:35 1.91992e-05
12 *3136:A *919:49 7.98277e-05
13 *3136:A *962:60 2.95708e-05
14 *3136:A *962:73 6.04355e-05
15 *3137:A *2503:C 0.000100797
16 *3137:A *881:39 0.000100797
17 *435:12 *2911:GATE_N 0.00077146
18 *435:12 *3083:GATE_N 0.000174943
19 *435:12 *3205:A 0
20 *435:12 *3206:A 4.12356e-05
21 *435:12 *3216:A 8.89813e-05
22 *435:12 *490:14 0
23 *435:12 *651:26 0.000122899
24 *435:12 *828:18 0.000980446
25 *435:12 *840:44 0.000129688
26 *435:12 *849:87 2.72746e-05
27 *435:12 *925:33 0
28 *435:12 *925:133 0
29 *3163:A *3136:A 8.7152e-06
30 *383:10 *435:12 0
*RES
1 *2395:Y *435:12 9.96477 
2 *435:12 *3137:A 5.3525 
3 *435:12 *3136:A 9.5055 
*END

*D_NET *436 0.006161
*CONN
*I *3135:A I *D sky130_fd_sc_hd__clkbuf_2
*I *3134:A I *D sky130_fd_sc_hd__buf_2
*I *2397:Y O *D sky130_fd_sc_hd__nand2_1
*CAP
1 *3135:A 0.000325197
2 *3134:A 0.00089538
3 *2397:Y 0.000190283
4 *436:8 0.00141086
5 *3134:A *2514:A 1.88602e-05
6 *3134:A *2522:C1 0
7 *3134:A *2524:A2 3.65695e-05
8 *3134:A *2524:C1 0
9 *3134:A *2525:C 0
10 *3134:A *2860:GATE_N 0.000262568
11 *3134:A *2877:GATE_N 5.84456e-05
12 *3134:A *3021:GATE_N 0.000290684
13 *3134:A *3120:A 0
14 *3134:A *814:12 0.000312405
15 *3134:A *814:37 3.68805e-05
16 *3134:A *816:18 1.61831e-05
17 *3134:A *834:8 5.55605e-05
18 *3134:A *836:152 4.82863e-05
19 *3134:A *861:18 0
20 *3134:A *905:47 0.0002497
21 *3134:A *906:93 5.87405e-05
22 *3134:A *922:87 0.000615349
23 *3135:A *2415:B 0.000180675
24 *3135:A *2501:C1 0
25 *3135:A *2512:B1 0.000352156
26 *3135:A *837:27 0.000146392
27 *3135:A *837:31 0
28 *3135:A *905:47 6.45236e-05
29 *3135:A *929:18 0.000193401
30 *436:8 *929:26 8.65961e-05
31 *436:8 *929:48 5.6456e-05
32 *436:8 *929:58 2.75229e-05
33 *2510:A1 *3134:A 3.0422e-05
34 *2620:B2 *3134:A 0.000140905
*RES
1 *2397:Y *436:8 6.12 
2 *436:8 *3134:A 24.24 
3 *436:8 *3135:A 12.315 
*END

*D_NET *437 0.0102977
*CONN
*I *3133:A I *D sky130_fd_sc_hd__clkbuf_2
*I *3132:A I *D sky130_fd_sc_hd__buf_2
*I *2399:Y O *D sky130_fd_sc_hd__nand2_1
*CAP
1 *3133:A 0
2 *3132:A 0.000832908
3 *2399:Y 0.00324668
4 *437:26 0.00407958
5 *3132:A *2521:B1 0.000540365
6 *3132:A *2542:A2 2.96383e-05
7 *3132:A *2544:B1 0.000139823
8 *3132:A *2545:C 2.53191e-06
9 *3132:A *2609:B1 0
10 *3132:A *2852:GATE_N 5.14739e-05
11 *3132:A *2988:GATE_N 0
12 *3132:A *3116:A 0
13 *3132:A *814:45 6.68323e-05
14 *3132:A *816:8 0
15 *3132:A *833:12 9.66106e-05
16 *3132:A *837:56 0.00016063
17 *3132:A *837:83 7.14699e-05
18 *3132:A *844:28 0.000197264
19 *3132:A *851:53 2.39856e-05
20 *3132:A *904:16 0
21 *3132:A *907:56 0
22 *3132:A *922:68 6.07575e-06
23 *3132:A *928:33 6.35356e-05
24 *3132:A *928:39 0.000350185
25 *437:26 *2399:B 1.88656e-05
26 *437:26 *2524:A2 4.17687e-05
27 *437:26 *3357:A 1.19249e-05
28 *437:26 *837:31 0.000138606
29 *2543:A1 *3132:A 9.30787e-05
30 *2622:B2 *3132:A 3.39064e-05
*RES
1 *2399:Y *437:26 12.5709 
2 *437:26 *3132:A 25.16 
3 *437:26 *3133:A 1.6 
*END

*D_NET *438 0.00788891
*CONN
*I *3131:A I *D sky130_fd_sc_hd__dlymetal6s2s_1
*I *3130:A I *D sky130_fd_sc_hd__buf_2
*I *2401:Y O *D sky130_fd_sc_hd__nand2_1
*CAP
1 *3131:A 0.000637572
2 *3130:A 0.000974486
3 *2401:Y 0
4 *438:6 0.00161206
5 *3130:A *2621:A2 4.78802e-05
6 *3130:A *2624:B 0.000750401
7 *3130:A *2959:GATE_N 0.000229541
8 *3130:A *3007:GATE_N 0.000334045
9 *3130:A *3120:A 0.000330017
10 *3130:A *875:12 0.000188063
11 *3130:A *875:14 0.000884263
12 *3130:A *875:24 4.99619e-05
13 *3130:A *875:103 3.83041e-05
14 *3130:A *875:122 0.000256387
15 *3130:A *925:72 0.000503865
16 *3130:A *925:86 5.82718e-05
17 *3131:A *3007:GATE_N 8.4792e-05
18 *3131:A *3120:A 0.000344103
19 *3131:A *832:25 4.71333e-05
20 *3131:A *837:31 0.00013477
21 *3131:A *909:60 1.08758e-05
22 *3131:A *909:66 0.000251114
23 *2621:A1 *3130:A 0.000109739
24 *2621:B2 *3130:A 1.12643e-05
*RES
1 *2401:Y *438:6 3.6 
2 *438:6 *3130:A 29.385 
3 *438:6 *3131:A 14.025 
*END

*D_NET *439 0.00384065
*CONN
*I *3128:A I *D sky130_fd_sc_hd__buf_2
*I *3129:A I *D sky130_fd_sc_hd__clkbuf_2
*I *2403:Y O *D sky130_fd_sc_hd__nand2_1
*CAP
1 *3128:A 0.000211527
2 *3129:A 0.000597055
3 *2403:Y 2.84242e-05
4 *439:8 0.000837006
5 *3128:A *2419:B 0.000139478
6 *3128:A *485:12 0.000133662
7 *3128:A *812:10 4.55864e-06
8 *3128:A *812:28 9.58678e-06
9 *3128:A *826:10 8.65961e-05
10 *3128:A *869:29 4.44131e-05
11 *3128:A *919:29 0
12 *3129:A *2496:A2 0.000216318
13 *3129:A *2503:C 0
14 *3129:A *2504:B1 0.000232072
15 *3129:A *2509:A2 0.000132942
16 *3129:A *3051:GATE_N 0.000195399
17 *3129:A *3122:A 4.5697e-05
18 *3129:A *3214:A 2.05641e-05
19 *3129:A *485:12 6.76938e-05
20 *3129:A *826:12 0
21 *3129:A *830:6 7.12099e-05
22 *3129:A *869:29 8.63081e-05
23 *3129:A *869:33 0.000122331
24 *3129:A *912:43 0.000198155
25 *3129:A *933:18 5.42715e-05
26 *439:8 *2403:A 8.41307e-05
27 *439:8 *2504:B1 0.000121541
28 *439:8 *477:30 1.17309e-05
29 *2496:A1 *3129:A 8.79804e-05
*RES
1 *2403:Y *439:8 4.74 
2 *439:8 *3129:A 17.775 
3 *439:8 *3128:A 8.445 
*END

*D_NET *440 0.006528
*CONN
*I *3127:A I *D sky130_fd_sc_hd__clkbuf_2
*I *3126:A I *D sky130_fd_sc_hd__buf_2
*I *2405:Y O *D sky130_fd_sc_hd__nand2_1
*CAP
1 *3127:A 0.000747831
2 *3126:A 0.000886704
3 *2405:Y 3.38648e-05
4 *440:8 0.0016684
5 *3126:A *2423:A 1.61892e-05
6 *3126:A *2509:B1 0.000247102
7 *3126:A *2514:A 1.88656e-05
8 *3126:A *2605:B1 0
9 *3126:A *2624:A 6.16247e-05
10 *3126:A *2639:A 1.7635e-05
11 *3126:A *2844:D 0
12 *3126:A *2844:GATE_N 2.52454e-05
13 *3126:A *2922:GATE_N 0
14 *3126:A *2924:D 0.000307285
15 *3126:A *2924:GATE_N 0
16 *3126:A *3036:GATE_N 0
17 *3126:A *3110:A 0.000372054
18 *3126:A *808:54 6.03517e-05
19 *3126:A *896:12 0
20 *3126:A *896:33 5.39961e-05
21 *3126:A *897:45 0.000726291
22 *3126:A *915:54 1.88904e-05
23 *3126:A *915:81 0.000265557
24 *3126:A *919:49 5.26522e-05
25 *3126:A *962:16 7.44482e-05
26 *3127:A *2423:A 4.36573e-06
27 *3127:A *2498:A2 4.00045e-05
28 *3127:A *2503:B 0.000156023
29 *3127:A *2930:GATE_N 1.91597e-05
30 *3127:A *3042:D 3.56151e-05
31 *3127:A *3110:A 2.97004e-06
32 *3127:A *3111:A 7.8494e-06
33 *3127:A *3214:A 0
34 *3127:A *651:26 1.13099e-05
35 *3127:A *806:14 3.92756e-05
36 *3127:A *808:54 8.20629e-05
37 *3127:A *828:60 3.80929e-05
38 *3127:A *840:10 3.59531e-06
39 *3127:A *869:106 0.000122365
40 *3127:A *893:59 5.00763e-05
41 *440:8 *895:63 4.82919e-05
42 *2605:B2 *3126:A 0.000118886
43 *2619:A1 *3126:A 9.30717e-05
*RES
1 *2405:Y *440:8 4.05 
2 *440:8 *3126:A 26.19 
3 *440:8 *3127:A 10.0275 
*END

*D_NET *441 0.00674707
*CONN
*I *3124:A I *D sky130_fd_sc_hd__buf_2
*I *3125:A I *D sky130_fd_sc_hd__clkbuf_2
*I *2407:Y O *D sky130_fd_sc_hd__nand2_1
*CAP
1 *3124:A 0.00145785
2 *3125:A 0.000451009
3 *2407:Y 0.000125977
4 *441:10 0.00203484
5 *3124:A *2497:B1 1.79722e-05
6 *3124:A *2498:C1 0.000114515
7 *3124:A *2606:B1 0
8 *3124:A *3060:GATE_N 0
9 *3124:A *3112:A 3.69062e-05
10 *3124:A *808:22 0
11 *3124:A *811:10 0.000111049
12 *3124:A *811:26 0.000999349
13 *3124:A *828:60 7.81829e-05
14 *3124:A *914:157 0
15 *3124:A *915:48 0
16 *3124:A *917:73 0.000320218
17 *3124:A *917:79 0.000530342
18 *3125:A *2419:B 9.85032e-05
19 *3125:A *3112:A 0
20 *3125:A *3113:A 0
21 *441:10 *2407:B 4.66108e-05
22 *441:10 *2419:A 6.91019e-05
23 *441:10 *828:60 1.47347e-05
24 *2498:A1 *3124:A 0
25 *2498:A1 *441:10 0.00023991
26 *2606:A1 *3124:A 0
*RES
1 *2407:Y *441:10 4.93 
2 *441:10 *3125:A 12.17 
3 *441:10 *3124:A 36.095 
*END

*D_NET *442 0.00478948
*CONN
*I *3123:A I *D sky130_fd_sc_hd__clkbuf_2
*I *3122:A I *D sky130_fd_sc_hd__buf_2
*I *2409:Y O *D sky130_fd_sc_hd__nand2_1
*CAP
1 *3123:A 0.000142166
2 *3122:A 0.00135734
3 *2409:Y 0
4 *442:4 0.0014995
5 *3122:A *2409:A 8.15616e-05
6 *3122:A *2423:A 4.84621e-05
7 *3122:A *2464:C1 0.000111036
8 *3122:A *2509:A2 0.000618679
9 *3122:A *2509:B1 0.000153816
10 *3122:A *812:36 0
11 *3122:A *826:12 0
12 *3122:A *826:16 0
13 *3122:A *895:71 8.35106e-05
14 *3123:A *2409:A 1.14169e-05
15 *3123:A *823:8 0.000142183
16 *3123:A *895:71 0.000480612
17 *2509:B2 *3122:A 1.35051e-05
18 *3129:A *3122:A 4.5697e-05
*RES
1 *2409:Y *442:4 1.6 
2 *442:4 *3122:A 27.185 
3 *442:4 *3123:A 6.19 
*END

*D_NET *443 0.00570616
*CONN
*I *3121:A I *D sky130_fd_sc_hd__dlymetal6s2s_1
*I *3120:A I *D sky130_fd_sc_hd__buf_2
*I *2411:Y O *D sky130_fd_sc_hd__nand2_1
*CAP
1 *3121:A 0.000279963
2 *3120:A 0.000857038
3 *2411:Y 0
4 *443:4 0.001137
5 *3120:A *2524:A2 0
6 *3120:A *2860:GATE_N 9.02099e-05
7 *3120:A *2966:D 8.65905e-05
8 *3120:A *2966:GATE_N 3.00381e-05
9 *3120:A *3007:GATE_N 6.40697e-05
10 *3120:A *814:12 0
11 *3120:A *834:44 6.97256e-05
12 *3120:A *837:31 4.62396e-05
13 *3120:A *904:16 0.0014594
14 *3121:A *2399:A 1.10968e-05
15 *3121:A *2413:B 0.000123701
16 *3121:A *3115:A 0.000101564
17 *3121:A *3118:A 0.000178321
18 *3121:A *840:59 7.30547e-05
19 *3121:A *840:87 0.00013521
20 *3121:A *840:103 3.84331e-05
21 *3121:A *903:91 4.82863e-05
22 *3121:A *907:14 4.82863e-05
23 *3121:A *909:60 0.000153816
24 *3130:A *3120:A 0.000330017
25 *3131:A *3120:A 0.000344103
26 *3134:A *3120:A 0
*RES
1 *2411:Y *443:4 1.6 
2 *443:4 *3120:A 27.305 
3 *443:4 *3121:A 12.23 
*END

*D_NET *444 0.00669533
*CONN
*I *3119:A I *D sky130_fd_sc_hd__dlymetal6s2s_1
*I *3118:A I *D sky130_fd_sc_hd__buf_2
*I *2413:Y O *D sky130_fd_sc_hd__nand2_1
*CAP
1 *3119:A 0.000467684
2 *3118:A 0.00144222
3 *2413:Y 0
4 *444:4 0.0019099
5 *3118:A *2401:A 0.000155497
6 *3118:A *2401:B 0.00021158
7 *3118:A *2511:C1 2.30838e-05
8 *3118:A *2513:A2 6.07575e-06
9 *3118:A *2514:C 1.91597e-05
10 *3118:A *2522:A2 4.82919e-05
11 *3118:A *2883:GATE_N 3.81472e-05
12 *3118:A *2991:GATE_N 9.61052e-05
13 *3118:A *3007:GATE_N 3.74359e-05
14 *3118:A *840:59 2.79004e-05
15 *3118:A *840:103 0.000112123
16 *3118:A *907:48 0.000267992
17 *3118:A *909:30 8.27335e-05
18 *3118:A *922:87 3.04064e-05
19 *3118:A *925:86 0.000297061
20 *3119:A *2413:B 3.18113e-06
21 *3119:A *2599:A2 0.000222119
22 *3119:A *3116:A 0.000116853
23 *3119:A *3117:A 0.000282834
24 *3119:A *445:8 8.50801e-06
25 *3119:A *817:24 3.31204e-05
26 *3119:A *819:23 3.81581e-05
27 *3119:A *821:10 0.000225175
28 *3119:A *907:12 6.90055e-05
29 *3119:A *909:26 0.000233004
30 *2511:B2 *3118:A 7.25921e-06
31 *2513:A1 *3118:A 4.39911e-06
32 *3121:A *3118:A 0.000178321
*RES
1 *2413:Y *444:4 1.6 
2 *444:4 *3118:A 27.935 
3 *444:4 *3119:A 15.545 
*END

*D_NET *445 0.00559308
*CONN
*I *3117:A I *D sky130_fd_sc_hd__dlymetal6s2s_1
*I *3116:A I *D sky130_fd_sc_hd__buf_2
*I *2415:Y O *D sky130_fd_sc_hd__nand2_1
*CAP
1 *3117:A 0.000114661
2 *3116:A 0.000632218
3 *2415:Y 0.000459735
4 *445:8 0.00120661
5 *3116:A *2521:B1 0.000244919
6 *3116:A *2988:D 0
7 *3116:A *2988:GATE_N 0.000648035
8 *3116:A *819:23 0.000329315
9 *3116:A *821:10 0.000355455
10 *3116:A *832:37 0.000150785
11 *3116:A *847:57 0
12 *3116:A *903:28 0.000469027
13 *3117:A *2599:A2 2.0514e-05
14 *3117:A *817:24 7.75271e-05
15 *3117:A *819:23 0.000143435
16 *3117:A *850:57 8.23457e-05
17 *445:8 *2413:B 3.18857e-05
18 *445:8 *2417:B 0.000105587
19 *445:8 *3083:GATE_N 4.66108e-05
20 *445:8 *909:26 6.62095e-05
21 *3119:A *3116:A 0.000116853
22 *3119:A *3117:A 0.000282834
23 *3119:A *445:8 8.50801e-06
24 *3132:A *3116:A 0
*RES
1 *2415:Y *445:8 8.88 
2 *445:8 *3116:A 22.83 
3 *445:8 *3117:A 7.815 
*END

*D_NET *446 0.00564094
*CONN
*I *3115:A I *D sky130_fd_sc_hd__dlymetal6s2s_1
*I *3114:A I *D sky130_fd_sc_hd__buf_2
*I *2417:Y O *D sky130_fd_sc_hd__nand2_1
*CAP
1 *3115:A 0.000288314
2 *3114:A 0.000595488
3 *2417:Y 0
4 *446:6 0.000883802
5 *3114:A *2401:A 0.000201114
6 *3114:A *2525:A 0.00023635
7 *3114:A *2609:B1 4.9968e-05
8 *3114:A *3021:D 1.34361e-05
9 *3114:A *832:47 0.000234669
10 *3114:A *837:83 0.00013687
11 *3114:A *840:59 0.000168116
12 *3114:A *840:87 0.000105266
13 *3114:A *844:45 0.000103226
14 *3114:A *904:16 0.0015025
15 *3114:A *907:48 7.00327e-05
16 *3114:A *907:56 0.000225691
17 *3115:A *2399:A 1.59248e-05
18 *3115:A *2987:GATE_N 6.20192e-05
19 *3115:A *3194:A 8.49205e-05
20 *3115:A *3213:A 7.68414e-06
21 *3115:A *840:87 3.09164e-05
22 *3115:A *904:10 7.4642e-05
23 *3115:A *904:16 0.000334635
24 *3115:A *925:33 0.00011379
25 *3121:A *3115:A 0.000101564
*RES
1 *2417:Y *446:6 3.6 
2 *446:6 *3114:A 23.73 
3 *446:6 *3115:A 11.235 
*END

*D_NET *447 0.0052102
*CONN
*I *3113:A I *D sky130_fd_sc_hd__clkbuf_2
*I *3112:A I *D sky130_fd_sc_hd__buf_2
*I *2419:Y O *D sky130_fd_sc_hd__nand2_1
*CAP
1 *3113:A 0.000625333
2 *3112:A 0.000597783
3 *2419:Y 0
4 *447:6 0.00122312
5 *3112:A *2419:B 4.88555e-05
6 *3112:A *2498:C1 0.000185444
7 *3112:A *2506:B1 0
8 *3112:A *2507:B1 4.43212e-06
9 *3112:A *3059:GATE_N 9.02356e-07
10 *3112:A *3111:A 3.06851e-05
11 *3112:A *811:10 1.41559e-05
12 *3112:A *828:60 0
13 *3112:A *917:62 3.93354e-06
14 *3112:A *917:73 5.39961e-05
15 *3112:A *1012:16 5.42646e-05
16 *3113:A *2419:B 0.000175207
17 *3113:A *2786:D 3.00381e-05
18 *3113:A *3058:D 0.000680108
19 *3113:A *3203:A 0
20 *3113:A *870:85 0.000162311
21 *3113:A *915:27 0.00096564
22 *3113:A *919:29 2.30292e-05
23 *3113:A *1012:16 5.92191e-05
24 *2497:A1 *3112:A 0
25 *2498:A1 *3112:A 4.04859e-05
26 *2498:B2 *3112:A 0.000194351
27 *2506:B2 *3112:A 0
28 *3124:A *3112:A 3.69062e-05
29 *3125:A *3112:A 0
30 *3125:A *3113:A 0
*RES
1 *2419:Y *447:6 3.6 
2 *447:6 *3112:A 18.1075 
3 *447:6 *3113:A 21.975 
*END

*D_NET *448 0.00792425
*CONN
*I *3111:A I *D sky130_fd_sc_hd__clkbuf_2
*I *3110:A I *D sky130_fd_sc_hd__buf_2
*I *2421:Y O *D sky130_fd_sc_hd__nand2_1
*CAP
1 *3111:A 0.000760815
2 *3110:A 0.00118838
3 *2421:Y 3.69588e-05
4 *448:8 0.00198616
5 *3110:A *2509:A2 1.26626e-05
6 *3110:A *2614:B2 0.000484118
7 *3110:A *2909:D 0
8 *3110:A *3037:D 0
9 *3110:A *3068:D 9.06559e-05
10 *3110:A *3108:A 0
11 *3110:A *807:99 2.49909e-05
12 *3110:A *807:115 5.23362e-05
13 *3110:A *830:90 0
14 *3110:A *848:10 3.09164e-05
15 *3110:A *897:45 0.00067418
16 *3110:A *1012:16 0
17 *3111:A *2405:B 1.88602e-05
18 *3111:A *2506:B1 6.06649e-05
19 *3111:A *2914:GATE_N 2.10433e-05
20 *3111:A *3042:D 0.000178703
21 *3111:A *3138:A 0
22 *3111:A *651:26 0.000258225
23 *3111:A *810:14 1.01661e-05
24 *3111:A *889:56 0.000338279
25 *3111:A *893:59 4.65385e-05
26 *3111:A *897:29 9.67081e-06
27 *3111:A *897:31 0.000367657
28 *3111:A *897:45 6.69679e-05
29 *448:8 *895:63 4.66108e-05
30 *2509:A1 *3110:A 0.000111061
31 *2509:B2 *3110:A 0.000171752
32 *2605:B2 *3110:A 7.3664e-05
33 *2608:B2 *3110:A 1.1392e-05
34 *2619:A1 *3110:A 9.30717e-05
35 *2619:B2 *3110:A 0.000284189
36 *3112:A *3111:A 3.06851e-05
37 *3126:A *3110:A 0.000372054
38 *3127:A *3110:A 2.97004e-06
39 *3127:A *3111:A 7.8494e-06
*RES
1 *2421:Y *448:8 4.05 
2 *448:8 *3110:A 33.01 
3 *448:8 *3111:A 12.4466 
*END

*D_NET *449 0.00843698
*CONN
*I *3109:A I *D sky130_fd_sc_hd__dlymetal6s2s_1
*I *3108:A I *D sky130_fd_sc_hd__buf_2
*I *2423:Y O *D sky130_fd_sc_hd__nand2_1
*CAP
1 *3109:A 0.00120612
2 *3108:A 0.00103983
3 *2423:Y 0
4 *449:6 0.00224595
5 *3108:A *2509:A2 0
6 *3108:A *2509:C1 4.40713e-05
7 *3108:A *2614:B2 4.80285e-05
8 *3108:A *2909:D 0.000198546
9 *3108:A *3037:D 0.000155234
10 *3108:A *3068:D 3.09233e-05
11 *3108:A *806:48 0.000196398
12 *3108:A *806:50 0
13 *3108:A *807:99 8.65961e-05
14 *3108:A *822:6 0.000161529
15 *3108:A *822:39 0.000106884
16 *3108:A *830:90 0.00028733
17 *3108:A *865:59 0.00091058
18 *3108:A *895:71 8.7152e-06
19 *3108:A *933:24 0.000498658
20 *3109:A *2509:C1 1.32517e-05
21 *3109:A *3075:D 3.91051e-05
22 *3109:A *806:48 4.38541e-05
23 *3109:A *839:75 0.00011192
24 *3109:A *866:23 0.00013344
25 *3109:A *866:35 0.000162025
26 *3109:A *867:6 1.19928e-05
27 *3109:A *895:63 0.000146188
28 *3109:A *895:71 4.91032e-05
29 *3109:A *915:48 0
30 *3109:A *1012:16 0.000391627
31 *2497:B2 *3109:A 8.7152e-06
32 *2506:B2 *3109:A 4.82863e-05
33 *2507:A1 *3109:A 4.48849e-05
34 *2509:B2 *3108:A 7.1932e-06
35 *2619:B2 *3108:A 0
36 *3110:A *3108:A 0
*RES
1 *2423:Y *449:6 3.6 
2 *449:6 *3108:A 32.44 
3 *449:6 *3109:A 22.755 
*END

*D_NET *450 0.00828229
*CONN
*I *3107:A I *D sky130_fd_sc_hd__clkbuf_2
*I *3106:A I *D sky130_fd_sc_hd__buf_2
*I *2425:Y O *D sky130_fd_sc_hd__nand2_1
*CAP
1 *3107:A 0.000276528
2 *3106:A 0.00347646
3 *2425:Y 0
4 *450:4 0.00375299
5 *3106:A *2592:B2 0.000356923
6 *3106:A *2639:A 0
7 *3106:A *806:48 2.05641e-05
8 *3106:A *808:54 4.21127e-05
9 *3106:A *811:26 1.88602e-05
10 *3106:A *811:32 6.32198e-05
11 *3106:A *822:49 8.66107e-06
12 *3106:A *893:59 4.09223e-05
13 *3106:A *893:97 9.58678e-06
14 *3107:A *2506:B1 0.000215463
*RES
1 *2425:Y *450:4 1.6 
2 *450:4 *3106:A 14.1703 
3 *450:4 *3107:A 6.475 
*END

*D_NET *451 0.000621216
*CONN
*I *2783:D I *D sky130_fd_sc_hd__dfrtp_1
*I *2686:X O *D sky130_fd_sc_hd__a31o_1
*CAP
1 *2783:D 0.000255097
2 *2686:X 0.000255097
3 *2783:D *475:20 4.43871e-06
4 *2783:D *475:38 3.4222e-05
5 *2783:D *672:84 7.23602e-05
*RES
1 *2686:X *2783:D 10.2937 
*END

*D_NET *452 0.00169213
*CONN
*I *2784:D I *D sky130_fd_sc_hd__dfrtp_1
*I *2695:X O *D sky130_fd_sc_hd__or4b_4
*CAP
1 *2784:D 0.000523908
2 *2695:X 0.000523908
3 *2784:D *2382:B 0.000111012
4 *2784:D *2450:B 0
5 *2784:D *2450:C 0.000132219
6 *2784:D *2695:C 4.92014e-05
7 *2784:D *2784:CLK 0.000123304
8 *2784:D *772:10 0.000138279
9 *2784:D *774:16 9.02937e-05
10 *2784:D *951:51 0
*RES
1 *2695:X *2784:D 16.65 
*END

*D_NET *453 0.0011292
*CONN
*I *2785:D I *D sky130_fd_sc_hd__dfrtp_1
*I *2697:X O *D sky130_fd_sc_hd__or4b_4
*CAP
1 *2785:D 0.000306173
2 *2697:X 0.000306173
3 *2785:D *2383:B 0.000173167
4 *2785:D *2426:A 6.57949e-06
5 *2785:D *2698:B1 3.42142e-05
6 *2785:D *2786:D 0
7 *2785:D *2786:RESET_B 0
8 *2785:D *773:20 0.000302893
9 *2785:D *956:26 0
10 *2785:D *1012:16 0
*RES
1 *2697:X *2785:D 13.17 
*END

*D_NET *454 0.000490435
*CONN
*I *2786:D I *D sky130_fd_sc_hd__dfrtp_1
*I *2699:X O *D sky130_fd_sc_hd__a21o_1
*CAP
1 *2786:D 0.000230199
2 *2699:X 0.000230199
3 *2786:D *2786:CLK 0
4 *2786:D *2786:RESET_B 0
5 *2785:D *2786:D 0
6 *3113:A *2786:D 3.00381e-05
*RES
1 *2699:X *2786:D 10.815 
*END

*D_NET *455 0.000472733
*CONN
*I *2787:D I *D sky130_fd_sc_hd__dfrtp_1
*I *2706:X O *D sky130_fd_sc_hd__mux2_1
*CAP
1 *2787:D 0.000101915
2 *2706:X 0.000101915
3 *2787:D *2723:B1 8.40213e-05
4 *2787:D *2738:B 0.000125662
5 *2787:D *2738:C 5.92191e-05
*RES
1 *2706:X *2787:D 9.375 
*END

*D_NET *456 0.000901401
*CONN
*I *2788:D I *D sky130_fd_sc_hd__dfrtp_1
*I *2711:X O *D sky130_fd_sc_hd__mux2_1
*CAP
1 *2788:D 0.000128266
2 *2711:X 0.000128266
3 *2788:D *787:23 4.66108e-05
4 *2788:D *787:34 0.000120186
5 *2788:D *787:36 7.47215e-05
6 *2788:D *787:38 0.000112892
7 *2788:D *1047:111 0.000290459
*RES
1 *2711:X *2788:D 11.07 
*END

*D_NET *457 0.000550859
*CONN
*I *2789:D I *D sky130_fd_sc_hd__dfrtp_1
*I *2719:X O *D sky130_fd_sc_hd__mux2_1
*CAP
1 *2789:D 0.000123543
2 *2719:X 0.000123543
3 *2789:D *2789:RESET_B 0.000107467
4 *2789:D *956:70 4.53578e-05
5 *2789:D *1047:111 0.000150949
*RES
1 *2719:X *2789:D 10.62 
*END

*D_NET *458 0.000425497
*CONN
*I *2790:D I *D sky130_fd_sc_hd__dfrtp_1
*I *2723:X O *D sky130_fd_sc_hd__a22o_1
*CAP
1 *2790:D 9.8887e-05
2 *2723:X 9.8887e-05
3 *2790:D *2723:A2 1.56428e-05
4 *2790:D *2790:RESET_B 9.50342e-06
5 *2790:D *868:20 4.47819e-05
6 *2790:D *956:12 8.71079e-05
7 *2790:D *996:16 7.06865e-05
*RES
1 *2723:X *2790:D 9.54 
*END

*D_NET *459 0.00165746
*CONN
*I *3086:D I *D sky130_fd_sc_hd__dfrtp_1
*I *2732:X O *D sky130_fd_sc_hd__mux2_1
*CAP
1 *3086:D 0.000656979
2 *2732:X 0.000656979
3 *3086:D *3086:RESET_B 8.43862e-05
4 *3086:D *3087:CLK 8.53856e-06
5 *3086:D *782:6 0.000238919
6 *3086:D *782:25 1.16578e-05
*RES
1 *2732:X *3086:D 10.9438 
*END

*D_NET *460 0.000988235
*CONN
*I *3087:D I *D sky130_fd_sc_hd__dfrtp_1
*I *2737:X O *D sky130_fd_sc_hd__a22o_1
*CAP
1 *3087:D 0.000274558
2 *2737:X 0.000274558
3 *3087:D *2737:A1 6.02035e-05
4 *3087:D *3098:A 0.000282305
5 *3087:D *783:12 9.66106e-05
*RES
1 *2737:X *3087:D 9.53 
*END

*D_NET *461 0.0031711
*CONN
*I *3088:D I *D sky130_fd_sc_hd__dfrtp_1
*I *2742:X O *D sky130_fd_sc_hd__a22o_1
*CAP
1 *3088:D 0.000975761
2 *2742:X 0.000975761
3 *3088:D *2392:A 0
4 *3088:D *2732:A1 0.000220766
5 *3088:D *2737:B2 4.9968e-05
6 *3088:D *3086:RESET_B 5.83121e-06
7 *3088:D *3088:RESET_B 2.76356e-05
8 *3088:D *3089:D 0.000354976
9 *3088:D *722:42 4.9968e-05
10 *3088:D *782:6 6.05513e-05
11 *3088:D *782:25 5.41685e-05
12 *3088:D *782:32 0.000234674
13 *3088:D *784:8 4.9253e-06
14 *3088:D *785:14 6.23375e-05
15 *3088:D *804:14 9.37731e-05
16 *3147:A *3088:D 0
*RES
1 *2742:X *3088:D 29.08 
*END

*D_NET *462 0.00181896
*CONN
*I *3089:D I *D sky130_fd_sc_hd__dfrtp_1
*I *2747:X O *D sky130_fd_sc_hd__a22o_1
*CAP
1 *3089:D 0.000666115
2 *2747:X 0.000666115
3 *3089:D *771:78 4.91189e-05
4 *3089:D *784:8 1.70993e-05
5 *3088:D *3089:D 0.000354976
6 *383:10 *3089:D 6.55328e-05
*RES
1 *2747:X *3089:D 16.275 
*END

*D_NET *463 0.000527076
*CONN
*I *3090:D I *D sky130_fd_sc_hd__dfrtp_1
*I *2752:X O *D sky130_fd_sc_hd__mux2_1
*CAP
1 *3090:D 0.00014731
2 *2752:X 0.00014731
3 *3090:D *2760:A2 0.00011574
4 *3090:D *3090:CLK 0
5 *3090:D *3090:RESET_B 0.000116716
*RES
1 *2752:X *3090:D 10.41 
*END

*D_NET *464 0.00167469
*CONN
*I *3091:D I *D sky130_fd_sc_hd__dfrtp_1
*I *2757:X O *D sky130_fd_sc_hd__o22a_1
*CAP
1 *3091:D 0.00037972
2 *2757:X 0.00037972
3 *3091:D *2661:A0 0.000225911
4 *3091:D *3091:RESET_B 8.7231e-05
5 *3091:D *739:16 0.000145917
6 *3091:D *739:22 8.08153e-06
7 *3091:D *772:56 7.00889e-06
8 *2446:B *3091:D 2.79004e-05
9 *116:10 *3091:D 0.000180193
10 *116:38 *3091:D 4.9968e-05
11 *374:27 *3091:D 0.000183036
*RES
1 *2757:X *3091:D 16.59 
*END

*D_NET *465 0.00233946
*CONN
*I *3092:D I *D sky130_fd_sc_hd__dfrtp_1
*I *2760:X O *D sky130_fd_sc_hd__a22o_1
*CAP
1 *3092:D 0.000764338
2 *2760:X 0.000764338
3 *3092:D *2659:A1 0.000104463
4 *3092:D *2760:B1 4.57693e-05
5 *3092:D *2760:B2 4.66108e-05
6 *3092:D *3325:A 0.000449853
7 *3092:D *3327:A 0.000123751
8 *3092:D *505:38 2.10433e-05
9 *2755:B1 *3092:D 1.92979e-05
10 *3251:A *3092:D 0
*RES
1 *2760:X *3092:D 15.3018 
*END

*D_NET *466 0.00326435
*CONN
*I *3093:D I *D sky130_fd_sc_hd__dfrtp_1
*I *2766:X O *D sky130_fd_sc_hd__mux2_4
*CAP
1 *3093:D 0.000973138
2 *2766:X 0.000973138
3 *3093:D *2766:A0 0
4 *3093:D *2766:S 0
5 *3093:D *2783:CLK 0.000516974
6 *3093:D *3094:D 7.00889e-06
7 *3093:D *3095:D 0.000159059
8 *3093:D *3228:A 5.83121e-06
9 *3093:D *771:28 0.000116429
10 *3093:D *885:115 0.000355005
11 *3093:D *945:25 5.83121e-06
12 *3093:D *955:59 3.09164e-05
13 *3147:A *3093:D 0.000121022
*RES
1 *2766:X *3093:D 24.105 
*END

*D_NET *467 0.000507996
*CONN
*I *3094:D I *D sky130_fd_sc_hd__dfrtp_1
*I *2772:X O *D sky130_fd_sc_hd__a22o_1
*CAP
1 *3094:D 0.000174451
2 *2772:X 0.000174451
3 *3094:D *2772:A2 3.64998e-06
4 *3094:D *771:14 4.40812e-05
5 *3094:D *945:25 4.14782e-05
6 *3093:D *3094:D 7.00889e-06
7 *383:10 *3094:D 6.28765e-05
*RES
1 *2772:X *3094:D 10.065 
*END

*D_NET *468 0.00145299
*CONN
*I *3095:D I *D sky130_fd_sc_hd__dfrtp_1
*I *2778:X O *D sky130_fd_sc_hd__a22o_1
*CAP
1 *3095:D 0.000331686
2 *2778:X 0.000331686
3 *3095:D *3096:D 0.000368912
4 *3095:D *955:59 0.000102592
5 *3093:D *3095:D 0.000159059
6 *3147:A *3095:D 0.000159059
*RES
1 *2778:X *3095:D 15.42 
*END

*D_NET *469 0.00190523
*CONN
*I *3096:D I *D sky130_fd_sc_hd__dfrtp_1
*I *2782:X O *D sky130_fd_sc_hd__a22o_1
*CAP
1 *3096:D 0.000724449
2 *2782:X 0.000724449
3 *3096:D *2778:B2 4.9253e-06
4 *3096:D *939:23 7.23602e-05
5 *3096:D *942:20 1.01315e-05
6 *3095:D *3096:D 0.000368912
*RES
1 *2782:X *3096:D 16.155 
*END

*D_NET *470 0.00098513
*CONN
*I *2683:A1 I *D sky130_fd_sc_hd__o22ai_1
*I *2378:Y O *D sky130_fd_sc_hd__inv_2
*CAP
1 *2683:A1 0.000223016
2 *2378:Y 0.000223016
3 *2683:A1 *2378:A 4.62466e-05
4 *2683:A1 *2697:D_N 7.23533e-05
5 *2683:A1 *672:53 0.00039046
6 *2683:A1 *1018:12 0
7 *3099:A *2683:A1 3.00381e-05
*RES
1 *2378:Y *2683:A1 12.39 
*END

*D_NET *471 0.00498926
*CONN
*I *2683:B2 I *D sky130_fd_sc_hd__o22ai_1
*I *2379:Y O *D sky130_fd_sc_hd__inv_2
*CAP
1 *2683:B2 0.00143886
2 *2379:Y 0.00143886
3 *2683:B2 *2384:A 0
4 *2683:B2 *2683:B1 8.8266e-05
5 *2683:B2 *2685:A 8.7512e-05
6 *2683:B2 *2707:A 0.000246778
7 *2683:B2 *2725:B 8.8266e-05
8 *2683:B2 *2728:B1 0.000229897
9 *2683:B2 *2730:A1 0.000404409
10 *2683:B2 *2740:A1 0.000115699
11 *2683:B2 *2740:A3 0
12 *2683:B2 *2740:B2 0
13 *2683:B2 *2762:A1 0
14 *2683:B2 *2762:A2 0
15 *2683:B2 *3347:A 9.6032e-05
16 *2683:B2 *672:70 0.000237249
17 *2683:B2 *718:25 0
18 *2683:B2 *991:16 0.000411085
19 *2683:B2 *992:16 9.5099e-05
20 *2683:B2 *992:27 1.12578e-05
*RES
1 *2379:Y *2683:B2 33.945 
*END

*D_NET *472 0.00148847
*CONN
*I *2688:B I *D sky130_fd_sc_hd__or3_1
*I *2700:A1_N I *D sky130_fd_sc_hd__o2bb2a_4
*I *2380:Y O *D sky130_fd_sc_hd__inv_2
*CAP
1 *2688:B 0.000148754
2 *2700:A1_N 0
3 *2380:Y 0.000200205
4 *472:14 0.000348959
5 *2688:B *2688:A 0.000225596
6 *2688:B *2703:C1 0.000203886
7 *2688:B *672:43 9.53428e-06
8 *2688:B *982:75 9.78539e-05
9 *472:14 *2703:C1 6.97352e-05
10 *472:14 *2728:C1 4.99619e-05
11 *472:14 *891:23 3.68769e-05
12 *472:14 *982:75 0
13 *472:14 *1018:12 9.71067e-05
*RES
1 *2380:Y *472:14 9.605 
2 *472:14 *2700:A1_N 1.6 
3 *472:14 *2688:B 5.89 
*END

*D_NET *473 0.00207051
*CONN
*I *2671:A1 I *D sky130_fd_sc_hd__o31a_1
*I *2381:Y O *D sky130_fd_sc_hd__inv_2
*CAP
1 *2671:A1 0.000356747
2 *2381:Y 0.000356747
3 *2671:A1 *2671:A2 1.16578e-05
4 *2671:A1 *2671:B1 0.000229219
5 *2671:A1 *2672:A 2.49909e-05
6 *2671:A1 *2676:B 4.66108e-05
7 *2671:A1 *2679:B 2.75229e-05
8 *2671:A1 *3180:A 0.000515109
9 *2671:A1 *672:21 0.000183043
10 *2671:A1 *887:12 0.000145845
11 *2671:A1 *887:99 9.16887e-05
12 *2671:A1 *954:38 4.66108e-05
13 *2671:A1 *997:20 3.47174e-05
14 *2671:A1 *1050:31 0
*RES
1 *2381:Y *2671:A1 17.235 
*END

*D_NET *474 0.00940735
*CONN
*I *2447:B I *D sky130_fd_sc_hd__and3b_1
*I *2698:A1 I *D sky130_fd_sc_hd__a31o_1
*I *2383:C_N I *D sky130_fd_sc_hd__or3b_4
*I *2680:A I *D sky130_fd_sc_hd__and3_1
*I *2382:X O *D sky130_fd_sc_hd__and2b_1
*CAP
1 *2447:B 0.000459796
2 *2698:A1 0
3 *2383:C_N 6.72098e-05
4 *2680:A 0.000258766
5 *2382:X 3.29957e-05
6 *474:45 0.000731781
7 *474:25 0.00137209
8 *474:6 0.000539488
9 *2383:C_N *2383:B 0.000283732
10 *2383:C_N *2698:A3 0.000234669
11 *2383:C_N *502:42 1.33285e-05
12 *2383:C_N *502:55 4.66108e-05
13 *2447:B *2388:A 0.000223022
14 *2447:B *2447:C 9.30717e-05
15 *2447:B *2671:A3 0.000308037
16 *2447:B *2676:B 1.77595e-05
17 *2447:B *3366:A 1.16854e-05
18 *2447:B *950:123 0.000256702
19 *2680:A *2426:C 8.40213e-05
20 *2680:A *2680:C 0.00030615
21 *2680:A *3101:A 4.82863e-05
22 *2680:A *3183:A 3.38425e-05
23 *2680:A *3366:A 0.000196364
24 *2680:A *868:39 0.000164441
25 *2680:A *891:72 9.14049e-05
26 *2680:A *950:63 1.60203e-05
27 *2680:A *950:80 1.01182e-05
28 *2680:A *952:40 0.000304468
29 *2680:A *1048:10 0.000113841
30 *2680:A *1048:31 0.000367262
31 *474:6 *3366:A 0.000107205
32 *474:6 *952:40 0.000118081
33 *474:25 *2449:C 0.000130828
34 *474:25 *2450:B 1.14559e-05
35 *474:25 *2694:C 3.05646e-05
36 *474:25 *772:10 0.000597573
37 *474:25 *950:35 0.000130106
38 *474:25 *954:8 0.000238852
39 *474:45 *2383:B 2.04101e-05
40 *474:45 *2449:A_N 9.0444e-05
41 *474:45 *2450:A_N 0.000177727
42 *474:45 *2450:B 3.47837e-05
43 *474:45 *2450:D 0
44 *474:45 *2664:D 6.51234e-06
45 *474:45 *2694:A 9.17261e-05
46 *474:45 *3359:A 0.000161529
47 *474:45 *502:55 8.30403e-05
48 *474:45 *696:28 1.58761e-05
49 *474:45 *772:10 9.37731e-05
50 *474:45 *772:12 0.000389572
51 *474:45 *775:8 7.12055e-05
52 *474:45 *966:16 0.000119114
*RES
1 *2382:X *474:6 2.74 
2 *474:6 *2680:A 14.75 
3 *474:6 *474:25 9.245 
4 *474:25 *474:45 19.26 
5 *474:45 *2383:C_N 4.465 
6 *474:45 *2698:A1 1.6 
7 *474:25 *2447:B 16.195 
*END

*D_NET *475 0.00461382
*CONN
*I *2384:A I *D sky130_fd_sc_hd__inv_2
*I *2690:A2 I *D sky130_fd_sc_hd__o31ai_1
*I *2394:A1 I *D sky130_fd_sc_hd__o21ai_1
*I *2763:B1 I *D sky130_fd_sc_hd__a21oi_1
*I *2383:X O *D sky130_fd_sc_hd__or3b_4
*CAP
1 *2384:A 8.91807e-05
2 *2690:A2 0.000275756
3 *2394:A1 0
4 *2763:B1 0.00010154
5 *2383:X 0.000586649
6 *475:38 0.000531458
7 *475:20 0.000225703
8 *475:14 0.000877333
9 *2384:A *2685:A 0
10 *2384:A *2762:A1 0.000128059
11 *2690:A2 *2762:B1 0.000366186
12 *2690:A2 *931:34 1.91597e-05
13 *2763:B1 *2394:A2 5.05521e-05
14 *2763:B1 *2666:A0 8.57237e-05
15 *2763:B1 *2764:D 4.82863e-05
16 *2763:B1 *672:84 0.000149613
17 *475:14 *2383:B 2.61299e-05
18 *475:14 *2428:A 9.50342e-06
19 *475:14 *2682:A 8.88631e-05
20 *475:14 *2698:A3 8.08153e-06
21 *475:14 *2699:A2 2.86265e-06
22 *475:14 *2783:RESET_B 1.23607e-05
23 *475:14 *502:42 1.89685e-05
24 *475:14 *953:10 5.39961e-05
25 *475:20 *2394:A2 1.61831e-05
26 *475:20 *2394:B1 0.000229314
27 *475:20 *672:84 0.000108453
28 *475:20 *931:14 0
29 *475:38 *2389:A 7.70424e-07
30 *475:38 *2394:B1 0.000154947
31 *475:38 *2685:A 0
32 *475:38 *2686:A1 1.67879e-05
33 *475:38 *2761:B2 6.85735e-05
34 *475:38 *2762:A1 7.16255e-05
35 *475:38 *2762:B1 4.7878e-05
36 *475:38 *480:10 8.35734e-05
37 *475:38 *672:84 2.10868e-05
38 *2683:B2 *2384:A 0
39 *2783:D *475:20 4.43871e-06
40 *2783:D *475:38 3.4222e-05
*RES
1 *2383:X *475:14 14.53 
2 *475:14 *475:20 5.45 
3 *475:20 *2763:B1 4.84 
4 *475:20 *2394:A1 1.6 
5 *475:14 *475:38 4.185 
6 *475:38 *2690:A2 7.3275 
7 *475:38 *2384:A 5.235 
*END

*D_NET *476 0.00192728
*CONN
*I *3217:A I *D sky130_fd_sc_hd__clkbuf_2
*I *3308:A I *D sky130_fd_sc_hd__clkbuf_1
*I *2385:Y O *D sky130_fd_sc_hd__nor4_1
*CAP
1 *3217:A 5.78625e-05
2 *3308:A 8.51279e-05
3 *2385:Y 9.57983e-05
4 *476:12 0.000238789
5 *3217:A *940:42 0.000156621
6 *3217:A *940:44 2.07184e-05
7 *3217:A *943:43 0.000170876
8 *3217:A *943:82 8.8246e-06
9 *3308:A *2400:C 0.000115464
10 *3308:A *2424:B 0.000162784
11 *3308:A *2424:C 1.7902e-05
12 *3308:A *2503:D 4.35348e-05
13 *3308:A *488:14 7.21296e-06
14 *3308:A *909:18 0.000124895
15 *3308:A *940:44 2.92496e-05
16 *3308:A *943:43 4.38051e-05
17 *476:12 *2385:B 2.05056e-05
18 *476:12 *2385:C 0.000258958
19 *476:12 *2400:A_N 0.00019637
20 *476:12 *936:18 6.61483e-05
21 *476:12 *943:58 5.83121e-06
*RES
1 *2385:Y *476:12 6.93 
2 *476:12 *3308:A 6.885 
3 *476:12 *3217:A 5.745 
*END

*D_NET *477 0.0139691
*CONN
*I *3215:A I *D sky130_fd_sc_hd__buf_2
*I *3214:A I *D sky130_fd_sc_hd__clkbuf_4
*I *2386:X O *D sky130_fd_sc_hd__or4_1
*CAP
1 *3215:A 0
2 *3214:A 0.00233382
3 *2386:X 0.00136833
4 *477:30 0.00370215
5 *3214:A *2504:B1 1.7635e-05
6 *3214:A *2509:A2 0.000106067
7 *3214:A *2515:A2 3.37704e-05
8 *3214:A *2625:B2 0.00232537
9 *3214:A *2639:A 0
10 *3214:A *671:26 0.000152059
11 *3214:A *812:28 0.000737112
12 *3214:A *844:20 0.00171684
13 *3214:A *885:32 0
14 *3214:A *889:56 4.12303e-05
15 *3214:A *919:35 4.03791e-05
16 *477:30 *2403:A 1.31297e-05
17 *477:30 *2403:B 4.65607e-05
18 *477:30 *2420:A_N 3.00381e-05
19 *477:30 *2495:A2 9.65286e-05
20 *477:30 *2504:B1 0.000255611
21 *477:30 *2595:C1 4.82919e-05
22 *477:30 *2602:B 6.83447e-05
23 *477:30 *2939:D 0.00015655
24 *477:30 *3058:D 4.4162e-05
25 *477:30 *3138:A 7.23635e-05
26 *477:30 *3139:A 8.51879e-05
27 *477:30 *490:14 1.7635e-05
28 *477:30 *869:66 4.41506e-05
29 *477:30 *917:62 8.51879e-05
30 *477:30 *925:133 0.000280261
31 *477:30 *948:33 1.80324e-05
32 *3127:A *3214:A 0
33 *3129:A *3214:A 2.05641e-05
34 *439:8 *477:30 1.17309e-05
*RES
1 *2386:X *477:30 30.255 
2 *477:30 *3214:A 15.6067 
3 *477:30 *3215:A 1.6 
*END

*D_NET *478 0.00412939
*CONN
*I *2433:A I *D sky130_fd_sc_hd__nand2_4
*I *2434:A2 I *D sky130_fd_sc_hd__a211oi_2
*I *2691:A I *D sky130_fd_sc_hd__and3_1
*I *2388:B I *D sky130_fd_sc_hd__nor2_1
*I *2387:X O *D sky130_fd_sc_hd__or3b_1
*CAP
1 *2433:A 9.57034e-05
2 *2434:A2 1.45824e-05
3 *2691:A 5.02911e-05
4 *2388:B 0.000153192
5 *2387:X 3.0159e-05
6 *478:36 0.000893115
7 *478:23 0.000990134
8 *478:8 0.000340364
9 *2388:B *2691:C 6.82231e-05
10 *2388:B *3178:A 4.66742e-05
11 *2388:B *3180:A 0.00040166
12 *2388:B *678:8 0.000100536
13 *2388:B *887:22 4.92062e-05
14 *2388:B *982:27 3.85797e-05
15 *2433:A *2434:A1 0.000261341
16 *2433:A *3311:A 0.00011669
17 *2433:A *507:12 1.26626e-05
18 *2434:A2 *2434:A1 5.39961e-05
19 *2434:A2 *3311:A 2.24336e-05
20 *2691:A *2824:D 0
21 *478:8 *2695:D_N 4.05358e-05
22 *478:8 *3180:A 8.76033e-05
23 *478:8 *982:27 8.09021e-06
24 *478:23 *2691:C 1.87584e-05
25 *478:23 *2824:D 1.4399e-05
26 *478:36 *2434:A1 3.1835e-05
27 *478:36 *2434:C1 0.000158066
28 *478:36 *2824:D 1.71034e-05
29 *478:36 *766:31 1.34594e-05
*RES
1 *2387:X *478:8 4.725 
2 *478:8 *2388:B 9.09 
3 *478:8 *478:23 4.175 
4 *478:23 *2691:A 2.47 
5 *478:23 *478:36 10.745 
6 *478:36 *2434:A2 4.215 
7 *478:36 *2433:A 7.02 
*END

*D_NET *479 0.00286135
*CONN
*I *3178:A I *D sky130_fd_sc_hd__clkbuf_4
*I *2388:Y O *D sky130_fd_sc_hd__nor2_1
*CAP
1 *3178:A 0.000551708
2 *2388:Y 0.000551708
3 *3178:A *2439:B 0.000268203
4 *3178:A *2672:A 0
5 *3178:A *2757:B2 8.40269e-05
6 *3178:A *3324:A 9.30787e-05
7 *3178:A *3345:A 0.00015806
8 *3178:A *503:16 3.7916e-05
9 *3178:A *882:52 0.00019629
10 *3178:A *885:14 0.00014288
11 *3178:A *885:26 5.13397e-05
12 *3178:A *887:22 8.72029e-05
13 *3178:A *1050:10 0.000266952
14 *2388:B *3178:A 4.66742e-05
15 *2438:B *3178:A 8.40269e-05
16 *2445:A *3178:A 4.66826e-05
17 *2445:B *3178:A 1.71013e-05
18 *2823:D *3178:A 8.6099e-05
19 *431:10 *3178:A 0
20 *433:10 *3178:A 9.14049e-05
*RES
1 *2388:Y *3178:A 22.29 
*END

*D_NET *480 0.00263192
*CONN
*I *2684:C1 I *D sky130_fd_sc_hd__o311a_1
*I *2394:B1 I *D sky130_fd_sc_hd__o21ai_1
*I *2389:Y O *D sky130_fd_sc_hd__nand2_1
*CAP
1 *2684:C1 0.000370052
2 *2394:B1 0.000154018
3 *2389:Y 7.43235e-05
4 *480:10 0.000598393
5 *2394:B1 *2686:A1 5.02892e-05
6 *2394:B1 *510:32 0.000315123
7 *2394:B1 *675:37 0
8 *2394:B1 *931:14 0
9 *2684:C1 *2682:B 2.781e-05
10 *2684:C1 *2684:B1 4.66108e-05
11 *2684:C1 *2685:C_N 4.99619e-05
12 *2684:C1 *2690:B1 0.00018202
13 *2684:C1 *508:46 2.82649e-05
14 *2684:C1 *675:37 0.00015896
15 *480:10 *2686:A1 9.04308e-05
16 *480:10 *2762:B1 5.83121e-06
17 *480:10 *931:34 1.19928e-05
18 *475:20 *2394:B1 0.000229314
19 *475:38 *2394:B1 0.000154947
20 *475:38 *480:10 8.35734e-05
*RES
1 *2389:Y *480:10 5.175 
2 *480:10 *2394:B1 8.295 
3 *480:10 *2684:C1 10.3687 
*END

*D_NET *481 0.00312696
*CONN
*I *2736:A1 I *D sky130_fd_sc_hd__a221o_1
*I *2733:A1 I *D sky130_fd_sc_hd__o21ai_1
*I *2390:Y O *D sky130_fd_sc_hd__nor2_1
*CAP
1 *2736:A1 1.47129e-05
2 *2733:A1 0.000270209
3 *2390:Y 0.000428507
4 *481:14 0.00071343
5 *2733:A1 *2391:C 0.000157959
6 *2733:A1 *2443:A 0
7 *2733:A1 *2733:A2 0.000307348
8 *2733:A1 *2736:B1 7.06865e-05
9 *2733:A1 *2742:A2 0.000151778
10 *2733:A1 *783:37 3.18137e-05
11 *2733:A1 *801:14 3.09233e-05
12 *2733:A1 *801:25 0.000474775
13 *2736:A1 *2736:B1 7.57315e-05
14 *2736:A1 *801:25 6.7888e-05
15 *481:14 *2731:A1 0
16 *481:14 *2731:A2 0
17 *481:14 *2731:B1 5.53249e-06
18 *481:14 *2736:B2 1.43738e-05
19 *481:14 *2736:C1 0.000311288
20 *481:14 *3347:A 0
*RES
1 *2390:Y *481:14 13.225 
2 *481:14 *2733:A1 12.45 
3 *481:14 *2736:A1 4.47 
*END

*D_NET *482 0.00089136
*CONN
*I *2741:A1 I *D sky130_fd_sc_hd__o21ai_1
*I *2743:A1 I *D sky130_fd_sc_hd__a21bo_1
*I *2391:X O *D sky130_fd_sc_hd__or3_1
*CAP
1 *2741:A1 0
2 *2743:A1 4.11563e-05
3 *2391:X 9.22099e-05
4 *482:12 0.000133366
5 *2743:A1 *722:14 4.66108e-05
6 *2743:A1 *722:18 0.000160635
7 *2743:A1 *782:53 0.00019637
8 *482:12 *2443:A 0.000134509
9 *482:12 *718:19 1.7386e-05
10 *482:12 *722:10 5.83373e-05
11 *482:12 *722:75 1.07797e-05
*RES
1 *2391:X *482:12 7.685 
2 *482:12 *2743:A1 3.43 
3 *482:12 *2741:A1 1.6 
*END

*D_NET *483 0.00351485
*CONN
*I *3307:A I *D sky130_fd_sc_hd__buf_1
*I *2761:B1 I *D sky130_fd_sc_hd__a32o_1
*I *2393:A I *D sky130_fd_sc_hd__inv_2
*I *2392:Y O *D sky130_fd_sc_hd__nor4_1
*CAP
1 *3307:A 2.51931e-05
2 *2761:B1 0.000161625
3 *2393:A 1.85694e-05
4 *2392:Y 0.000601871
5 *483:21 0.000432883
6 *483:8 0.000866505
7 *2393:A *2728:A1 9.53428e-06
8 *2761:B1 *2701:A 1.23707e-05
9 *2761:B1 *2761:B2 4.2709e-05
10 *2761:B1 *2762:A2 0
11 *2761:B1 *2763:A1 0.000241762
12 *2761:B1 *2764:B 1.79892e-05
13 *2761:B1 *672:70 1.53986e-05
14 *2761:B1 *931:10 5.64565e-05
15 *2761:B1 *931:14 3.47363e-05
16 *3307:A *804:10 4.66108e-05
17 *483:8 *2677:A3 0.000124895
18 *483:8 *2764:C 6.51823e-07
19 *483:8 *3104:A 9.80032e-06
20 *483:8 *783:26 2.49909e-05
21 *483:8 *783:37 0.000270598
22 *483:8 *785:14 4.99619e-05
23 *483:21 *2443:A 1.01661e-05
24 *483:21 *2728:A1 1.08758e-05
25 *483:21 *2762:A2 0
26 *483:21 *2763:A1 0.000292248
27 *483:21 *2764:D 4.03082e-05
28 *483:21 *722:10 9.61344e-05
*RES
1 *2392:Y *483:8 9.31 
2 *483:8 *2393:A 1.96 
3 *483:8 *483:21 6.89 
4 *483:21 *2761:B1 7.4925 
5 *483:21 *3307:A 4.05 
*END

*D_NET *484 0.00283323
*CONN
*I *2728:A1 I *D sky130_fd_sc_hd__o221a_2
*I *2763:A1 I *D sky130_fd_sc_hd__a21oi_1
*I *2393:Y O *D sky130_fd_sc_hd__inv_2
*CAP
1 *2728:A1 0.000161396
2 *2763:A1 0.000339061
3 *2393:Y 0
4 *484:4 0.000500457
5 *2728:A1 *2728:A2 8.65961e-05
6 *2728:A1 *722:10 4.43682e-05
7 *2763:A1 *2764:D 0.000938276
8 *2763:A1 *881:31 0.000191879
9 *2763:A1 *931:14 1.67799e-05
10 *2393:A *2728:A1 9.53428e-06
11 *2761:B1 *2763:A1 0.000241762
12 *483:21 *2728:A1 1.08758e-05
13 *483:21 *2763:A1 0.000292248
*RES
1 *2393:Y *484:4 1.6 
2 *484:4 *2763:A1 17.12 
3 *484:4 *2728:A1 4.645 
*END

*D_NET *485 0.00535933
*CONN
*I *3138:A I *D sky130_fd_sc_hd__buf_2
*I *3139:A I *D sky130_fd_sc_hd__dlymetal6s2s_1
*I *2394:Y O *D sky130_fd_sc_hd__o21ai_1
*CAP
1 *3138:A 0.000725883
2 *3139:A 4.5186e-05
3 *2394:Y 0.000746971
4 *485:12 0.00151804
5 *3138:A *2403:A 2.49909e-05
6 *3138:A *2405:A 8.95518e-05
7 *3138:A *2421:B 4.66108e-05
8 *3138:A *2425:A 1.67131e-05
9 *3138:A *2898:D 7.93317e-05
10 *3138:A *2914:GATE_N 9.17861e-06
11 *3138:A *651:26 0.000110287
12 *3138:A *808:54 4.66108e-05
13 *3138:A *808:80 4.82863e-05
14 *3138:A *826:10 8.66976e-06
15 *3138:A *826:12 0
16 *3138:A *828:8 5.61375e-05
17 *3138:A *828:18 3.67085e-05
18 *3138:A *840:10 0.00033311
19 *3138:A *841:15 0.000119645
20 *3138:A *869:68 3.97827e-05
21 *3138:A *869:74 0.000154165
22 *3138:A *893:59 1.35771e-05
23 *3138:A *895:63 2.30776e-05
24 *3138:A *919:49 0.000240754
25 *3139:A *2403:A 4.60061e-05
26 *485:12 *2504:B1 8.97799e-05
27 *485:12 *2783:RESET_B 0
28 *485:12 *2784:RESET_B 0
29 *485:12 *2786:CLK 0
30 *485:12 *3058:D 0
31 *485:12 *502:10 3.74736e-05
32 *485:12 *510:32 7.24033e-05
33 *485:12 *773:20 0.000117116
34 *485:12 *812:10 9.11989e-05
35 *2504:A1 *3138:A 1.3175e-05
36 *3111:A *3138:A 0
37 *3128:A *485:12 0.000133662
38 *3129:A *485:12 6.76938e-05
39 *477:30 *3138:A 7.23635e-05
40 *477:30 *3139:A 8.51879e-05
*RES
1 *2394:Y *485:12 18.875 
2 *485:12 *3139:A 2.755 
3 *485:12 *3138:A 21.44 
*END

*D_NET *486 0.00426739
*CONN
*I *3306:A I *D sky130_fd_sc_hd__clkbuf_1
*I *3213:A I *D sky130_fd_sc_hd__buf_2
*I *2396:Y O *D sky130_fd_sc_hd__nor4b_1
*CAP
1 *3306:A 0
2 *3213:A 0.000706608
3 *2396:Y 0.000762645
4 *486:18 0.00146925
5 *3213:A *2399:B 4.58406e-05
6 *3213:A *2987:D 6.42013e-05
7 *3213:A *2987:GATE_N 0.000201916
8 *3213:A *3019:GATE_N 2.25161e-05
9 *3213:A *3194:A 3.3795e-05
10 *3213:A *850:31 0.000110892
11 *3213:A *870:24 7.81876e-05
12 *3213:A *904:10 0.000197633
13 *3213:A *938:26 0.000136883
14 *486:18 *3192:A 1.88904e-05
15 *486:18 *3197:A 1.7635e-05
16 *486:18 *493:8 0.000114113
17 *486:18 *925:33 9.93259e-05
18 *486:18 *943:82 6.3596e-05
19 *2597:A1 *3213:A 0.00011577
20 *3115:A *3213:A 7.68414e-06
*RES
1 *2396:Y *486:18 9.4268 
2 *486:18 *3213:A 18.53 
3 *486:18 *3306:A 1.6 
*END

*D_NET *487 0.00285303
*CONN
*I *3305:A I *D sky130_fd_sc_hd__clkbuf_1
*I *3372:A I *D sky130_fd_sc_hd__clkbuf_1
*I *2398:Y O *D sky130_fd_sc_hd__nor4b_1
*CAP
1 *3305:A 0.000242691
2 *3372:A 0.000398507
3 *2398:Y 5.74818e-05
4 *487:8 0.00069868
5 *3305:A *2599:C1 0
6 *3305:A *753:12 5.07419e-05
7 *3305:A *870:24 0.000119631
8 *3305:A *940:105 2.59981e-05
9 *3372:A *2400:C 3.68784e-05
10 *3372:A *2424:C 0.00013521
11 *3372:A *3212:A 0.000720381
12 *3372:A *488:14 0
13 *3372:A *936:18 9.17274e-05
14 *3372:A *940:42 5.01427e-05
15 *3372:A *940:44 2.15594e-05
16 *3372:A *940:77 3.23391e-05
17 *3372:A *940:105 8.44698e-05
18 *487:8 *2416:C 8.65905e-05
*RES
1 *2398:Y *487:8 4.395 
2 *487:8 *3372:A 13.395 
3 *487:8 *3305:A 8.085 
*END

*D_NET *488 0.00639495
*CONN
*I *3209:A I *D sky130_fd_sc_hd__buf_2
*I *3208:A I *D sky130_fd_sc_hd__clkbuf_4
*I *2400:X O *D sky130_fd_sc_hd__and4bb_1
*CAP
1 *3209:A 0.000823083
2 *3208:A 0.000410177
3 *2400:X 0.000407012
4 *488:14 0.00164027
5 *3208:A *2469:B1 9.26619e-05
6 *3208:A *2911:GATE_N 0.000293033
7 *3208:A *3198:A 0
8 *3208:A *3216:A 0.000781399
9 *3208:A *837:83 0.000345353
10 *3208:A *864:47 0.000135297
11 *3209:A *2462:B1 0.000120655
12 *3209:A *2600:B1 0.000158072
13 *3209:A *3067:D 4.92062e-05
14 *3209:A *808:80 3.61247e-05
15 *3209:A *922:16 9.88492e-05
16 *488:14 *2400:C 0
17 *488:14 *2424:B 4.94404e-05
18 *488:14 *2911:GATE_N 0.000212458
19 *488:14 *3212:A 0
20 *488:14 *3216:A 0.000352166
21 *488:14 *3304:A 0.000302365
22 *2462:B2 *3209:A 3.09179e-05
23 *2600:A1 *3209:A 2.16833e-05
24 *2600:B2 *3209:A 2.75145e-05
25 *3308:A *488:14 7.21296e-06
26 *3372:A *488:14 0
*RES
1 *2400:X *488:14 12.87 
2 *488:14 *3208:A 16.095 
3 *488:14 *3209:A 13.635 
*END

*D_NET *489 0.00296149
*CONN
*I *3207:A I *D sky130_fd_sc_hd__buf_2
*I *3371:A I *D sky130_fd_sc_hd__clkbuf_1
*I *2402:Y O *D sky130_fd_sc_hd__nor4b_1
*CAP
1 *3207:A 0
2 *3371:A 0.000336452
3 *2402:Y 0.00021487
4 *489:10 0.000551321
5 *3371:A *2420:D 9.72794e-05
6 *3371:A *2602:B 0.000308646
7 *3371:A *3202:A 0.000306986
8 *3371:A *498:16 4.80182e-05
9 *489:10 *2602:B 0.000240425
10 *489:10 *3146:A 0.000129709
11 *489:10 *3202:A 0.000139238
12 *489:10 *849:10 4.82919e-05
13 *489:10 *870:24 0.000123444
14 *489:10 *919:14 6.37583e-05
15 *3147:A *489:10 0
16 *3165:A *489:10 0.000353049
*RES
1 *2402:Y *489:10 10.995 
2 *489:10 *3371:A 11.1 
3 *489:10 *3207:A 3.6 
*END

*D_NET *490 0.0122726
*CONN
*I *3205:A I *D sky130_fd_sc_hd__clkbuf_2
*I *3204:A I *D sky130_fd_sc_hd__clkbuf_4
*I *2404:X O *D sky130_fd_sc_hd__and4bb_1
*CAP
1 *3205:A 0.00115121
2 *3204:A 0.00344607
3 *2404:X 0.000388976
4 *490:14 0.00498626
5 *3204:A *2592:B2 2.68717e-05
6 *3204:A *3078:GATE_N 9.58678e-06
7 *3204:A *3190:A 0.000102817
8 *3204:A *3200:A 0.000110491
9 *3204:A *3206:A 0.000955382
10 *3204:A *807:22 2.05641e-05
11 *3205:A *2595:B1 0.00012657
12 *3205:A *2602:A 5.86739e-05
13 *3205:A *3051:D 3.03684e-05
14 *3205:A *3051:GATE_N 3.1835e-05
15 *3205:A *498:16 0.000104138
16 *3205:A *869:29 6.59587e-06
17 *3205:A *869:33 1.58143e-05
18 *3205:A *881:39 6.96106e-05
19 *3205:A *897:29 0.000196364
20 *3205:A *899:29 6.03407e-05
21 *490:14 *2907:D 4.01778e-05
22 *490:14 *2907:GATE_N 1.91597e-05
23 *490:14 *940:14 0.000153816
24 *490:14 *948:33 9.82856e-06
25 *2595:A1 *3205:A 8.40269e-05
26 *2595:B2 *3205:A 4.93821e-05
27 *435:12 *3205:A 0
28 *435:12 *490:14 0
29 *477:30 *490:14 1.7635e-05
*RES
1 *2404:X *490:14 7.43943 
2 *490:14 *3204:A 11.5252 
3 *490:14 *3205:A 19.379 
*END

*D_NET *491 0.00954584
*CONN
*I *3203:A I *D sky130_fd_sc_hd__clkbuf_2
*I *3202:A I *D sky130_fd_sc_hd__clkbuf_4
*I *2406:X O *D sky130_fd_sc_hd__and4bb_1
*CAP
1 *3203:A 0.000278162
2 *3202:A 0.00160205
3 *2406:X 0.000275065
4 *491:6 0.00215528
5 *3202:A *2420:C 4.94404e-05
6 *3202:A *2470:A 0.00011852
7 *3202:A *2470:B 3.86529e-05
8 *3202:A *2520:C1 0.000140013
9 *3202:A *2586:B1 8.80711e-05
10 *3202:A *2602:B 0.000140787
11 *3202:A *2882:GATE_N 0.000135957
12 *3202:A *3078:GATE_N 0.000352937
13 *3202:A *3186:A 0
14 *3202:A *3190:A 0.00109654
15 *3202:A *3191:A 3.98869e-05
16 *3202:A *3200:A 0.000807571
17 *3202:A *492:14 0
18 *3202:A *807:18 0
19 *3202:A *849:31 0
20 *3202:A *863:8 4.99619e-05
21 *3202:A *875:122 2.25075e-05
22 *3202:A *898:10 5.54796e-05
23 *3202:A *914:6 2.75229e-05
24 *3202:A *919:14 7.23533e-05
25 *3203:A *2596:A2 0.000203178
26 *3203:A *2596:B1 8.23457e-05
27 *3203:A *3191:A 7.73773e-05
28 *3203:A *899:6 0.000239813
29 *3203:A *919:29 0.000111285
30 *491:6 *2602:B 7.26176e-06
31 *491:6 *834:72 0.000122331
32 *2519:B2 *3202:A 0.000133535
33 *2586:A1 *3202:A 5.86432e-05
34 *2596:B2 *3203:A 0.000159747
35 *2596:B2 *491:6 4.79712e-05
36 *3113:A *3203:A 0
37 *3145:A *3202:A 0.000101344
38 *3371:A *3202:A 0.000306986
39 *381:18 *3202:A 0.000208033
40 *489:10 *3202:A 0.000139238
*RES
1 *2406:X *491:6 4.81 
2 *491:6 *3202:A 44.96 
3 *491:6 *3203:A 8.89 
*END

*D_NET *492 0.00383428
*CONN
*I *3201:A I *D sky130_fd_sc_hd__clkbuf_2
*I *3200:A I *D sky130_fd_sc_hd__clkbuf_4
*I *2408:X O *D sky130_fd_sc_hd__and4b_1
*CAP
1 *3201:A 1.67099e-05
2 *3200:A 0.000276924
3 *2408:X 0.000354856
4 *492:14 0.00064849
5 *3200:A *3190:A 0.000811592
6 *3201:A *866:41 1.56428e-05
7 *3201:A *893:37 3.57349e-05
8 *492:14 *2420:B 0.000167049
9 *492:14 *2602:B 7.16176e-05
10 *492:14 *849:31 0.000189724
11 *492:14 *866:41 9.14314e-05
12 *492:14 *893:37 0.000236448
13 *3202:A *3200:A 0.000807571
14 *3202:A *492:14 0
15 *3204:A *3200:A 0.000110491
*RES
1 *2408:X *492:14 13.28 
2 *492:14 *3200:A 15.395 
3 *492:14 *3201:A 2.05 
*END

*D_NET *493 0.00178286
*CONN
*I *3199:A I *D sky130_fd_sc_hd__clkbuf_2
*I *3304:A I *D sky130_fd_sc_hd__clkbuf_1
*I *2410:Y O *D sky130_fd_sc_hd__nor4b_1
*CAP
1 *3199:A 2.60155e-05
2 *3304:A 0.000162329
3 *2410:Y 0.000168892
4 *493:8 0.000357237
5 *3199:A *909:18 2.49909e-05
6 *3304:A *2424:B 8.08153e-06
7 *3304:A *3216:A 0.000133555
8 *3304:A *840:44 8.23457e-05
9 *3304:A *892:33 8.40269e-05
10 *3304:A *909:18 0.000137571
11 *3304:A *943:43 1.22762e-05
12 *3304:A *947:34 0
13 *493:8 *3223:A 0
14 *493:8 *940:14 2.60049e-05
15 *493:8 *940:27 3.50959e-05
16 *493:8 *943:41 4.14702e-05
17 *493:8 *943:43 5.66252e-05
18 *493:8 *943:82 9.86707e-06
19 *493:8 *947:43 0
20 *383:10 *3304:A 0
21 *486:18 *493:8 0.000114113
22 *488:14 *3304:A 0.000302365
*RES
1 *2410:Y *493:8 7.53 
2 *493:8 *3304:A 8.58 
3 *493:8 *3199:A 4.05 
*END

*D_NET *494 0.00459213
*CONN
*I *3197:A I *D sky130_fd_sc_hd__clkbuf_2
*I *3196:A I *D sky130_fd_sc_hd__clkbuf_4
*I *2412:X O *D sky130_fd_sc_hd__and4bb_1
*CAP
1 *3197:A 0.000186546
2 *3196:A 0.000679201
3 *2412:X 3.28307e-05
4 *494:8 0.000898578
5 *3196:A *2395:A 4.80285e-05
6 *3196:A *2468:B1 0
7 *3196:A *2503:D 7.06865e-05
8 *3196:A *2598:B1 1.43867e-05
9 *3196:A *2599:C1 0.000530123
10 *3196:A *3192:A 0.000345793
11 *3196:A *3212:A 6.65081e-05
12 *3196:A *893:12 0.000209993
13 *3196:A *893:37 0.000136824
14 *3196:A *906:10 8.65905e-05
15 *3196:A *906:20 4.43871e-06
16 *3196:A *936:20 8.19951e-05
17 *3196:A *936:24 0
18 *3197:A *2599:A2 0.000122337
19 *3197:A *2599:C1 0.000321475
20 *3197:A *3192:A 7.09499e-05
21 *3197:A *3193:A 2.59981e-05
22 *3197:A *870:24 0.00010293
23 *3197:A *938:14 0.000232111
24 *3197:A *938:119 0.000197269
25 *494:8 *3212:A 1.19928e-05
26 *494:8 *850:31 8.73389e-06
27 *494:8 *938:26 8.23457e-05
28 *494:8 *947:77 5.83121e-06
29 *486:18 *3197:A 1.7635e-05
*RES
1 *2412:X *494:8 4.395 
2 *494:8 *3196:A 15.7991 
3 *494:8 *3197:A 10.26 
*END

*D_NET *495 0.00458578
*CONN
*I *3194:A I *D sky130_fd_sc_hd__clkbuf_4
*I *3195:A I *D sky130_fd_sc_hd__clkbuf_2
*I *2414:X O *D sky130_fd_sc_hd__and4bb_1
*CAP
1 *3194:A 0.000948023
2 *3195:A 0.000190082
3 *2414:X 0.000125677
4 *495:8 0.00126378
5 *3194:A *2987:GATE_N 0.000542495
6 *3194:A *2994:D 9.27326e-05
7 *3194:A *3019:GATE_N 1.61831e-05
8 *3194:A *3192:A 7.44453e-05
9 *3194:A *815:12 6.13904e-05
10 *3194:A *850:31 1.44259e-05
11 *3194:A *850:33 7.21296e-06
12 *3194:A *904:10 2.10034e-05
13 *3194:A *938:26 4.82863e-05
14 *3195:A *2599:A2 0.000487276
15 *3195:A *3083:GATE_N 0.000222112
16 *3195:A *3192:A 0.00017219
17 *3195:A *850:33 1.44259e-05
18 *495:8 *925:33 0.000128545
19 *2599:A1 *3194:A 3.67779e-05
20 *3115:A *3194:A 8.49205e-05
21 *3213:A *3194:A 3.3795e-05
*RES
1 *2414:X *495:8 5.775 
2 *495:8 *3195:A 9.825 
3 *495:8 *3194:A 16.74 
*END

*D_NET *496 0.00760433
*CONN
*I *3193:A I *D sky130_fd_sc_hd__clkbuf_2
*I *3192:A I *D sky130_fd_sc_hd__clkbuf_4
*I *2416:X O *D sky130_fd_sc_hd__and4b_1
*CAP
1 *3193:A 0.000106162
2 *3192:A 0.00165928
3 *2416:X 8.88903e-05
4 *496:8 0.00185433
5 *3192:A *2503:D 7.23533e-05
6 *3192:A *2543:C1 7.63125e-05
7 *3192:A *2612:A2 0
8 *3192:A *2612:B1 4.66108e-05
9 *3192:A *2622:A2 0.000626329
10 *3192:A *2623:C1 7.36404e-05
11 *3192:A *2988:D 0.000206123
12 *3192:A *3071:GATE_N 0
13 *3192:A *3083:GATE_N 0.000319433
14 *3192:A *816:8 0
15 *3192:A *816:10 0
16 *3192:A *832:33 0
17 *3192:A *832:37 0
18 *3192:A *844:20 1.59477e-05
19 *3192:A *847:36 0.000137578
20 *3192:A *847:51 0
21 *3192:A *847:57 0.00015997
22 *3192:A *875:24 0.000112097
23 *3192:A *875:30 0
24 *3192:A *893:12 1.17114e-05
25 *3192:A *900:6 0.000141323
26 *3192:A *900:21 9.80943e-06
27 *3192:A *905:10 8.19829e-05
28 *3192:A *929:83 3.34459e-05
29 *3192:A *934:6 0.000382758
30 *3192:A *934:12 0.000135065
31 *3192:A *936:20 0
32 *3192:A *936:24 0
33 *3192:A *938:26 6.14776e-05
34 *3193:A *2599:B1 6.02123e-05
35 *3193:A *2599:C1 7.21296e-06
36 *3193:A *870:24 4.94404e-05
37 *3193:A *938:26 8.08153e-06
38 *496:8 *938:119 0.000120655
39 *2468:B2 *3192:A 0.000114492
40 *2597:A1 *3193:A 0
41 *2599:A1 *3192:A 0
42 *2599:A1 *3193:A 0
43 *2609:B2 *3192:A 5.63318e-05
44 *2612:A1 *3192:A 6.70134e-05
45 *3194:A *3192:A 7.44453e-05
46 *3195:A *3192:A 0.00017219
47 *3196:A *3192:A 0.000345793
48 *3197:A *3192:A 7.09499e-05
49 *3197:A *3193:A 2.59981e-05
50 *486:18 *3192:A 1.88904e-05
*RES
1 *2416:X *496:8 4.74 
2 *496:8 *3192:A 43.41 
3 *496:8 *3193:A 6 
*END

*D_NET *497 0.00809652
*CONN
*I *3191:A I *D sky130_fd_sc_hd__clkbuf_2
*I *3190:A I *D sky130_fd_sc_hd__clkbuf_4
*I *2418:X O *D sky130_fd_sc_hd__and4bb_1
*CAP
1 *3191:A 0.00023016
2 *3190:A 0.00128596
3 *2418:X 0.000521626
4 *497:8 0.00203774
5 *3190:A *2420:C 9.30787e-05
6 *3190:A *2519:B1 0
7 *3190:A *2601:C1 6.75152e-05
8 *3190:A *2939:GATE_N 0.000294661
9 *3190:A *3160:A 0
10 *3190:A *899:29 0
11 *3191:A *2596:A2 0.000164874
12 *3191:A *2596:B1 1.94805e-05
13 *3191:A *919:14 0.0004437
14 *497:8 *2875:D 0.000419386
15 *497:8 *3035:D 8.82557e-05
16 *497:8 *850:31 1.0418e-05
17 *497:8 *941:21 4.66108e-05
18 *2596:A1 *3190:A 0
19 *2596:A1 *3191:A 0
20 *2596:B2 *3191:A 4.82919e-05
21 *3145:A *3190:A 0.00019655
22 *3200:A *3190:A 0.000811592
23 *3202:A *3190:A 0.00109654
24 *3202:A *3191:A 3.98869e-05
25 *3203:A *3191:A 7.73773e-05
26 *3204:A *3190:A 0.000102817
*RES
1 *2418:X *497:8 10.26 
2 *497:8 *3190:A 32.31 
3 *497:8 *3191:A 9.975 
*END

*D_NET *498 0.00652193
*CONN
*I *3189:A I *D sky130_fd_sc_hd__clkbuf_2
*I *3188:A I *D sky130_fd_sc_hd__clkbuf_4
*I *2420:X O *D sky130_fd_sc_hd__and4b_1
*CAP
1 *3189:A 0
2 *3188:A 0.00140943
3 *2420:X 0.000630018
4 *498:16 0.00203945
5 *3188:A *2464:A2 0
6 *3188:A *2465:B1 0
7 *3188:A *2471:B1 6.57653e-06
8 *3188:A *2472:B 5.42473e-05
9 *3188:A *2509:A2 0
10 *3188:A *2520:A2 0
11 *3188:A *2603:B1 0.00015381
12 *3188:A *822:39 0.000115872
13 *3188:A *865:59 0.000466248
14 *3188:A *881:39 0.000526815
15 *3188:A *881:57 9.65299e-05
16 *3188:A *912:43 2.75473e-05
17 *3188:A *919:35 4.1977e-05
18 *3188:A *919:55 0.000131092
19 *498:16 *2465:B1 8.26048e-06
20 *498:16 *2603:B1 4.82863e-05
21 *498:16 *3051:D 8.40213e-05
22 *498:16 *3051:GATE_N 8.49205e-05
23 *498:16 *917:8 0.00010698
24 *2463:A1 *3188:A 1.37861e-05
25 *2496:B2 *3188:A 0.000108257
26 *2499:A1 *3188:A 7.15815e-05
27 *2595:A1 *498:16 2.57231e-05
28 *2595:B2 *498:16 5.81326e-05
29 *2792:D *3188:A 6.02123e-05
30 *3205:A *498:16 0.000104138
31 *3371:A *498:16 4.80182e-05
*RES
1 *2420:X *498:16 12.31 
2 *498:16 *3188:A 32 
3 *498:16 *3189:A 1.6 
*END

*D_NET *499 0.00727238
*CONN
*I *3187:A I *D sky130_fd_sc_hd__clkbuf_2
*I *3186:A I *D sky130_fd_sc_hd__clkbuf_4
*I *2422:X O *D sky130_fd_sc_hd__and4b_1
*CAP
1 *3187:A 0
2 *3186:A 0.00122576
3 *2422:X 0.000384997
4 *499:18 0.00161075
5 *3186:A *2520:B1 0.000100134
6 *3186:A *2520:C1 6.29933e-05
7 *3186:A *2540:A2 0.00030935
8 *3186:A *2585:A2 0.000238214
9 *3186:A *2586:A2 4.66108e-05
10 *3186:A *2600:B1 6.04355e-05
11 *3186:A *2882:GATE_N 0.000471303
12 *3186:A *2932:D 0
13 *3186:A *2943:GATE_N 2.0644e-05
14 *3186:A *580:16 7.23602e-05
15 *3186:A *807:18 4.92971e-05
16 *3186:A *847:131 2.10214e-05
17 *3186:A *849:31 1.01152e-05
18 *3186:A *849:35 4.66474e-05
19 *3186:A *875:122 0.000183036
20 *3186:A *895:8 0.000120684
21 *3186:A *899:33 0.000548799
22 *3186:A *914:95 4.40414e-05
23 *3186:A *918:124 9.28053e-05
24 *3186:A *922:27 5.96023e-05
25 *3186:A *925:43 5.70461e-06
26 *499:18 *2422:C 4.82863e-05
27 *499:18 *2891:D 8.73147e-06
28 *499:18 *3035:GATE_N 0.000165704
29 *499:18 *834:72 0.000220525
30 *499:18 *866:41 1.74678e-05
31 *499:18 *892:33 7.9642e-06
32 *499:18 *893:37 0.000233004
33 *499:18 *939:46 4.9968e-05
34 *499:18 *944:31 4.82863e-05
35 *2519:A1 *3186:A 8.90632e-05
36 *2520:A1 *3186:A 0.000304625
37 *2520:B2 *3186:A 3.50033e-05
38 *2600:A1 *3186:A 3.49165e-05
39 *2600:A1 *499:18 4.66108e-05
40 *2601:B2 *3186:A 0.000158066
41 *3145:A *3186:A 1.88466e-05
42 *3202:A *3186:A 0
*RES
1 *2422:X *499:18 14.42 
2 *499:18 *3186:A 41.29 
3 *499:18 *3187:A 1.6 
*END

*D_NET *500 0.000920354
*CONN
*I *3184:A I *D sky130_fd_sc_hd__clkbuf_4
*I *3185:A I *D sky130_fd_sc_hd__buf_2
*I *2424:X O *D sky130_fd_sc_hd__and4_1
*CAP
1 *3184:A 0
2 *3185:A 7.88553e-05
3 *2424:X 0.000102192
4 *500:10 0.000181047
5 *3185:A *2468:B1 8.43862e-05
6 *3185:A *840:44 0.000271308
7 *3185:A *892:33 4.82919e-05
8 *500:10 *2598:B1 0
9 *500:10 *3212:A 0.000154273
*RES
1 *2424:X *500:10 7.49 
2 *500:10 *3185:A 4.12 
3 *500:10 *3184:A 1.6 
*END

*D_NET *501 0.00173055
*CONN
*I *3358:A I *D sky130_fd_sc_hd__dlygate4sd1_1
*I *2427:A I *D sky130_fd_sc_hd__inv_8
*I *2700:B2 I *D sky130_fd_sc_hd__o2bb2a_4
*I *2426:X O *D sky130_fd_sc_hd__or4b_4
*CAP
1 *3358:A 0.000149464
2 *2427:A 0
3 *2700:B2 0
4 *2426:X 0.000274232
5 *501:17 0.000257474
6 *501:8 0.000382241
7 *3358:A *2704:B2 2.75145e-05
8 *3358:A *883:10 2.75145e-05
9 *3358:A *883:32 1.70935e-05
10 *3358:A *1012:16 0
11 *3358:A *1047:8 0
12 *501:8 *2378:A 0
13 *501:8 *3233:A 0
14 *501:8 *672:53 0.000370917
15 *501:8 *679:16 3.53768e-05
16 *501:8 *770:10 7.21296e-06
17 *501:8 *891:72 7.06865e-05
18 *501:8 *969:63 4.79946e-05
19 *501:8 *982:75 0
20 *501:17 *2700:A2_N 0
21 *501:17 *2703:C1 1.34361e-05
22 *501:17 *672:53 9.50342e-06
23 *501:17 *679:16 3.98865e-05
24 *501:17 *891:23 0
25 *501:17 *1012:16 0
26 *501:17 *1047:8 0
*RES
1 *2426:X *501:8 9.315 
2 *501:8 *2700:B2 3.6 
3 *501:8 *501:17 1.89 
4 *501:17 *2427:A 3.6 
5 *501:17 *3358:A 6.195 
*END

*D_NET *502 0.00520448
*CONN
*I *2680:B I *D sky130_fd_sc_hd__and3_1
*I *2689:A2 I *D sky130_fd_sc_hd__o311a_1
*I *2698:A2 I *D sky130_fd_sc_hd__a31o_1
*I *2684:A2 I *D sky130_fd_sc_hd__o311a_1
*I *2682:A I *D sky130_fd_sc_hd__nor2_1
*I *2428:Y O *D sky130_fd_sc_hd__nand2_1
*CAP
1 *2680:B 0.000196632
2 *2689:A2 1.46675e-05
3 *2698:A2 0
4 *2684:A2 7.1272e-05
5 *2682:A 7.7496e-05
6 *2428:Y 0
7 *502:55 0.000386443
8 *502:42 0.000493682
9 *502:10 0.000261144
10 *502:4 0.000430914
11 *2680:B *2426:A 1.2412e-05
12 *2680:B *679:16 0.000512829
13 *2680:B *1012:16 0.000552464
14 *2682:A *2383:B 0
15 *2682:A *2699:A2 4.65515e-05
16 *2684:A2 *2428:A 4.43871e-06
17 *2684:A2 *2699:A1 0.000124191
18 *2684:A2 *953:10 6.34337e-05
19 *2689:A2 *2695:A 4.81072e-05
20 *2689:A2 *679:16 2.49909e-05
21 *502:10 *2428:A 9.65007e-05
22 *502:10 *2699:A1 0.000137571
23 *502:10 *510:32 8.8266e-05
24 *502:10 *773:20 8.65961e-05
25 *502:42 *2383:B 1.34594e-05
26 *502:42 *2428:A 2.24992e-05
27 *502:42 *2428:B 0
28 *502:42 *2698:A3 0.000302219
29 *502:42 *2699:A2 0.000111011
30 *502:42 *2699:B1 5.83588e-05
31 *502:42 *508:18 8.23457e-05
32 *502:42 *510:32 0.000114912
33 *502:42 *773:20 0.000124895
34 *502:55 *2426:A 6.85246e-05
35 *502:55 *2689:A1 3.85204e-05
36 *502:55 *508:18 3.38425e-05
37 *502:55 *696:28 0.000122331
38 *502:55 *1012:16 9.26702e-05
39 *2383:C_N *502:42 1.33285e-05
40 *2383:C_N *502:55 4.66108e-05
41 *474:45 *502:55 8.30403e-05
42 *475:14 *2682:A 8.88631e-05
43 *475:14 *502:42 1.89685e-05
44 *485:12 *502:10 3.74736e-05
*RES
1 *2428:Y *502:4 1.6 
2 *502:4 *502:10 5.45 
3 *502:10 *2682:A 5.445 
4 *502:10 *2684:A2 5.235 
5 *502:4 *502:42 11.62 
6 *502:42 *2698:A2 1.6 
7 *502:42 *502:55 6.425 
8 *502:55 *2689:A2 4.05 
9 *502:55 *2680:B 10.335 
*END

*D_NET *503 0.00855142
*CONN
*I *2720:A1 I *D sky130_fd_sc_hd__a21bo_1
*I *2702:A2 I *D sky130_fd_sc_hd__o32a_1
*I *2692:B I *D sky130_fd_sc_hd__and3b_1
*I *2758:B I *D sky130_fd_sc_hd__and4b_1
*I *2431:B I *D sky130_fd_sc_hd__nor2_4
*I *2439:B I *D sky130_fd_sc_hd__or2_1
*I *2429:X O *D sky130_fd_sc_hd__and3b_2
*CAP
1 *2720:A1 0.000408793
2 *2702:A2 0.000241174
3 *2692:B 0
4 *2758:B 0.000385166
5 *2431:B 0
6 *2439:B 0.000226424
7 *2429:X 2.95588e-05
8 *503:62 0.000698619
9 *503:53 8.77954e-05
10 *503:31 0.000396625
11 *503:16 0.000730299
12 *503:8 0.000561117
13 *2439:B *2672:A 8.26614e-05
14 *2439:B *3323:A 8.53113e-06
15 *2439:B *982:8 2.75145e-05
16 *2439:B *1050:10 3.68596e-05
17 *2439:B *1050:25 4.8837e-05
18 *2702:A2 *2702:A1 4.82919e-05
19 *2702:A2 *3233:A 8.51419e-05
20 *2702:A2 *3362:A 0.0001249
21 *2702:A2 *676:16 0.000228995
22 *2702:A2 *954:38 0.000223044
23 *2720:A1 *2669:A 8.8266e-05
24 *2720:A1 *2749:B1 1.44259e-05
25 *2720:A1 *674:30 0.000164874
26 *2720:A1 *675:10 6.54596e-05
27 *2720:A1 *675:12 8.06063e-05
28 *2720:A1 *772:10 0
29 *2720:A1 *772:39 0
30 *2720:A1 *772:43 4.60584e-05
31 *2758:B *2661:A0 5.43298e-05
32 *2758:B *2757:A2 0.000100536
33 *2758:B *2757:B1 0.000116165
34 *2758:B *2759:A1 3.25831e-05
35 *2758:B *3322:A 0.000245369
36 *2758:B *3361:A 0.000119762
37 *2758:B *505:10 3.51884e-05
38 *2758:B *739:22 2.86895e-05
39 *2758:B *882:52 2.16306e-05
40 *2758:B *885:8 0.000101789
41 *2758:B *885:14 1.7635e-05
42 *503:8 *2695:B 0
43 *503:8 *675:12 1.83114e-05
44 *503:16 *2672:A 5.02126e-06
45 *503:16 *2749:A4 4.12356e-05
46 *503:16 *3323:A 6.01984e-05
47 *503:16 *885:97 0.000959216
48 *503:16 *887:99 0.00027656
49 *503:31 *505:10 4.82919e-05
50 *503:53 *675:12 3.08148e-05
51 *503:62 *3362:A 0
52 *503:62 *675:12 3.53919e-05
53 PADDR[2] *2758:B 0.000191226
54 PADDR[2] *503:31 2.0514e-05
55 *2444:A *2758:B 0.000310121
56 *2758:A_N *2758:B 0.000116853
57 *2824:GATE_N *2439:B 0.000117825
58 *3178:A *2439:B 0.000268203
59 *3178:A *503:16 3.7916e-05
*RES
1 *2429:X *503:8 4.0875 
2 *503:8 *503:16 3.49217 
3 *503:16 *2439:B 9.765 
4 *503:16 *503:31 2.45 
5 *503:31 *2431:B 1.6 
6 *503:31 *2758:B 17.84 
7 *503:8 *503:53 0.7425 
8 *503:53 *2692:B 3.6 
9 *503:53 *503:62 0.87 
10 *503:62 *2702:A2 10.14 
11 *503:62 *2720:A1 9.81 
*END

*D_NET *504 0.00398327
*CONN
*I *2749:A2 I *D sky130_fd_sc_hd__o41a_4
*I *3183:A I *D sky130_fd_sc_hd__buf_2
*I *2430:Y O *D sky130_fd_sc_hd__nand3b_1
*CAP
1 *2749:A2 2.08101e-05
2 *3183:A 0.000273719
3 *2430:Y 0.00021495
4 *504:12 0.000509479
5 *3183:A *2680:C 0.000140125
6 *3183:A *2685:A 4.82919e-05
7 *3183:A *2749:A1 8.65961e-05
8 *3183:A *3101:A 0.000223849
9 *3183:A *672:43 0.000796407
10 *3183:A *950:80 0.000340209
11 *3183:A *982:52 0.000295527
12 *3183:A *1048:31 0.0001947
13 *504:12 *2381:A 1.79536e-05
14 *504:12 *2680:C 0.000115705
15 *504:12 *2696:B 0.000116748
16 *504:12 *2749:B1 4.82919e-05
17 *504:12 *672:43 0.000294861
18 *504:12 *696:28 6.5662e-05
19 *504:12 *952:36 7.9642e-06
20 *504:12 *997:20 0.000137578
21 *2680:A *3183:A 3.38425e-05
*RES
1 *2430:Y *504:12 11.795 
2 *504:12 *3183:A 12.76 
3 *504:12 *2749:A2 1.96 
*END

*D_NET *505 0.0105911
*CONN
*I *2751:B1 I *D sky130_fd_sc_hd__a221o_1
*I *2710:B1 I *D sky130_fd_sc_hd__a221o_1
*I *2718:B1 I *D sky130_fd_sc_hd__a221o_1
*I *2759:B1 I *D sky130_fd_sc_hd__a221o_1
*I *2434:A1 I *D sky130_fd_sc_hd__a211oi_2
*I *2433:B I *D sky130_fd_sc_hd__nand2_4
*I *2431:Y O *D sky130_fd_sc_hd__nor2_4
*CAP
1 *2751:B1 1.52338e-05
2 *2710:B1 0.000392904
3 *2718:B1 0.000744722
4 *2759:B1 0.000408668
5 *2434:A1 0.000294644
6 *2433:B 2.08101e-05
7 *2431:Y 2.13818e-05
8 *505:61 0.00149581
9 *505:57 0.000411685
10 *505:38 0.000859321
11 *505:10 0.000728672
12 *505:6 0.000846983
13 *2434:A1 *2662:A0 6.99988e-05
14 *2434:A1 *3311:A 0
15 *2434:A1 *507:12 0.000205356
16 *2710:B1 *2710:A1 8.7152e-06
17 *2710:B1 *2710:B2 7.2586e-05
18 *2710:B1 *2711:S 0
19 *2710:B1 *2717:A2 6.44676e-05
20 *2710:B1 *3239:A 0
21 *2710:B1 *788:16 9.28909e-05
22 *2710:B1 *882:19 0
23 *2710:B1 *997:20 0
24 *2718:B1 *2710:B2 0
25 *2718:B1 *2716:B 4.12825e-05
26 *2718:B1 *2718:A2 0.0004356
27 *2718:B1 *674:18 2.00272e-05
28 *2751:B1 *2751:A1 3.96263e-05
29 *2759:B1 *2751:A1 4.82919e-05
30 *2759:B1 *2753:B1 8.8266e-05
31 *2759:B1 *2759:A1 2.06762e-05
32 *2759:B1 *2759:A2 0.000122331
33 *2759:B1 *2759:B2 1.12643e-05
34 *505:6 *3323:A 4.66108e-05
35 *505:10 *3323:A 8.40269e-05
36 *505:10 *3361:A 0.000384439
37 *505:10 *970:12 0.000122331
38 *505:38 *2448:B 1.88904e-05
39 *505:38 *3090:CLK 0.000106869
40 *505:38 *3091:RESET_B 9.14049e-05
41 *505:38 *772:56 2.60986e-05
42 *505:38 *882:44 0
43 *505:38 *982:27 0.000170892
44 *505:38 *982:52 0.000216643
45 *505:38 *1050:31 8.5748e-05
46 *505:38 *1050:37 0.00014444
47 *505:57 *2751:A1 5.86739e-05
48 *505:57 *882:44 7.21296e-06
49 *505:61 *2718:A2 0.000134694
50 PADDR[2] *505:6 8.23457e-05
51 PADDR[2] *505:10 3.52434e-05
52 *2433:A *2434:A1 0.000261341
53 *2434:A2 *2434:A1 5.39961e-05
54 *2753:A2 *2759:B1 2.94108e-05
55 *2755:B1 *505:38 0.000221962
56 *2758:B *505:10 3.51884e-05
57 *2758:C *2759:B1 4.66108e-05
58 *3092:D *505:38 2.10433e-05
59 *3251:A *2751:B1 1.64319e-05
60 *3251:A *505:38 2.92496e-05
61 *3251:A *505:57 3.7931e-05
62 *3251:A *505:61 2.97323e-05
63 *3278:A *505:61 0
64 *115:26 *2759:B1 0.00020591
65 *115:34 *2759:B1 3.0315e-05
66 *116:57 *2759:B1 9.3042e-05
67 *478:36 *2434:A1 3.1835e-05
68 *503:31 *505:10 4.82919e-05
*RES
1 *2431:Y *505:6 2.395 
2 *505:6 *505:10 7.62 
3 *505:10 *2433:B 1.96 
4 *505:10 *2434:A1 12.155 
5 *505:6 *505:38 13.01 
6 *505:38 *2759:B1 10.5 
7 *505:38 *505:57 0.9975 
8 *505:57 *505:61 1.2372 
9 *505:61 *2718:B1 6.0239 
10 *505:61 *2710:B1 11.2175 
11 *505:57 *2751:B1 4.0875 
*END

*D_NET *506 0.00193525
*CONN
*I *2705:A2 I *D sky130_fd_sc_hd__o21ai_1
*I *2722:A1_N I *D sky130_fd_sc_hd__a2bb2o_1
*I *2432:Y O *D sky130_fd_sc_hd__nand2_1
*CAP
1 *2705:A2 0.00027117
2 *2722:A1_N 2.89732e-05
3 *2432:Y 4.16699e-05
4 *506:10 0.000341813
5 *2705:A2 *2704:A1_N 4.82919e-05
6 *2705:A2 *2705:B1 8.40269e-05
7 *2705:A2 *2706:A1 0.000155497
8 *2705:A2 *2723:B1 0.000113005
9 *2705:A2 *2738:C 1.17195e-05
10 *2705:A2 *2788:RESET_B 7.00889e-06
11 *2705:A2 *3365:A 0.000316489
12 *2705:A2 *730:6 2.05056e-05
13 *2705:A2 *957:77 4.82863e-05
14 *2705:A2 *1047:27 3.66286e-05
15 *2722:A1_N *2723:B1 5.83121e-06
16 *2722:A1_N *981:35 4.66108e-05
17 *2722:A1_N *1047:27 8.40269e-05
18 *506:10 *2738:C 8.09021e-06
19 *506:10 *2745:A1 2.92496e-05
20 *506:10 *3365:A 0.000117832
21 *506:10 *981:18 0.000118527
*RES
1 *2432:Y *506:10 7.235 
2 *506:10 *2722:A1_N 2.395 
3 *506:10 *2705:A2 8.41 
*END

*D_NET *507 0.0043253
*CONN
*I *2436:B I *D sky130_fd_sc_hd__and3b_1
*I *2437:A I *D sky130_fd_sc_hd__and3_1
*I *2435:B I *D sky130_fd_sc_hd__and3b_1
*I *2438:A I *D sky130_fd_sc_hd__and2_4
*I *2433:Y O *D sky130_fd_sc_hd__nand2_4
*CAP
1 *2436:B 0
2 *2437:A 0.000467513
3 *2435:B 0
4 *2438:A 0.000170205
5 *2433:Y 0.00016643
6 *507:26 0.000400747
7 *507:24 0.000937049
8 *507:12 0.000405424
9 *2437:A *2662:A0 4.25104e-05
10 *2437:A *2662:A1 3.48266e-05
11 *2437:A *3311:A 0
12 *2437:A *766:27 0
13 *2437:A *982:8 6.71882e-05
14 *2438:A *3326:A 0.000120962
15 *2438:A *887:22 8.49205e-05
16 *507:12 *2662:A0 0.000225387
17 *507:12 *3327:A 5.35969e-06
18 *507:24 *2435:C 4.82018e-05
19 *507:24 *2436:A_N 8.09021e-06
20 *507:24 *2436:C 4.31189e-05
21 *507:24 *3325:A 0.000115464
22 *507:24 *766:27 0.000120828
23 *507:24 *767:27 9.61414e-05
24 *507:24 *767:42 2.42236e-05
25 *507:24 *970:12 4.19884e-05
26 *507:26 *982:8 0.000122706
27 PENABLE *2437:A 3.49165e-05
28 *2433:A *507:12 1.26626e-05
29 *2434:A1 *507:12 0.000205356
30 *2438:B *2438:A 9.66123e-05
31 *3263:A *2437:A 5.89912e-05
32 *431:10 *2438:A 8.25609e-05
33 *431:10 *507:26 8.49205e-05
34 *433:10 *2438:A 0
*RES
1 *2433:Y *507:12 9.395 
2 *507:12 *507:24 9.535 
3 *507:24 *507:26 2.865 
4 *507:26 *2438:A 9.68 
5 *507:26 *2435:B 1.6 
6 *507:24 *2437:A 12.08 
7 *507:12 *2436:B 1.6 
*END

*D_NET *508 0.00504021
*CONN
*I *2684:A3 I *D sky130_fd_sc_hd__o311a_1
*I *2682:B I *D sky130_fd_sc_hd__nor2_1
*I *2681:C I *D sky130_fd_sc_hd__or3_1
*I *2689:A3 I *D sky130_fd_sc_hd__o311a_1
*I *2440:Y O *D sky130_fd_sc_hd__nand2b_1
*CAP
1 *2684:A3 2.21004e-05
2 *2682:B 0.000192474
3 *2681:C 0.000231171
4 *2689:A3 8.29666e-05
5 *2440:Y 0.000122951
6 *508:46 0.000536075
7 *508:18 0.000641468
8 *508:10 0.000771782
9 *2681:C *2689:C1 0.00034412
10 *2681:C *3233:A 0.000122331
11 *2681:C *956:26 1.58386e-05
12 *2681:C *969:50 2.39856e-05
13 *2681:C *969:63 2.49909e-05
14 *2681:C *1012:16 0.000390542
15 *2682:B *2684:B1 4.9253e-06
16 *2682:B *2685:B 2.99518e-06
17 *2682:B *2699:A1 0.000134535
18 *2689:A3 *2695:A 7.78283e-05
19 *508:10 *2428:B 0.000224239
20 *508:10 *773:20 0.00019283
21 *508:18 *696:28 0.000232116
22 *508:18 *956:26 2.09514e-05
23 *508:18 *1012:16 6.83447e-05
24 *508:46 *2428:B 6.05081e-05
25 *508:46 *2684:B1 1.83756e-05
26 *508:46 *2690:B1 3.68645e-06
27 *508:46 *2695:A 8.40213e-05
28 *508:46 *2697:A 2.7441e-05
29 *508:46 *2697:D_N 0.000124007
30 *508:46 *773:20 6.83447e-05
31 *2684:C1 *2682:B 2.781e-05
32 *2684:C1 *508:46 2.82649e-05
33 *502:42 *508:18 8.23457e-05
34 *502:55 *508:18 3.38425e-05
*RES
1 *2440:Y *508:10 6.54 
2 *508:10 *508:18 8.425 
3 *508:18 *2689:A3 4.755 
4 *508:18 *2681:C 9.69 
5 *508:10 *508:46 6.77 
6 *508:46 *2682:B 8.375 
7 *508:46 *2684:A3 1.96 
*END

*D_NET *509 0.00360549
*CONN
*I *3182:A I *D sky130_fd_sc_hd__buf_12
*I *3105:A I *D sky130_fd_sc_hd__clkbuf_1
*I *2441:X O *D sky130_fd_sc_hd__or4bb_4
*CAP
1 *3182:A 2.32169e-05
2 *3105:A 0.000536307
3 *2441:X 0.000624986
4 *509:8 0.00118451
5 *3105:A *2507:A2 0.000431486
6 *3105:A *2507:C1 5.83373e-05
7 *3105:A *2509:C1 0.000153816
8 *3105:A *2915:GATE_N 4.66108e-05
9 *3105:A *823:68 0.000216654
10 *3105:A *828:60 0
11 *3105:A *828:70 4.66108e-05
12 *3105:A *838:18 2.01541e-05
13 *3105:A *838:28 3.85835e-05
14 *3105:A *895:81 2.67275e-05
15 *3182:A *2507:C1 2.75229e-05
16 *509:8 *2388:A 0
17 *509:8 *2447:A_N 2.46007e-05
18 *509:8 *2447:C 0
19 *509:8 *2450:C 0
20 *509:8 *2671:A3 9.50342e-06
21 *509:8 *3312:A 0
22 *509:8 *828:60 0
23 *2506:A1 *3105:A 0
24 *2507:A1 *3105:A 0.000101062
25 *2507:B2 *3105:A 3.4804e-05
26 *2804:D *3105:A 0
27 *2804:D *509:8 0
*RES
1 *2441:X *509:8 13.395 
2 *509:8 *3105:A 16.035 
3 *509:8 *3182:A 4.05 
*END

*D_NET *510 0.0116481
*CONN
*I *2694:B I *D sky130_fd_sc_hd__and3_1
*I *2686:A2 I *D sky130_fd_sc_hd__a31o_1
*I *2761:A2 I *D sky130_fd_sc_hd__a32o_1
*I *2768:A2 I *D sky130_fd_sc_hd__o21a_1
*I *2769:C I *D sky130_fd_sc_hd__or3_1
*I *2449:X O *D sky130_fd_sc_hd__and4b_1
*CAP
1 *2694:B 8.59992e-05
2 *2686:A2 1.53024e-05
3 *2761:A2 1.73959e-05
4 *2768:A2 0.000268779
5 *2769:C 0
6 *2449:X 0.000150508
7 *510:46 0.0011492
8 *510:38 0.00123998
9 *510:32 0.00174203
10 *510:12 0.00162107
11 *2686:A2 *2686:B1 1.18384e-05
12 *2694:B *950:10 0.000118081
13 *2761:A2 *2761:A3 2.99953e-05
14 *2761:A2 *2764:D 1.44947e-05
15 *2761:A2 *868:70 9.50342e-06
16 *2768:A2 *2768:B1 0.000138791
17 *2768:A2 *2769:B 7.23533e-05
18 *2768:A2 *2771:B 0
19 *2768:A2 *945:10 0
20 *2768:A2 *945:14 0
21 *510:12 *2450:D 0.000173305
22 *510:12 *2664:D 5.04183e-05
23 *510:12 *2694:A 8.53113e-06
24 *510:12 *775:8 3.53398e-05
25 *510:12 *966:16 8.23457e-05
26 *510:32 *2440:A_N 7.8192e-05
27 *510:32 *2440:B 1.18758e-05
28 *510:32 *2686:B1 9.03508e-06
29 *510:32 *2783:RESET_B 0
30 *510:32 *675:37 3.61927e-05
31 *510:32 *773:20 0.000414846
32 *510:32 *931:14 0
33 *510:32 *950:10 0.000492543
34 *510:38 *2761:A3 0.000102622
35 *510:38 *2761:B2 0.000301011
36 *510:38 *2764:D 4.19501e-05
37 *510:38 *675:37 2.49909e-05
38 *510:38 *751:16 0
39 *510:38 *801:14 8.09021e-06
40 *510:46 *2697:A 0.000252847
41 *510:46 *885:115 0.000195475
42 *510:46 *887:105 6.3087e-05
43 *510:46 *949:25 0.000335674
44 *510:46 *949:29 0.000854415
45 *510:46 *1019:12 0.000751629
46 *2394:B1 *510:32 0.000315123
47 *3175:A *510:38 4.76303e-05
48 *485:12 *510:32 7.24033e-05
49 *502:10 *510:32 8.8266e-05
50 *502:42 *510:32 0.000114912
*RES
1 *2449:X *510:12 8.54 
2 *510:12 *510:32 25.555 
3 *510:32 *510:38 7.6625 
4 *510:38 *510:46 4.86863 
5 *510:46 *2769:C 3.6 
6 *510:46 *2768:A2 7.41 
7 *510:38 *2761:A2 4.0875 
8 *510:32 *2686:A2 1.96 
9 *510:12 *2694:B 2.74 
*END

*D_NET *511 0.00616366
*CONN
*I *2516:A I *D sky130_fd_sc_hd__nor2_1
*I *3180:A I *D sky130_fd_sc_hd__buf_2
*I *2450:Y O *D sky130_fd_sc_hd__nand4b_1
*CAP
1 *2516:A 0.000694892
2 *3180:A 0.000389035
3 *2450:Y 0.000576204
4 *511:6 0.00166013
5 *2516:A *2516:B 0.000481797
6 *2516:A *2632:A 0
7 *2516:A *2632:B 0.000177568
8 *2516:A *2648:S 1.49498e-05
9 *2516:A *2674:A 4.99619e-05
10 *2516:A *2674:B 0.000121817
11 *2516:A *2748:A_N 9.54399e-05
12 *2516:A *2748:B 0.000339893
13 *2516:A *738:12 6.55328e-05
14 *2516:A *885:26 0.000108281
15 *2516:A *962:73 0
16 *3180:A *2674:A 0
17 *3180:A *2695:D_N 8.08153e-06
18 *3180:A *678:8 4.11112e-05
19 *3180:A *738:12 0
20 *3180:A *887:12 0
21 *3180:A *887:22 0
22 *3180:A *982:27 0
23 *3180:A *1050:31 5.63318e-05
24 *511:6 *2450:C 0.000168213
25 *2388:B *3180:A 0.00040166
26 *2671:A1 *3180:A 0.000515109
27 *2796:D *2516:A 0
28 *3136:A *2516:A 0
29 *3163:A *2516:A 0.000110053
30 *478:8 *3180:A 8.76033e-05
*RES
1 *2450:Y *511:6 11.02 
2 *511:6 *3180:A 15.905 
3 *511:6 *2516:A 22.61 
*END

*D_NET *512 0.000509021
*CONN
*I *2452:C1 I *D sky130_fd_sc_hd__a221o_1
*I *2451:X O *D sky130_fd_sc_hd__a22o_1
*CAP
1 *2452:C1 0.000189844
2 *2451:X 0.000189844
3 *2452:C1 *2551:B1 0.000124895
4 *2452:C1 *2841:GATE_N 0
5 *2452:C1 *2942:GATE_N 0
6 *2452:C1 *809:44 0
7 *2452:C1 *911:92 0
8 *2452:B2 *2452:C1 4.43871e-06
*RES
1 *2451:X *2452:C1 9.975 
*END

*D_NET *513 0.000219558
*CONN
*I *2460:B1 I *D sky130_fd_sc_hd__o22ai_2
*I *2452:X O *D sky130_fd_sc_hd__a221o_1
*CAP
1 *2460:B1 6.86816e-05
2 *2452:X 6.86816e-05
3 *2460:B1 *2460:B2 9.50342e-06
4 *2460:B1 *809:44 3.49173e-05
5 *2460:B1 *878:38 0
6 *2452:A1 *2460:B1 3.77742e-05
*RES
1 *2452:X *2460:B1 8.58 
*END

*D_NET *514 0.000666099
*CONN
*I *2454:C1 I *D sky130_fd_sc_hd__a221o_1
*I *2453:X O *D sky130_fd_sc_hd__a22o_1
*CAP
1 *2454:C1 0.000219892
2 *2453:X 0.000219892
3 *2454:C1 *2453:B1 5.83121e-06
4 *2454:C1 *2454:B1 4.20519e-05
5 *2454:C1 *2937:GATE_N 1.47347e-05
6 *2454:C1 *825:61 0.000143914
7 *2454:C1 *858:19 1.1392e-05
8 *2454:C1 *858:34 2.8585e-06
9 *2453:A1 *2454:C1 0
10 *2454:B2 *2454:C1 5.53249e-06
*RES
1 *2453:X *2454:C1 10.665 
*END

*D_NET *515 0.00429748
*CONN
*I *2459:A I *D sky130_fd_sc_hd__or3_1
*I *2454:X O *D sky130_fd_sc_hd__a221o_1
*CAP
1 *2459:A 0.00160141
2 *2454:X 0.00160141
3 *2459:A *2554:B1 6.13486e-05
4 *2459:A *2555:C1 3.46582e-05
5 *2459:A *2556:A2 4.66108e-05
6 *2459:A *2557:B1 5.34747e-05
7 *2459:A *2578:B1 1.56428e-05
8 *2459:A *2653:A1 4.66108e-05
9 *2459:A *2910:GATE_N 0.00041326
10 *2459:A *2967:D 3.91069e-06
11 *2459:A *884:65 5.97785e-05
12 *2459:A *884:71 4.82919e-05
13 *2554:B2 *2459:A 4.82919e-05
14 *2557:A1 *2459:A 6.68963e-05
15 *2578:B2 *2459:A 1.83756e-05
16 *377:12 *2459:A 0.00013909
17 *381:18 *2459:A 3.84133e-05
*RES
1 *2454:X *2459:A 34.5 
*END

*D_NET *516 0.00120301
*CONN
*I *2456:C1 I *D sky130_fd_sc_hd__a221o_1
*I *2455:X O *D sky130_fd_sc_hd__a22o_1
*CAP
1 *2456:C1 0.000319758
2 *2455:X 0.000319758
3 *2456:C1 *2455:A2 4.77719e-05
4 *2456:C1 *2455:B1 0.000271663
5 *2456:C1 *816:38 4.25479e-05
6 *2456:A1 *2456:C1 0.000201508
*RES
1 *2455:X *2456:C1 9.11 
*END

*D_NET *517 0.000559881
*CONN
*I *2459:B I *D sky130_fd_sc_hd__or3_1
*I *2456:X O *D sky130_fd_sc_hd__a221o_1
*CAP
1 *2459:B 0.000228768
2 *2456:X 0.000228768
3 *2459:B *2455:B1 6.15324e-05
4 *2459:B *2459:C 3.72916e-05
5 *2459:B *2481:C 3.52139e-06
*RES
1 *2456:X *2459:B 6.065 
*END

*D_NET *518 0.000548331
*CONN
*I *2458:B1 I *D sky130_fd_sc_hd__a211o_1
*I *2457:X O *D sky130_fd_sc_hd__a22o_1
*CAP
1 *2458:B1 0.000165123
2 *2457:X 0.000165123
3 *2458:B1 *2456:B1 0
4 *2458:B1 *816:38 0
5 *2458:B1 *820:24 0.000147093
6 *2458:A1 *2458:B1 7.09921e-05
*RES
1 *2457:X *2458:B1 10.875 
*END

*D_NET *519 0.0013043
*CONN
*I *2459:C I *D sky130_fd_sc_hd__or3_1
*I *2458:X O *D sky130_fd_sc_hd__a211o_1
*CAP
1 *2459:C 0.000381375
2 *2458:X 0.000381375
3 *2459:C *2458:C1 0.00015639
4 *2459:C *2481:C 2.75229e-05
5 *2459:C *2482:B2 1.88904e-05
6 *2459:C *853:67 0
7 *2459:C *900:79 0.000108257
8 *2459:C *908:85 2.16917e-05
9 *2459:C *908:125 0.000171511
10 *2459:B *2459:C 3.72916e-05
*RES
1 *2458:X *2459:C 12.93 
*END

*D_NET *520 0.00854606
*CONN
*I *2460:B2 I *D sky130_fd_sc_hd__o22ai_2
*I *2459:X O *D sky130_fd_sc_hd__or3_1
*CAP
1 *2460:B2 0.00259693
2 *2459:X 0.00259693
3 *2460:B2 *2475:B1 0.000407648
4 *2460:B2 *2482:B2 0.000594999
5 *2460:B2 *2556:A2 0.000828949
6 *2460:B2 *2657:A1 0
7 *2460:B2 *2871:GATE_N 0.000192183
8 *2460:B2 *2873:GATE_N 9.17318e-05
9 *2460:B2 *853:67 2.05641e-05
10 *2460:B2 *878:10 4.80285e-05
11 *2460:B2 *878:16 0
12 *2460:B2 *928:63 0.000472225
13 *2452:A1 *2460:B2 4.23757e-05
14 *2452:B2 *2460:B2 4.80285e-05
15 *2460:B1 *2460:B2 9.50342e-06
16 *384:14 *2460:B2 0.000595958
*RES
1 *2459:X *2460:B2 16.6723 
*END

*D_NET *521 0.00769984
*CONN
*I *2461:B I *D sky130_fd_sc_hd__nor2_1
*I *2627:B I *D sky130_fd_sc_hd__nor2_1
*I *2460:Y O *D sky130_fd_sc_hd__o22ai_2
*CAP
1 *2461:B 0.000548615
2 *2627:B 5.19384e-05
3 *2460:Y 0.00145854
4 *521:18 0.00205909
5 *2461:B *2461:A 0.000345353
6 *2461:B *2807:GATE_N 0
7 *2461:B *842:36 0
8 *2627:B *2791:GATE_N 5.61451e-05
9 *2627:B *880:62 8.65905e-05
10 *521:18 *2460:A2 4.82863e-05
11 *521:18 *2649:A0 0.000989603
12 *521:18 *2652:A1 6.04327e-05
13 *521:18 *2652:S 0
14 *521:18 *2793:GATE_N 0.000124895
15 *521:18 *2798:GATE_N 4.82919e-05
16 *521:18 *2830:GATE_N 6.77062e-05
17 *521:18 *3031:D 4.99619e-05
18 *521:18 *3174:A 0.000163204
19 *521:18 *3309:A 6.77062e-05
20 *521:18 *3353:A 0
21 *521:18 *878:10 8.65905e-05
22 *521:18 *880:12 8.57024e-05
23 *521:18 *880:62 8.96017e-05
24 PWDATA[0] *2461:B 0.000266842
25 rdata[10] *2461:B 2.75538e-05
26 *2452:A1 *521:18 0
27 *2452:B2 *521:18 4.9253e-06
28 *2460:A1 *521:18 0.000330899
29 *2550:A1 *521:18 0.00012657
30 *2791:D *2461:B 0.000195482
31 *2791:D *2627:B 2.75145e-05
32 *2802:D *2461:B 4.40773e-05
33 *2807:D *2461:B 7.20038e-05
34 *2809:D *2461:B 4.43871e-06
35 *3294:A *521:18 0.000111285
*RES
1 *2460:Y *521:18 35.48 
2 *521:18 *2627:B 3.46 
3 *521:18 *2461:B 15.965 
*END

*D_NET *522 0.00103065
*CONN
*I *2469:B1 I *D sky130_fd_sc_hd__a211o_1
*I *2462:X O *D sky130_fd_sc_hd__a22o_1
*CAP
1 *2469:B1 0.00037434
2 *2462:X 0.00037434
3 *2469:B1 *2911:GATE_N 9.26619e-05
4 *2469:B1 *905:94 8.49936e-05
5 *2468:A1 *2469:B1 1.16578e-05
6 *3208:A *2469:B1 9.26619e-05
*RES
1 *2462:X *2469:B1 12.93 
*END

*D_NET *523 0.0010551
*CONN
*I *2464:C1 I *D sky130_fd_sc_hd__a221o_1
*I *2463:X O *D sky130_fd_sc_hd__a22o_1
*CAP
1 *2464:C1 0.0002946
2 *2463:X 0.0002946
3 *2464:C1 *2509:A2 5.40271e-05
4 *2464:C1 *2520:A2 0.000238137
5 *2464:C1 *919:51 6.27029e-05
6 *3122:A *2464:C1 0.000111036
*RES
1 *2463:X *2464:C1 11.79 
*END

*D_NET *524 0.0012649
*CONN
*I *2471:B1 I *D sky130_fd_sc_hd__o22ai_2
*I *2464:X O *D sky130_fd_sc_hd__a221o_1
*CAP
1 *2471:B1 0.000315394
2 *2464:X 0.000315394
3 *2471:B1 *2464:A2 0.000286014
4 *2471:B1 *2472:B 0.000140905
5 *2464:B2 *2471:B1 0.000200615
6 *3188:A *2471:B1 6.57653e-06
*RES
1 *2464:X *2471:B1 13.005 
*END

*D_NET *525 0.000207131
*CONN
*I *2466:C1 I *D sky130_fd_sc_hd__a221o_1
*I *2465:X O *D sky130_fd_sc_hd__a22o_1
*CAP
1 *2466:C1 2.99405e-05
2 *2465:X 2.99405e-05
3 *2466:C1 *2465:A2 4.9968e-05
4 *2466:C1 *2465:B1 4.82919e-05
5 *2466:C1 *831:18 2.7881e-05
6 *2466:C1 *922:47 2.11084e-05
*RES
1 *2465:X *2466:C1 8.265 
*END

*D_NET *526 0.000559101
*CONN
*I *2470:A I *D sky130_fd_sc_hd__or3_1
*I *2466:X O *D sky130_fd_sc_hd__a221o_1
*CAP
1 *2470:A 0.000126617
2 *2466:X 0.000126617
3 *2470:A *2465:B1 0.000121815
4 *2470:A *875:122 6.55328e-05
5 *3202:A *2470:A 0.00011852
*RES
1 *2466:X *2470:A 9.72 
*END

*D_NET *527 0.000288549
*CONN
*I *2470:B I *D sky130_fd_sc_hd__or3_1
*I *2467:X O *D sky130_fd_sc_hd__a22o_1
*CAP
1 *2470:B 6.62992e-05
2 *2467:X 6.62992e-05
3 *2470:B *2882:GATE_N 7.06865e-05
4 *2470:B *812:76 4.66108e-05
5 *3202:A *2470:B 3.86529e-05
*RES
1 *2467:X *2470:B 8.52 
*END

*D_NET *528 0.00108022
*CONN
*I *2469:C1 I *D sky130_fd_sc_hd__a211o_1
*I *2468:X O *D sky130_fd_sc_hd__a221o_1
*CAP
1 *2469:C1 0.000232812
2 *2468:X 0.000232812
3 *2469:C1 *2623:C1 4.55993e-05
4 *2469:C1 *3071:GATE_N 0.000151353
5 *2469:C1 *906:20 2.60908e-05
6 *2462:A1 *2469:C1 0.000158066
7 *2468:A1 *2469:C1 0.000233481
*RES
1 *2468:X *2469:C1 12.105 
*END

*D_NET *529 0.00320348
*CONN
*I *2470:C I *D sky130_fd_sc_hd__or3_1
*I *2469:X O *D sky130_fd_sc_hd__a211o_1
*CAP
1 *2470:C 0.000879621
2 *2469:X 0.000879621
3 *2470:C *2610:B1 7.4027e-05
4 *2470:C *2882:GATE_N 0.000221235
5 *2470:C *3212:A 7.23602e-05
6 *2470:C *831:18 4.66108e-05
7 *2470:C *875:12 6.05513e-05
8 *2470:C *875:103 1.83847e-05
9 *2470:C *875:122 0.000499402
10 *2470:C *925:72 0.00045167
*RES
1 *2469:X *2470:C 21.33 
*END

*D_NET *530 0.00134759
*CONN
*I *2471:B2 I *D sky130_fd_sc_hd__o22ai_2
*I *2470:X O *D sky130_fd_sc_hd__or3_1
*CAP
1 *2471:B2 0.000642576
2 *2470:X 0.000642576
3 *2471:B2 *2471:A2 3.49142e-05
4 *2471:B2 *531:8 2.75229e-05
*RES
1 *2470:X *2471:B2 11.96 
*END

*D_NET *531 0.00737153
*CONN
*I *2628:B I *D sky130_fd_sc_hd__nor2_1
*I *2472:B I *D sky130_fd_sc_hd__nor2_1
*I *2471:Y O *D sky130_fd_sc_hd__o22ai_2
*CAP
1 *2628:B 0
2 *2472:B 0.00133297
3 *2471:Y 0.000141187
4 *531:8 0.00147415
5 *2472:B *2792:GATE_N 8.65961e-05
6 *2472:B *2845:D 0.000306353
7 *2472:B *2845:GATE_N 3.84912e-05
8 *2472:B *2916:GATE_N 8.40213e-05
9 *2472:B *2925:D 4.82863e-05
10 *2472:B *2941:GATE_N 0.000808529
11 *2472:B *2957:D 0.000415935
12 *2472:B *3039:GATE_N 0.000268616
13 *2472:B *3053:D 0.000380189
14 *2472:B *810:41 0.000102151
15 *2472:B *826:26 0.000684173
16 *2472:B *828:70 4.82919e-05
17 *2472:B *845:31 0.00030536
18 *2472:B *845:33 8.40269e-05
19 *531:8 *2471:A2 4.82919e-05
20 *2471:B1 *2472:B 0.000140905
21 *2471:B2 *531:8 2.75229e-05
22 *2616:A1 *2472:B 0.000269521
23 *2616:B2 *2472:B 0.000118081
24 *2625:A1 *2472:B 0.000103637
25 *3188:A *2472:B 5.42473e-05
*RES
1 *2471:Y *531:8 3.79 
2 *531:8 *2472:B 38.75 
3 *531:8 *2628:B 1.6 
*END

*D_NET *532 0.00165656
*CONN
*I *2474:C1 I *D sky130_fd_sc_hd__a221o_1
*I *2473:X O *D sky130_fd_sc_hd__a22o_1
*CAP
1 *2474:C1 0.000354216
2 *2473:X 0.000354216
3 *2474:C1 *2473:A2 0
4 *2474:C1 *2473:B1 0
5 *2474:C1 *2560:B 5.26914e-05
6 *2474:C1 *2636:A 4.99619e-05
7 *2474:C1 *3315:A 4.99619e-05
8 *2474:C1 *838:44 0
9 *2474:C1 *838:54 0
10 *2474:C1 *884:20 0.000398421
11 *2474:C1 *888:86 0.000151541
12 *2473:A1 *2474:C1 0
13 *2474:A1 *2474:C1 0.000195586
14 *2474:B2 *2474:C1 4.99619e-05
*RES
1 *2473:X *2474:C1 15.555 
*END

*D_NET *533 0.000369587
*CONN
*I *2482:B1 I *D sky130_fd_sc_hd__o22ai_1
*I *2474:X O *D sky130_fd_sc_hd__a221o_1
*CAP
1 *2482:B1 6.84162e-05
2 *2474:X 6.84162e-05
3 *2482:B1 *2482:A2 9.30717e-05
4 *2482:B1 *2560:B 4.66108e-05
5 *2798:D *2482:B1 9.30717e-05
*RES
1 *2474:X *2482:B1 8.775 
*END

*D_NET *534 0.00108733
*CONN
*I *2476:C1 I *D sky130_fd_sc_hd__a221o_1
*I *2475:X O *D sky130_fd_sc_hd__a22o_1
*CAP
1 *2476:C1 0.000371642
2 *2475:X 0.000371642
3 *2476:C1 *2475:A2 0.000157015
4 *2476:C1 *2476:A2 9.58678e-06
5 *2476:C1 *2646:A1 7.23602e-05
6 *2476:C1 *884:44 3.31204e-05
7 *2476:C1 *884:57 6.32676e-05
8 *2476:C1 *918:29 8.69417e-06
9 *3159:A *2476:C1 0
*RES
1 *2475:X *2476:C1 13.8 
*END

*D_NET *535 0.00759327
*CONN
*I *2481:A I *D sky130_fd_sc_hd__or3_1
*I *2476:X O *D sky130_fd_sc_hd__a221o_1
*CAP
1 *2481:A 0.00200534
2 *2476:X 0.00200534
3 *2481:A *2476:A2 0.000762674
4 *2481:A *2482:B2 0.00167698
5 *2481:A *2559:B2 0.0008116
6 *2481:A *2581:B2 0.000237038
7 *2481:A *853:65 0
8 *2481:A *881:57 1.92979e-05
9 *2481:A *900:79 4.17687e-05
10 *2481:A *904:91 2.77016e-05
11 *2481:A *908:125 5.53249e-06
*RES
1 *2476:X *2481:A 14.9012 
*END

*D_NET *536 0.00118357
*CONN
*I *2478:C1 I *D sky130_fd_sc_hd__a221o_1
*I *2477:X O *D sky130_fd_sc_hd__a22o_1
*CAP
1 *2478:C1 0.000271496
2 *2477:X 0.000271496
3 *2478:C1 *818:54 1.19928e-05
4 *2478:C1 *831:63 1.16578e-05
5 *2478:C1 *831:69 0.000124473
6 *2477:B2 *2478:C1 0
7 *2478:A1 *2478:C1 0.000373209
8 *2478:B2 *2478:C1 0.000119246
*RES
1 *2477:X *2478:C1 12.9 
*END

*D_NET *537 0.00231798
*CONN
*I *2481:B I *D sky130_fd_sc_hd__or3_1
*I *2478:X O *D sky130_fd_sc_hd__a221o_1
*CAP
1 *2481:B 0.000261534
2 *2478:X 0.000261534
3 *2481:B *2456:B1 0.000460265
4 *2481:B *818:54 0.000718129
5 *2481:B *900:79 0.000337531
6 *2481:B *908:83 0.000186635
7 *2481:B *923:63 9.23485e-05
*RES
1 *2478:X *2481:B 17.79 
*END

*D_NET *538 0.000667454
*CONN
*I *2480:B1 I *D sky130_fd_sc_hd__a211o_1
*I *2479:X O *D sky130_fd_sc_hd__a22o_1
*CAP
1 *2480:B1 0.000265714
2 *2479:X 0.000265714
3 *2480:B1 *2479:A2 0
4 *2480:B1 *2480:C1 5.53249e-06
5 *2480:B1 *814:116 4.72388e-05
6 *2480:B1 *816:54 0
7 *2480:B1 *853:67 0
8 *2480:B1 *873:50 1.16646e-05
9 *2480:A1 *2480:B1 7.15894e-05
*RES
1 *2479:X *2480:B1 11.67 
*END

*D_NET *539 0.000625979
*CONN
*I *2481:C I *D sky130_fd_sc_hd__or3_1
*I *2480:X O *D sky130_fd_sc_hd__a211o_1
*CAP
1 *2481:C 0.000193241
2 *2480:X 0.000193241
3 *2481:C *2455:B1 8.65905e-05
4 *2481:C *2480:C1 2.97095e-05
5 *2481:C *900:79 8.05007e-05
6 *2481:C *908:83 4.43871e-06
7 *2481:C *934:70 7.21296e-06
8 *2459:B *2481:C 3.52139e-06
9 *2459:C *2481:C 2.75229e-05
*RES
1 *2480:X *2481:C 10.065 
*END

*D_NET *540 0.0139782
*CONN
*I *2482:B2 I *D sky130_fd_sc_hd__o22ai_1
*I *2481:X O *D sky130_fd_sc_hd__or3_1
*CAP
1 *2482:B2 0.00444451
2 *2481:X 0.00444451
3 *2482:B2 *2475:B1 0.000428174
4 *2482:B2 *2476:A2 0.000740897
5 *2482:B2 *2554:A2 0.000326589
6 *2482:B2 *2556:A2 0.000319014
7 *2482:B2 *2559:B2 0.000349836
8 *2482:B2 *2629:B 8.5193e-05
9 *2482:B2 *2639:A 1.19249e-05
10 *2482:B2 *2648:A1 0
11 *2482:B2 *2657:A1 0
12 *2482:B2 *631:18 0
13 *2482:B2 *904:91 0.000451485
14 *2459:C *2482:B2 1.88904e-05
15 *2460:B2 *2482:B2 0.000594999
16 *2481:A *2482:B2 0.00167698
17 *2798:D *2482:B2 8.5193e-05
*RES
1 *2481:X *2482:B2 20.1891 
*END

*D_NET *541 0.002071
*CONN
*I *2483:B I *D sky130_fd_sc_hd__nor2_1
*I *2629:B I *D sky130_fd_sc_hd__nor2_1
*I *2482:Y O *D sky130_fd_sc_hd__o22ai_1
*CAP
1 *2483:B 0.000182309
2 *2629:B 0.000233929
3 *2482:Y 0
4 *541:4 0.000416238
5 *2483:B *2482:A2 4.01778e-05
6 *2629:B *2482:A2 1.56428e-05
7 *2629:B *2649:A0 0.000428869
8 *2629:B *880:32 0.000161529
9 *2629:B *880:54 8.40269e-05
10 *2629:B *888:78 0.000235568
11 *2482:B2 *2629:B 8.5193e-05
12 *2798:D *2629:B 0.000187522
*RES
1 *2482:Y *541:4 1.6 
2 *541:4 *2629:B 13.175 
3 *541:4 *2483:B 3.955 
*END

*D_NET *542 0.00151378
*CONN
*I *2485:C1 I *D sky130_fd_sc_hd__a221o_1
*I *2484:X O *D sky130_fd_sc_hd__a22o_1
*CAP
1 *2485:C1 0.000281925
2 *2484:X 0.000281925
3 *2485:C1 *805:12 8.40269e-05
4 *2485:C1 *881:57 0.000154239
5 *2485:C1 *898:118 0.00024756
6 *2484:A1 *2485:C1 0.000247567
7 *2485:B2 *2485:C1 0.000216539
*RES
1 *2484:X *2485:C1 15.495 
*END

*D_NET *543 0.000311079
*CONN
*I *2493:B1 I *D sky130_fd_sc_hd__o22ai_2
*I *2485:X O *D sky130_fd_sc_hd__a221o_1
*CAP
1 *2493:B1 4.27535e-05
2 *2485:X 4.27535e-05
3 *2493:B1 *2485:B1 0.000111012
4 *2485:A1 *2493:B1 0.00011456
*RES
1 *2485:X *2493:B1 8.58 
*END

*D_NET *544 0.000957237
*CONN
*I *2487:C1 I *D sky130_fd_sc_hd__a221o_1
*I *2486:X O *D sky130_fd_sc_hd__a22o_1
*CAP
1 *2487:C1 0.000196846
2 *2486:X 0.000196846
3 *2487:C1 *2486:A2 2.75145e-05
4 *2487:C1 *811:36 5.16418e-05
5 *2487:C1 *916:19 0.000138222
6 *2486:A1 *2487:C1 1.16578e-05
7 *2487:B2 *2487:C1 0.000307067
8 *3153:A *2487:C1 2.7441e-05
*RES
1 *2486:X *2487:C1 12.015 
*END

*D_NET *545 0.00311454
*CONN
*I *2492:A I *D sky130_fd_sc_hd__or3_1
*I *2487:X O *D sky130_fd_sc_hd__a221o_1
*CAP
1 *2492:A 0.00113874
2 *2487:X 0.00113874
3 *2492:A *2491:A2 0
4 *2492:A *2493:B2 5.98149e-05
5 *2492:A *2564:B1 0
6 *2492:A *2564:C1 0.000456803
7 *2492:A *2945:D 6.96579e-05
8 *2492:A *805:72 1.4389e-05
9 *2492:A *805:78 5.73739e-05
10 *2492:A *892:49 0.000179015
11 *2564:A1 *2492:A 0
*RES
1 *2487:X *2492:A 22.245 
*END

*D_NET *546 0.000318229
*CONN
*I *2489:C1 I *D sky130_fd_sc_hd__a221o_1
*I *2488:X O *D sky130_fd_sc_hd__a22o_1
*CAP
1 *2489:C1 3.8412e-05
2 *2488:X 3.8412e-05
3 *2489:C1 *590:24 7.06865e-05
4 *2489:C1 *906:22 4.03082e-05
5 *2489:C1 *921:26 0.000120907
6 *2489:B2 *2489:C1 9.50342e-06
*RES
1 *2488:X *2489:C1 8.835 
*END

*D_NET *547 0.000553888
*CONN
*I *2492:B I *D sky130_fd_sc_hd__or3_1
*I *2489:X O *D sky130_fd_sc_hd__a221o_1
*CAP
1 *2492:B 0.000271733
2 *2489:X 0.000271733
3 *2492:B *2917:GATE_N 0
4 *2492:B *590:24 1.04217e-05
5 *2492:B *805:72 0
6 *2489:A1 *2492:B 0
7 *2489:B2 *2492:B 0
*RES
1 *2489:X *2492:B 10.905 
*END

*D_NET *548 0.000667288
*CONN
*I *2491:B1 I *D sky130_fd_sc_hd__a211o_1
*I *2490:X O *D sky130_fd_sc_hd__a22o_1
*CAP
1 *2491:B1 0.00014677
2 *2490:X 0.00014677
3 *2491:B1 *2490:A2 0.000194679
4 *2491:B1 *2491:A2 7.54462e-05
5 *2491:B1 *2491:C1 3.09774e-05
6 *2491:B1 *805:78 3.32667e-05
7 *2491:B1 *855:20 3.00381e-05
8 *2491:A1 *2491:B1 9.34171e-06
*RES
1 *2490:X *2491:B1 10.62 
*END

*D_NET *549 0.000244944
*CONN
*I *2492:C I *D sky130_fd_sc_hd__or3_1
*I *2491:X O *D sky130_fd_sc_hd__a211o_1
*CAP
1 *2492:C 7.91738e-05
2 *2491:X 7.91738e-05
3 *2492:C *805:78 8.65961e-05
*RES
1 *2491:X *2492:C 4.685 
*END

*D_NET *550 0.00499371
*CONN
*I *2493:B2 I *D sky130_fd_sc_hd__o22ai_2
*I *2492:X O *D sky130_fd_sc_hd__or3_1
*CAP
1 *2493:B2 0.00156916
2 *2492:X 0.00156916
3 *2493:B2 *2493:A2 1.10085e-05
4 *2493:B2 *2904:GATE_N 3.95073e-05
5 *2493:B2 *2929:D 4.82863e-05
6 *2493:B2 *2929:GATE_N 4.82748e-05
7 *2493:B2 *2945:D 0.000165132
8 *2493:B2 *3048:D 4.82863e-05
9 *2493:B2 *3048:GATE_N 5.64159e-05
10 *2493:B2 *3057:D 0.000148977
11 *2493:B2 *805:72 3.83041e-05
12 *2493:B2 *805:78 4.99619e-05
13 *2493:B2 *829:88 1.74678e-05
14 *2493:B2 *856:21 0.000592329
15 *2493:B2 *856:60 3.57349e-05
16 *2486:B2 *2493:B2 0.000449095
17 *2487:A1 *2493:B2 4.67945e-05
18 *2492:A *2493:B2 5.98149e-05
*RES
1 *2492:X *2493:B2 27.965 
*END

*D_NET *551 0.00965572
*CONN
*I *2494:B I *D sky130_fd_sc_hd__nor2_1
*I *2630:B I *D sky130_fd_sc_hd__nor2_1
*I *2493:Y O *D sky130_fd_sc_hd__o22ai_2
*CAP
1 *2494:B 0.000359108
2 *2630:B 0
3 *2493:Y 0.00188036
4 *551:40 0.00223947
5 *2494:B *2494:A 5.4155e-06
6 *2494:B *2538:A 1.7902e-05
7 *2494:B *2633:A 7.58604e-05
8 *2494:B *2641:A 2.4511e-05
9 *2494:B *886:40 0.00037258
10 *2494:B *886:44 0.000560564
11 *551:40 *2482:A2 6.33103e-05
12 *551:40 *2493:A2 0.000319134
13 *551:40 *2561:B1 0.000132713
14 *551:40 *2570:A2 4.41506e-05
15 *551:40 *2655:A0 4.82863e-05
16 *551:40 *2655:S 6.53549e-05
17 *551:40 *2794:GATE_N 2.49909e-05
18 *551:40 *2840:D 8.65905e-05
19 *551:40 *3048:GATE_N 5.83121e-06
20 *551:40 *621:20 5.5949e-05
21 *551:40 *807:121 8.24121e-05
22 *551:40 *809:111 0.000676356
23 *551:40 *822:117 0.000138277
24 *551:40 *822:134 2.05056e-05
25 *551:40 *856:67 1.16578e-05
26 *551:40 *856:74 0.000455903
27 *551:40 *886:44 9.50342e-06
28 *551:40 *886:46 0
29 *551:40 *892:121 0.000136604
30 *551:40 *932:49 0.000210165
31 *2493:A1 *551:40 4.82919e-05
32 *2561:A1 *551:40 0.000229435
33 *2794:D *551:40 9.37731e-05
34 *2797:D *2494:B 0.000926908
35 *2797:D *551:40 0.000139245
36 *379:10 *551:40 9.45943e-05
*RES
1 *2493:Y *551:40 46.76 
2 *551:40 *2630:B 3.6 
3 *551:40 *2494:B 16.605 
*END

*D_NET *552 0.00277834
*CONN
*I *2504:B1 I *D sky130_fd_sc_hd__o22ai_2
*I *2495:X O *D sky130_fd_sc_hd__a22o_1
*CAP
1 *2504:B1 0.000753141
2 *2495:X 0.000753141
3 *2504:B1 *2403:A 3.24882e-05
4 *2504:B1 *2403:B 6.97118e-05
5 *2504:B1 *2495:A2 8.8266e-05
6 *2504:B1 *2496:A2 8.53113e-06
7 *2504:B1 *2503:A 2.68568e-05
8 *2504:B1 *2503:B 0.000182941
9 *2504:B1 *2504:B2 2.10155e-05
10 *2504:B1 *3051:GATE_N 4.82919e-05
11 *2504:B1 *3058:D 0
12 *2504:B1 *841:15 1.08758e-05
13 *2504:B1 *893:59 2.937e-05
14 *2504:B1 *917:62 9.387e-06
15 *2495:A1 *2504:B1 2.76781e-05
16 *3129:A *2504:B1 0.000232072
17 *3214:A *2504:B1 1.7635e-05
18 *439:8 *2504:B1 0.000121541
19 *477:30 *2504:B1 0.000255611
20 *485:12 *2504:B1 8.97799e-05
*RES
1 *2495:X *2504:B1 21.81 
*END

*D_NET *553 0.000614355
*CONN
*I *2503:A I *D sky130_fd_sc_hd__or4_1
*I *2496:X O *D sky130_fd_sc_hd__a22o_1
*CAP
1 *2503:A 0.000147194
2 *2496:X 0.000147194
3 *2503:A *2503:B 7.33759e-05
4 *2503:A *2504:B2 6.72196e-05
5 *2503:A *3058:D 3.50959e-05
6 *2503:A *839:50 2.49909e-05
7 *2503:A *866:35 8.65961e-05
8 *2503:A *917:62 5.83121e-06
9 *2504:B1 *2503:A 2.68568e-05
*RES
1 *2496:X *2503:A 10.08 
*END

*D_NET *554 0.000497326
*CONN
*I *2498:C1 I *D sky130_fd_sc_hd__a221o_1
*I *2497:X O *D sky130_fd_sc_hd__a22o_1
*CAP
1 *2498:C1 9.86834e-05
2 *2497:X 9.86834e-05
3 *3112:A *2498:C1 0.000185444
4 *3124:A *2498:C1 0.000114515
*RES
1 *2497:X *2498:C1 9.72 
*END

*D_NET *555 0.00232709
*CONN
*I *2503:B I *D sky130_fd_sc_hd__or4_1
*I *2498:X O *D sky130_fd_sc_hd__a221o_1
*CAP
1 *2503:B 0.000704872
2 *2498:X 0.000704872
3 *2503:B *2498:A2 8.1871e-05
4 *2503:B *2930:GATE_N 5.63701e-05
5 *2503:B *3058:D 1.52862e-05
6 *2503:B *869:66 2.81489e-05
7 *2503:B *869:106 4.21973e-05
8 *2503:B *897:29 2.19562e-06
9 *2503:B *915:33 0.000162311
10 *2503:B *917:62 0.000116622
11 *2503:A *2503:B 7.33759e-05
12 *2504:B1 *2503:B 0.000182941
13 *3127:A *2503:B 0.000156023
*RES
1 *2498:X *2503:B 17.385 
*END

*D_NET *556 0.00199793
*CONN
*I *2503:C I *D sky130_fd_sc_hd__or4_1
*I *2499:X O *D sky130_fd_sc_hd__a22o_1
*CAP
1 *2503:C 0.000406851
2 *2499:X 0.000406851
3 *2503:C *2503:D 1.19928e-05
4 *2503:C *2509:A2 2.09316e-05
5 *2503:C *3051:GATE_N 6.33103e-05
6 *2503:C *823:8 1.3582e-05
7 *2503:C *839:50 0.000190715
8 *2503:C *881:39 0.000146804
9 *2503:C *895:40 0.000172857
10 *2503:C *933:10 0.000100829
11 *2503:C *933:18 0.000362415
12 *3129:A *2503:C 0
13 *3137:A *2503:C 0.000100797
*RES
1 *2499:X *2503:C 16.905 
*END

*D_NET *557 0.000807083
*CONN
*I *2502:B1 I *D sky130_fd_sc_hd__a211o_1
*I *2500:X O *D sky130_fd_sc_hd__a22o_1
*CAP
1 *2502:B1 0.000235267
2 *2500:X 0.000235267
3 *2502:B1 *2500:A2 5.5201e-05
4 *2502:B1 *2850:D 6.64979e-05
5 *2502:B1 *817:28 1.53483e-05
6 *2500:A1 *2502:B1 3.8459e-05
7 *2500:B2 *2502:B1 3.45679e-05
8 *2502:A1 *2502:B1 0.000126474
*RES
1 *2500:X *2502:B1 11.955 
*END

*D_NET *558 0.00016268
*CONN
*I *2502:C1 I *D sky130_fd_sc_hd__a211o_1
*I *2501:X O *D sky130_fd_sc_hd__a221o_1
*CAP
1 *2502:C1 5.03141e-05
2 *2501:X 5.03141e-05
3 *2502:C1 *903:91 0
4 *2502:C1 *907:14 2.68526e-05
5 *2502:C1 *907:16 5.83121e-06
6 *2500:A1 *2502:C1 2.93678e-05
*RES
1 *2501:X *2502:C1 4.37 
*END

*D_NET *559 0.00932519
*CONN
*I *2503:D I *D sky130_fd_sc_hd__or4_1
*I *2502:X O *D sky130_fd_sc_hd__a211o_1
*CAP
1 *2503:D 0.00315202
2 *2502:X 0.00315202
3 *2503:D *2420:C 0.000418613
4 *2503:D *2424:B 8.23457e-05
5 *2503:D *2424:D 8.40213e-05
6 *2503:D *2598:A2 7.92917e-05
7 *2503:D *2598:C1 2.5133e-05
8 *2503:D *2602:A 4.80285e-05
9 *2503:D *2602:B 1.548e-05
10 *2503:D *2602:C 4.16353e-05
11 *2503:D *2603:B2 2.86265e-06
12 *2503:D *2971:D 2.49909e-05
13 *2503:D *2971:GATE_N 1.91597e-05
14 *2503:D *3051:GATE_N 0.00101943
15 *2503:D *3223:A 5.06815e-05
16 *2503:D *3226:A 0.000134938
17 *2503:D *821:6 2.05056e-05
18 *2503:D *907:12 0.00025697
19 *2503:D *907:14 0.00015639
20 *2503:D *909:18 5.13792e-05
21 *2503:D *947:8 0.000196376
22 *2503:D *947:14 3.43327e-05
23 *2503:C *2503:D 1.19928e-05
24 *2598:B2 *2503:D 6.00112e-05
25 *3192:A *2503:D 7.23533e-05
26 *3196:A *2503:D 7.06865e-05
27 *3308:A *2503:D 4.35348e-05
*RES
1 *2502:X *2503:D 46.935 
*END

*D_NET *560 0.000446841
*CONN
*I *2504:B2 I *D sky130_fd_sc_hd__o22ai_2
*I *2503:X O *D sky130_fd_sc_hd__or4_1
*CAP
1 *2504:B2 7.68712e-05
2 *2503:X 7.68712e-05
3 *2504:B2 *3051:GATE_N 4.66108e-05
4 *2504:B2 *3058:D 0.000130739
5 *2504:B2 *893:59 2.75145e-05
6 *2503:A *2504:B2 6.72196e-05
7 *2504:B1 *2504:B2 2.10155e-05
*RES
1 *2503:X *2504:B2 9.285 
*END

*D_NET *561 0.00612501
*CONN
*I *2631:B I *D sky130_fd_sc_hd__nor2_1
*I *2505:B I *D sky130_fd_sc_hd__nor2_1
*I *2504:Y O *D sky130_fd_sc_hd__o22ai_2
*CAP
1 *2631:B 9.53501e-06
2 *2505:B 9.55535e-05
3 *2504:Y 0.00154827
4 *561:14 0.00165335
5 *2505:B *2505:A 4.82919e-05
6 *2505:B *887:22 0.000148477
7 *2505:B *887:28 8.53113e-06
8 *2631:B *887:22 1.05827e-05
9 *561:14 *2504:A2 9.58678e-06
10 *561:14 *2648:A0 0
11 *561:14 *2648:A1 0
12 *561:14 *3075:GATE_N 0.000408645
13 *561:14 *651:26 0.000247895
14 *561:14 *806:12 0.000298865
15 *561:14 *806:14 0.000239218
16 *561:14 *826:12 4.1977e-05
17 *2504:A1 *561:14 9.32397e-06
18 *2820:D *2505:B 1.83756e-05
19 *3136:A *561:14 0.00132854
20 *431:10 *2505:B 0
*RES
1 *2504:Y *561:14 9.3207 
2 *561:14 *2505:B 5.8125 
3 *561:14 *2631:B 3.8325 
*END

*D_NET *562 0.000452785
*CONN
*I *2507:C1 I *D sky130_fd_sc_hd__a221o_1
*I *2506:X O *D sky130_fd_sc_hd__a22o_1
*CAP
1 *2507:C1 0.000178711
2 *2506:X 0.000178711
3 *2507:B2 *2507:C1 9.50342e-06
4 *2804:D *2507:C1 0
5 *3105:A *2507:C1 5.83373e-05
6 *3182:A *2507:C1 2.75229e-05
*RES
1 *2506:X *2507:C1 9.72 
*END

*D_NET *563 6.53069e-05
*CONN
*I *2515:B1 I *D sky130_fd_sc_hd__o22ai_1
*I *2507:X O *D sky130_fd_sc_hd__a221o_1
*CAP
1 *2515:B1 3.06251e-05
2 *2507:X 3.06251e-05
3 *2804:D *2515:B1 4.05674e-06
*RES
1 *2507:X *2515:B1 3.65 
*END

*D_NET *564 0.00390632
*CONN
*I *2509:C1 I *D sky130_fd_sc_hd__a221o_1
*I *2508:X O *D sky130_fd_sc_hd__a22o_1
*CAP
1 *2509:C1 0.000664283
2 *2508:X 0.000664283
3 *2509:C1 *2508:B1 6.69341e-05
4 *2509:C1 *2915:D 4.66108e-05
5 *2509:C1 *2931:D 0.000197535
6 *2509:C1 *828:70 3.77036e-05
7 *2509:C1 *867:28 0.000641896
8 *2509:C1 *895:81 7.67415e-06
9 *2509:C1 *912:43 0.000233378
10 *2509:C1 *912:58 0.00103122
11 *2509:C1 *1012:16 2.10433e-05
12 *2508:A1 *2509:C1 1.22572e-05
13 *2509:B2 *2509:C1 7.03626e-05
14 *3105:A *2509:C1 0.000153816
15 *3108:A *2509:C1 4.40713e-05
16 *3109:A *2509:C1 1.32517e-05
*RES
1 *2508:X *2509:C1 25.095 
*END

*D_NET *565 0.0101885
*CONN
*I *2514:A I *D sky130_fd_sc_hd__or3_1
*I *2509:X O *D sky130_fd_sc_hd__a221o_1
*CAP
1 *2514:A 0.00284148
2 *2509:X 0.00284148
3 *2514:A *2423:A 1.88656e-05
4 *2514:A *2462:B1 0.000282214
5 *2514:A *2515:B2 0.00238145
6 *2514:A *3083:GATE_N 1.58362e-05
7 *2514:A *806:14 2.85081e-06
8 *2514:A *808:54 2.60489e-05
9 *2514:A *812:28 0.000344801
10 *2514:A *840:29 0.000524349
11 *2514:A *929:83 0.000850794
12 *2510:A1 *2514:A 2.05571e-05
13 *3126:A *2514:A 1.88656e-05
14 *3134:A *2514:A 1.88602e-05
*RES
1 *2509:X *2514:A 16.6855 
*END

*D_NET *566 0.00103301
*CONN
*I *2511:C1 I *D sky130_fd_sc_hd__a221o_1
*I *2510:X O *D sky130_fd_sc_hd__a22o_1
*CAP
1 *2511:C1 0.000166464
2 *2510:X 0.000166464
3 *2511:C1 *2511:A2 2.91343e-05
4 *2511:C1 *2513:A2 0.000155491
5 *2511:C1 *2514:C 8.40269e-05
6 *2511:C1 *2522:A2 2.75229e-05
7 *2511:C1 *2523:B1 0.000113797
8 *2511:C1 *2524:C1 0.000113797
9 *2511:C1 *925:86 7.22558e-05
10 *2511:B2 *2511:C1 1.12643e-05
11 *2513:A1 *2511:C1 6.97118e-05
12 *3118:A *2511:C1 2.30838e-05
*RES
1 *2510:X *2511:C1 12.15 
*END

*D_NET *567 0.000483246
*CONN
*I *2514:B I *D sky130_fd_sc_hd__or3_1
*I *2511:X O *D sky130_fd_sc_hd__a221o_1
*CAP
1 *2514:B 0.00014556
2 *2511:X 0.00014556
3 *2514:B *2513:A2 0.000192125
*RES
1 *2511:X *2514:B 5.03 
*END

*D_NET *568 0.000999605
*CONN
*I *2513:B1 I *D sky130_fd_sc_hd__a211o_1
*I *2512:X O *D sky130_fd_sc_hd__a22o_1
*CAP
1 *2513:B1 0.000222985
2 *2512:X 0.000222985
3 *2513:B1 *2512:B1 9.02259e-05
4 *2513:B1 *2524:C1 0
5 *2513:B1 *2851:GATE_N 0.000245893
6 *2513:B1 *2978:GATE_N 9.42224e-05
7 *2511:B2 *2513:B1 0.00011379
8 *2513:A1 *2513:B1 9.50342e-06
*RES
1 *2512:X *2513:B1 12.105 
*END

*D_NET *569 0.000800006
*CONN
*I *2514:C I *D sky130_fd_sc_hd__or3_1
*I *2513:X O *D sky130_fd_sc_hd__a211o_1
*CAP
1 *2514:C 9.80603e-05
2 *2513:X 9.80603e-05
3 *2514:C *2513:A2 6.27029e-05
4 *2514:C *2521:A2 8.53113e-06
5 *2514:C *2524:C1 0.000134516
6 *2514:C *925:86 0.000158066
7 *2514:C *929:26 0.000136884
8 *2511:C1 *2514:C 8.40269e-05
9 *3118:A *2514:C 1.91597e-05
*RES
1 *2513:X *2514:C 10.665 
*END

*D_NET *570 0.0159186
*CONN
*I *2515:B2 I *D sky130_fd_sc_hd__o22ai_1
*I *2514:X O *D sky130_fd_sc_hd__or3_1
*CAP
1 *2515:B2 0.00552876
2 *2514:X 0.00552876
3 *2515:B2 *2462:B1 0.000284201
4 *2515:B2 *2515:A2 0
5 *2515:B2 *2604:B 2.03321e-05
6 *2515:B2 *2648:A0 0.00153227
7 *2515:B2 *2648:A1 1.76842e-05
8 *2515:B2 *3075:GATE_N 0
9 *2515:B2 *808:14 0
10 *2515:B2 *808:54 0.000101015
11 *2515:B2 *812:28 0.000337613
12 *2515:B2 *838:18 0
13 *2515:B2 *845:29 0
14 *2515:B2 *867:10 0
15 *2515:B2 *867:16 0
16 *2515:B2 *905:47 1.88904e-05
17 *2507:A1 *2515:B2 0
18 *2507:B2 *2515:B2 0
19 *2514:A *2515:B2 0.00238145
20 *2515:A1 *2515:B2 0.000148029
21 *3162:A *2515:B2 1.95944e-05
*RES
1 *2514:X *2515:B2 25.9958 
*END

*D_NET *571 0.00267526
*CONN
*I *2632:B I *D sky130_fd_sc_hd__nor2_1
*I *2516:B I *D sky130_fd_sc_hd__nor2_1
*I *2515:Y O *D sky130_fd_sc_hd__o22ai_1
*CAP
1 *2632:B 0.000193751
2 *2516:B 0.000216085
3 *2515:Y 0.000278911
4 *571:10 0.000688747
5 *2516:B *2648:S 4.82919e-05
6 *2516:B *885:26 0.000248544
7 *2516:B *885:32 1.52184e-05
8 *2516:B *962:60 0
9 *2632:B *2632:A 5.84828e-05
10 *2632:B *885:26 0.000103974
11 *571:10 *2515:A2 0.000119756
12 *2516:A *2516:B 0.000481797
13 *2516:A *2632:B 0.000177568
14 *2804:D *571:10 4.4134e-05
*RES
1 *2515:Y *571:10 7.86 
2 *571:10 *2516:B 10.125 
3 *571:10 *2632:B 7.935 
*END

*D_NET *572 0.00149648
*CONN
*I *2518:C1 I *D sky130_fd_sc_hd__a221o_1
*I *2517:X O *D sky130_fd_sc_hd__a22o_1
*CAP
1 *2518:C1 0.000364166
2 *2517:X 0.000364166
3 *2518:C1 *2518:A2 0
4 *2518:C1 *2526:B2 0
5 *2518:C1 *2547:B1 9.34411e-05
6 *2518:C1 *865:21 0.00015829
7 *2518:C1 *865:25 0.000160658
8 *2517:A1 *2518:C1 0.00035576
9 *382:10 *2518:C1 0
*RES
1 *2517:X *2518:C1 14.745 
*END

*D_NET *573 0.000247569
*CONN
*I *2526:B1 I *D sky130_fd_sc_hd__o22ai_1
*I *2518:X O *D sky130_fd_sc_hd__a221o_1
*CAP
1 *2526:B1 2.98724e-05
2 *2518:X 2.98724e-05
3 *2526:B1 *2515:A2 9.47454e-05
4 *382:10 *2526:B1 9.30787e-05
*RES
1 *2518:X *2526:B1 8.325 
*END

*D_NET *574 0.00126534
*CONN
*I *2520:C1 I *D sky130_fd_sc_hd__a221o_1
*I *2519:X O *D sky130_fd_sc_hd__a22o_1
*CAP
1 *2520:C1 0.000197056
2 *2519:X 0.000197056
3 *2520:C1 *2519:A2 0.000123225
4 *2520:C1 *2614:B2 3.09088e-05
5 *2520:C1 *2900:GATE_N 0.000200099
6 *2519:A1 *2520:C1 4.59464e-05
7 *2519:B2 *2520:C1 0.000133535
8 *2520:B2 *2520:C1 0.000134509
9 *3186:A *2520:C1 6.29933e-05
10 *3202:A *2520:C1 0.000140013
*RES
1 *2519:X *2520:C1 13.725 
*END

*D_NET *575 0.00555236
*CONN
*I *2525:A I *D sky130_fd_sc_hd__or3_1
*I *2520:X O *D sky130_fd_sc_hd__a221o_1
*CAP
1 *2525:A 0.00144304
2 *2520:X 0.00144304
3 *2525:A *2892:GATE_N 4.60584e-05
4 *2525:A *2943:GATE_N 5.13155e-05
5 *2525:A *3212:A 8.23457e-05
6 *2525:A *580:16 0.00040787
7 *2525:A *814:12 5.05521e-05
8 *2525:A *832:47 0.000630959
9 *2525:A *864:10 0
10 *2525:A *864:27 0.000459366
11 *2525:A *928:14 4.73967e-05
12 *2519:B2 *2525:A 0.000311288
13 *2520:A1 *2525:A 2.84224e-05
14 *2609:A1 *2525:A 0.000116301
15 *2609:B2 *2525:A 0.000198046
16 *3114:A *2525:A 0.00023635
*RES
1 *2520:X *2525:A 37.32 
*END

*D_NET *576 0.00136113
*CONN
*I *2522:C1 I *D sky130_fd_sc_hd__a221o_1
*I *2521:X O *D sky130_fd_sc_hd__a22o_1
*CAP
1 *2522:C1 0.000250974
2 *2521:X 0.000250974
3 *2522:C1 *2522:A2 6.74384e-05
4 *2522:C1 *2522:B1 0.00014969
5 *2522:C1 *2524:C1 6.47594e-05
6 *2522:C1 *2525:B 6.6564e-05
7 *2522:C1 *2525:C 4.40899e-05
8 *2522:C1 *832:47 3.41969e-05
9 *2521:A1 *2522:C1 0.000407505
10 *2522:B2 *2522:C1 2.49381e-05
11 *3134:A *2522:C1 0
*RES
1 *2521:X *2522:C1 14.88 
*END

*D_NET *577 0.00057021
*CONN
*I *2525:B I *D sky130_fd_sc_hd__or3_1
*I *2522:X O *D sky130_fd_sc_hd__a221o_1
*CAP
1 *2525:B 0.000193074
2 *2522:X 0.000193074
3 *2525:B *2522:B1 7.08882e-05
4 *2521:A1 *2525:B 4.66108e-05
5 *2522:C1 *2525:B 6.6564e-05
*RES
1 *2522:X *2525:B 5.72 
*END

*D_NET *578 0.0011686
*CONN
*I *2524:B1 I *D sky130_fd_sc_hd__a211o_1
*I *2523:X O *D sky130_fd_sc_hd__a22o_1
*CAP
1 *2524:B1 0.000169418
2 *2523:X 0.000169418
3 *2524:B1 *2522:A2 5.72091e-05
4 *2524:B1 *2524:C1 4.99619e-05
5 *2524:B1 *2852:GATE_N 0.000140912
6 *2524:B1 *864:47 0.000425307
7 *2524:A1 *2524:B1 0.000156374
*RES
1 *2523:X *2524:B1 13.095 
*END

*D_NET *579 0.000835345
*CONN
*I *2525:C I *D sky130_fd_sc_hd__or3_1
*I *2524:X O *D sky130_fd_sc_hd__a211o_1
*CAP
1 *2525:C 0.000277003
2 *2524:X 0.000277003
3 *2525:C *864:47 0.000237249
4 *2522:C1 *2525:C 4.40899e-05
5 *3134:A *2525:C 0
*RES
1 *2524:X *2525:C 11.01 
*END

*D_NET *580 0.0143999
*CONN
*I *2526:B2 I *D sky130_fd_sc_hd__o22ai_1
*I *2525:X O *D sky130_fd_sc_hd__or3_1
*CAP
1 *2526:B2 0.0018109
2 *2525:X 0.00272731
3 *580:16 0.0045382
4 *2526:B2 *2463:B1 0.000764922
5 *2526:B2 *2518:B1 8.85103e-05
6 *2526:B2 *2520:A2 0.000165471
7 *2526:B2 *2619:A2 5.25277e-05
8 *2526:B2 *2619:B1 0.000384816
9 *2526:B2 *2619:C1 2.16825e-05
10 *2526:B2 *2916:D 0.000205986
11 *2526:B2 *2916:GATE_N 7.09832e-05
12 *2526:B2 *3076:GATE_N 0.000571824
13 *2526:B2 *865:6 0.000223111
14 *2526:B2 *893:114 0.000178584
15 *2526:B2 *919:51 0.000107415
16 *580:16 *2520:A2 2.62192e-05
17 *580:16 *2522:B1 0.000497665
18 *580:16 *2892:GATE_N 5.05521e-05
19 *580:16 *2895:D 3.45679e-05
20 *580:16 *2895:GATE_N 3.72916e-05
21 *580:16 *2932:GATE_N 0.000485819
22 *580:16 *2943:GATE_N 0.000119762
23 *580:16 *832:47 0.000310826
24 *580:16 *864:27 0.000176923
25 *2518:C1 *2526:B2 0
26 *2519:B2 *580:16 8.58339e-06
27 *2520:B2 *580:16 7.06865e-05
28 *2525:A *580:16 0.00040787
29 *2609:B2 *580:16 7.47457e-05
30 *3186:A *580:16 7.23602e-05
31 *382:10 *2526:B2 0.00011379
*RES
1 *2525:X *580:16 41.195 
2 *580:16 *2526:B2 37.91 
*END

*D_NET *581 0.00261773
*CONN
*I *2527:B I *D sky130_fd_sc_hd__nor2_1
*I *2633:B I *D sky130_fd_sc_hd__nor2_1
*I *2526:Y O *D sky130_fd_sc_hd__o22ai_1
*CAP
1 *2527:B 0
2 *2633:B 6.19122e-05
3 *2526:Y 0.00060487
4 *581:10 0.000666782
5 *2633:B *2538:A 4.74383e-05
6 *2633:B *885:32 4.18603e-06
7 *2633:B *885:36 6.5265e-05
8 *2633:B *886:14 9.50342e-06
9 *581:10 *2515:A2 8.77825e-05
10 *581:10 *2538:A 2.68721e-05
11 *581:10 *661:26 0.000361299
12 *581:10 *885:32 0.000118951
13 *581:10 *886:14 0.000117832
14 *581:10 *887:30 0.000240144
15 *2526:A1 *581:10 3.71082e-05
16 *2797:D *2633:B 5.39961e-05
17 *2813:D *2633:B 0.00011379
*RES
1 *2526:Y *581:10 15.27 
2 *581:10 *2633:B 6 
3 *581:10 *2527:B 3.6 
*END

*D_NET *582 0.000854711
*CONN
*I *2529:C1 I *D sky130_fd_sc_hd__a221o_1
*I *2528:X O *D sky130_fd_sc_hd__a22o_1
*CAP
1 *2529:C1 0.000277511
2 *2528:X 0.000277511
3 *2529:C1 *2529:B1 3.6537e-05
4 *2529:C1 *2562:B1 0.000160635
5 *2529:C1 *914:157 4.66742e-05
6 *2529:B2 *2529:C1 5.58436e-05
*RES
1 *2528:X *2529:C1 7.025 
*END

*D_NET *583 0.000944433
*CONN
*I *2537:B1 I *D sky130_fd_sc_hd__o22ai_1
*I *2529:X O *D sky130_fd_sc_hd__a221o_1
*CAP
1 *2537:B1 0.000249319
2 *2529:X 0.000249319
3 *2537:B1 *2537:B2 3.37933e-05
4 *2537:B1 *2547:A2 9.44791e-05
5 *2537:B1 *2642:B 0.000120655
6 *2529:A1 *2537:B1 3.69198e-05
7 *2537:A1 *2537:B1 0.000159947
*RES
1 *2529:X *2537:B1 11.88 
*END

*D_NET *584 0.00062045
*CONN
*I *2531:C1 I *D sky130_fd_sc_hd__a221o_1
*I *2530:X O *D sky130_fd_sc_hd__a22o_1
*CAP
1 *2531:C1 0.000166564
2 *2530:X 0.000166564
3 *2531:C1 *2901:GATE_N 0
4 *2531:C1 *852:16 0
5 *2531:C1 *892:43 0
6 *2531:C1 *898:31 0.000287321
*RES
1 *2530:X *2531:C1 10.62 
*END

*D_NET *585 0.00379036
*CONN
*I *2536:A I *D sky130_fd_sc_hd__or3_1
*I *2531:X O *D sky130_fd_sc_hd__a221o_1
*CAP
1 *2536:A 0.0010951
2 *2531:X 0.0010951
3 *2536:A *2489:B1 0
4 *2536:A *2531:B1 4.66108e-05
5 *2536:A *2592:B2 0.000243349
6 *2536:A *2917:GATE_N 1.79536e-05
7 *2536:A *3034:GATE_N 2.75145e-05
8 *2536:A *590:24 0.000608344
9 *2536:A *805:34 4.82863e-05
10 *2536:A *805:42 0.000108357
11 *2536:A *892:43 1.7635e-05
12 *2536:A *908:28 0.000247621
13 *2536:A *923:26 0.000152145
14 *2536:A *923:36 8.23457e-05
*RES
1 *2531:X *2536:A 22.1683 
*END

*D_NET *586 0.00116891
*CONN
*I *2533:C1 I *D sky130_fd_sc_hd__a221o_1
*I *2532:X O *D sky130_fd_sc_hd__a22o_1
*CAP
1 *2533:C1 0.000182026
2 *2532:X 0.000182026
3 *2533:C1 *2532:B1 1.77611e-05
4 *2533:C1 *2853:GATE_N 8.52845e-05
5 *2533:C1 *836:22 0.000304641
6 *2533:C1 *862:35 0.000336877
7 *2532:A1 *2533:C1 1.20052e-05
8 *2533:A1 *2533:C1 4.82919e-05
*RES
1 *2532:X *2533:C1 8.51 
*END

*D_NET *587 0.00249775
*CONN
*I *2536:B I *D sky130_fd_sc_hd__or3_1
*I *2533:X O *D sky130_fd_sc_hd__a221o_1
*CAP
1 *2536:B 0.000806977
2 *2533:X 0.000806977
3 *2536:B *3018:GATE_N 7.38427e-05
4 *2536:B *862:25 0.000293598
5 *2536:B *862:35 0.0001865
6 *2536:B *904:24 0
7 *2536:B *908:28 0.000137279
8 *2536:B *908:34 6.24571e-05
9 *2589:A1 *2536:B 0.000115398
10 *2589:B2 *2536:B 1.47256e-05
*RES
1 *2533:X *2536:B 18.525 
*END

*D_NET *588 0.000547593
*CONN
*I *2535:B1 I *D sky130_fd_sc_hd__a211o_1
*I *2534:X O *D sky130_fd_sc_hd__a22o_1
*CAP
1 *2535:B1 0.000124244
2 *2534:X 0.000124244
3 *2535:B1 *2534:A2 9.8201e-05
4 *2535:B1 *2535:C1 4.82863e-05
5 *2535:B1 *831:40 2.06762e-05
6 *2535:B1 *904:28 2.15594e-05
7 *2535:B1 *908:62 6.20952e-05
8 *2535:A1 *2535:B1 4.82863e-05
*RES
1 *2534:X *2535:B1 9.825 
*END

*D_NET *589 0.000662054
*CONN
*I *2536:C I *D sky130_fd_sc_hd__or3_1
*I *2535:X O *D sky130_fd_sc_hd__a211o_1
*CAP
1 *2536:C 0.000174032
2 *2535:X 0.000174032
3 *2536:C *2535:C1 3.34652e-05
4 *2536:C *833:12 0.000139238
5 *2536:C *921:30 4.40325e-06
6 *2536:C *934:26 0.000136884
*RES
1 *2535:X *2536:C 10.32 
*END

*D_NET *590 0.0129436
*CONN
*I *2537:B2 I *D sky130_fd_sc_hd__o22ai_1
*I *2536:X O *D sky130_fd_sc_hd__or3_1
*CAP
1 *2537:B2 0.00176013
2 *2536:X 0.00309209
3 *590:24 0.00485222
4 *2537:B2 *2537:A2 4.82919e-05
5 *2537:B2 *2642:B 4.82919e-05
6 *2537:B2 *2837:D 0.000172724
7 *2537:B2 *2954:D 0.000141467
8 *2537:B2 *2954:GATE_N 0.000411679
9 *2537:B2 *3050:GATE_N 5.83121e-06
10 *2537:B2 *852:47 0.000121401
11 *2537:B2 *863:77 5.02121e-05
12 *2537:B2 *916:95 3.84812e-05
13 *2537:B2 *932:49 8.73389e-06
14 *590:24 *2489:A2 1.38613e-05
15 *590:24 *2564:B1 6.47192e-05
16 *590:24 *2833:D 1.56428e-05
17 *590:24 *3041:D 0.000130912
18 *590:24 *805:18 0.00044693
19 *590:24 *805:127 9.98747e-05
20 *590:24 *811:143 0.000114492
21 *590:24 *822:49 0
22 *590:24 *851:20 0.000261802
23 *590:24 *871:118 1.29825e-05
24 *590:24 *898:50 1.64405e-05
25 *590:24 *906:22 7.23533e-05
26 *590:24 *921:28 1.2583e-05
27 *2489:B2 *590:24 3.78034e-06
28 *2489:C1 *590:24 7.06865e-05
29 *2492:B *590:24 1.04217e-05
30 *2493:A1 *590:24 5.84749e-05
31 *2536:A *590:24 0.000608344
32 *2537:A1 *2537:B2 0.000143995
33 *2537:B1 *2537:B2 3.37933e-05
*RES
1 *2536:X *590:24 48.66 
2 *590:24 *2537:B2 23.815 
*END

*D_NET *591 0.00177436
*CONN
*I *2538:B I *D sky130_fd_sc_hd__nor2_1
*I *2634:B I *D sky130_fd_sc_hd__nor2_1
*I *2537:Y O *D sky130_fd_sc_hd__o22ai_1
*CAP
1 *2538:B 0.000210916
2 *2634:B 8.85067e-05
3 *2537:Y 0.000152482
4 *591:6 0.000451905
5 *2538:B *2626:B 0.000167875
6 *2538:B *2642:B 3.64998e-06
7 *2634:B *2649:A0 0.000293719
8 *2634:B *888:19 0.000156871
9 *2634:B *888:21 5.53249e-06
10 *591:6 *2537:A2 8.57024e-05
11 *591:6 *2642:B 3.74359e-05
12 *2822:D *2538:B 0.000119762
*RES
1 *2537:Y *591:6 3.43 
2 *591:6 *2634:B 9.02 
3 *591:6 *2538:B 5.545 
*END

*D_NET *592 0.000747659
*CONN
*I *2540:C1 I *D sky130_fd_sc_hd__a221o_1
*I *2539:X O *D sky130_fd_sc_hd__a22o_1
*CAP
1 *2540:C1 0.000171848
2 *2539:X 0.000171848
3 *2540:C1 *2539:B1 4.99619e-05
4 *2540:C1 *809:20 0.000157702
5 *2540:C1 *898:93 6.43909e-05
6 *2540:B2 *2540:C1 0.000131907
*RES
1 *2539:X *2540:C1 11.325 
*END

*D_NET *593 0.000559555
*CONN
*I *2545:A I *D sky130_fd_sc_hd__or3_1
*I *2540:X O *D sky130_fd_sc_hd__a221o_1
*CAP
1 *2545:A 0.000159206
2 *2540:X 0.000159206
3 *2545:A *2545:C 0.000111036
4 *2545:A *2548:B1 8.66976e-06
5 *2545:A *809:20 0
6 *2545:A *822:39 0
7 *2545:A *847:131 0.000121437
*RES
1 *2540:X *2545:A 9.72 
*END

*D_NET *594 9.47435e-05
*CONN
*I *2545:B I *D sky130_fd_sc_hd__or3_1
*I *2541:X O *D sky130_fd_sc_hd__a22o_1
*CAP
1 *2545:B 4.16757e-05
2 *2541:X 4.16757e-05
3 *2545:B *2509:A2 1.1392e-05
*RES
1 *2541:X *2545:B 3.65 
*END

*D_NET *595 0.000759284
*CONN
*I *2544:B1 I *D sky130_fd_sc_hd__a211o_1
*I *2542:X O *D sky130_fd_sc_hd__a22o_1
*CAP
1 *2544:B1 0.000152788
2 *2542:X 0.000152788
3 *2544:B1 *2542:A2 0.000116747
4 *2544:B1 *906:93 9.14049e-05
5 *2542:B2 *2544:B1 0
6 *2543:A1 *2544:B1 9.30787e-05
7 *2544:A1 *2544:B1 1.26548e-05
8 *3132:A *2544:B1 0.000139823
*RES
1 *2542:X *2544:B1 11.175 
*END

*D_NET *596 0.000439151
*CONN
*I *2544:C1 I *D sky130_fd_sc_hd__a211o_1
*I *2543:X O *D sky130_fd_sc_hd__a221o_1
*CAP
1 *2544:C1 0.000122625
2 *2543:X 0.000122625
3 *2544:C1 *3020:GATE_N 6.83659e-05
4 *2544:C1 *816:10 0
5 *2544:C1 *928:39 0.000118527
6 *2543:A1 *2544:C1 7.00889e-06
*RES
1 *2543:X *2544:C1 9.72 
*END

*D_NET *597 0.00848728
*CONN
*I *2545:C I *D sky130_fd_sc_hd__or3_1
*I *2544:X O *D sky130_fd_sc_hd__a211o_1
*CAP
1 *2545:C 0.00211877
2 *2544:X 0.00211877
3 *2545:C *2542:A2 6.32637e-06
4 *2545:C *2544:A2 6.57653e-06
5 *2545:C *2613:A 0.000196775
6 *2545:C *2938:GATE_N 0.000335228
7 *2545:C *814:37 0.00015896
8 *2545:C *814:45 7.9642e-06
9 *2545:C *816:18 0.000160635
10 *2545:C *825:18 9.83311e-05
11 *2545:C *825:20 0.000405401
12 *2545:C *851:53 0.000336669
13 *2545:C *861:14 0.000347888
14 *2545:C *881:57 0.000179045
15 *2545:C *898:14 0.000324448
16 *2545:C *898:89 0.00111119
17 *2545:C *898:93 5.02126e-06
18 *2540:A1 *2545:C 3.85204e-05
19 *2545:A *2545:C 0.000111036
20 *3132:A *2545:C 2.53191e-06
21 *3144:A *2545:C 0.00041719
*RES
1 *2544:X *2545:C 17.7051 
*END

*D_NET *598 0.00572054
*CONN
*I *2548:B1 I *D sky130_fd_sc_hd__o22ai_1
*I *2545:X O *D sky130_fd_sc_hd__or3_1
*CAP
1 *2548:B1 0.00106998
2 *2545:X 0.00106998
3 *2548:B1 *2507:A2 0.000477495
4 *2548:B1 *2547:B1 2.23342e-05
5 *2548:B1 *2548:B2 2.23342e-05
6 *2548:B1 *2613:A 0.000510127
7 *2548:B1 *2844:GATE_N 0.000102443
8 *2548:B1 *809:20 3.16707e-06
9 *2548:B1 *822:39 8.7152e-06
10 *2548:B1 *830:71 0.00128443
11 *2548:B1 *861:14 0.000407887
12 *2548:B1 *914:151 0.000732984
13 *2545:A *2548:B1 8.66976e-06
*RES
1 *2545:X *2548:B1 12.9201 
*END

*D_NET *599 0.00173926
*CONN
*I *2547:C1 I *D sky130_fd_sc_hd__a221o_1
*I *2546:X O *D sky130_fd_sc_hd__a22o_1
*CAP
1 *2547:C1 0.000544369
2 *2546:X 0.000544369
3 *2547:C1 *3156:A 8.50837e-05
4 *2547:C1 *838:34 0.000229203
5 *2547:C1 *860:6 3.64998e-06
6 *2547:C1 *860:10 1.56428e-05
7 *2547:C1 *860:16 0.000160658
8 *2547:C1 *860:97 7.5416e-05
9 *2547:C1 *894:142 3.25792e-05
10 *2546:B2 *2547:C1 4.82919e-05
*RES
1 *2546:X *2547:C1 15.48 
*END

*D_NET *600 0.000813742
*CONN
*I *2548:B2 I *D sky130_fd_sc_hd__o22ai_1
*I *2547:X O *D sky130_fd_sc_hd__a221o_1
*CAP
1 *2548:B2 0.000256825
2 *2547:X 0.000256825
3 *2548:B2 *2547:B1 0
4 *2548:B2 *884:20 9.68787e-05
5 *2517:A1 *2548:B2 8.53113e-06
6 *2547:A1 *2548:B2 9.83202e-05
7 *2547:B2 *2548:B2 7.4027e-05
8 *2548:B1 *2548:B2 2.23342e-05
9 *382:10 *2548:B2 0
*RES
1 *2547:X *2548:B2 12.915 
*END

*D_NET *601 0.00216385
*CONN
*I *2549:B I *D sky130_fd_sc_hd__nor2_1
*I *2635:B I *D sky130_fd_sc_hd__nor2_1
*I *2548:Y O *D sky130_fd_sc_hd__o22ai_1
*CAP
1 *2549:B 0.000198059
2 *2635:B 0.00026265
3 *2548:Y 0.000243591
4 *601:8 0.0007043
5 *2635:B *2649:A0 0.000140905
6 *2635:B *2649:S 0.000118513
7 *2635:B *885:32 0
8 *2635:B *885:36 0
9 *2635:B *932:22 0
10 *601:8 *2548:A2 0.000159324
11 *2548:A1 *2635:B 0.00011852
12 *2548:A1 *601:8 8.33607e-05
13 *2815:D *2549:B 1.08758e-05
14 *3161:A *2635:B 0.000123751
*RES
1 *2548:Y *601:8 5.515 
2 *601:8 *2635:B 12.08 
3 *601:8 *2549:B 4.39 
*END

*D_NET *602 0.000747038
*CONN
*I *2551:C1 I *D sky130_fd_sc_hd__a221o_1
*I *2550:X O *D sky130_fd_sc_hd__a22o_1
*CAP
1 *2551:C1 0.000197816
2 *2550:X 0.000197816
3 *2551:C1 *2452:B1 1.15688e-05
4 *2551:C1 *892:121 0.000111061
5 *2551:B2 *2551:C1 9.50342e-06
6 *3154:A *2551:C1 0.000219272
*RES
1 *2550:X *2551:C1 10.41 
*END

*D_NET *603 0.000174364
*CONN
*I *2559:B1 I *D sky130_fd_sc_hd__o22ai_2
*I *2551:X O *D sky130_fd_sc_hd__a221o_1
*CAP
1 *2559:B1 4.75477e-05
2 *2551:X 4.75477e-05
3 *2559:B1 *2473:A2 5.38886e-05
4 *2559:B1 *911:92 2.53806e-05
*RES
1 *2551:X *2559:B1 4.265 
*END

*D_NET *604 0.00156867
*CONN
*I *2553:C1 I *D sky130_fd_sc_hd__a221o_1
*I *2552:X O *D sky130_fd_sc_hd__a22o_1
*CAP
1 *2553:C1 0.000410312
2 *2552:X 0.000410312
3 *2553:C1 *2552:A2 6.15324e-05
4 *2553:C1 *2553:A2 0.000193801
5 *2553:C1 *2558:A 2.8185e-05
6 *2553:C1 *3047:D 0.000255249
7 *2553:C1 *859:24 0.000120655
8 *2553:C1 *916:50 2.59981e-05
9 *2553:A1 *2553:C1 4.99619e-05
10 *3151:A *2553:C1 1.26626e-05
11 *385:8 *2553:C1 0
*RES
1 *2552:X *2553:C1 14.97 
*END

*D_NET *605 0.00441363
*CONN
*I *2558:A I *D sky130_fd_sc_hd__or3_1
*I *2553:X O *D sky130_fd_sc_hd__a221o_1
*CAP
1 *2558:A 0.00137857
2 *2553:X 0.00137857
3 *2558:A *2553:A2 1.91597e-05
4 *2558:A *2558:C 8.40213e-05
5 *2558:A *2580:A 0.000197264
6 *2558:A *2919:D 1.1392e-05
7 *2558:A *2921:D 0.000113247
8 *2558:A *2937:GATE_N 0
9 *2558:A *811:60 0
10 *2558:A *858:34 3.59784e-05
11 *2558:A *859:24 0.000425551
12 *2558:A *916:50 0.00065928
13 *2453:A1 *2558:A 2.85364e-05
14 *2453:B2 *2558:A 2.85364e-05
15 *2553:C1 *2558:A 2.8185e-05
16 *2575:A1 *2558:A 2.53317e-05
*RES
1 *2553:X *2558:A 28.815 
*END

*D_NET *606 0.00114829
*CONN
*I *2555:C1 I *D sky130_fd_sc_hd__a221o_1
*I *2554:X O *D sky130_fd_sc_hd__a22o_1
*CAP
1 *2555:C1 0.000409204
2 *2554:X 0.000409204
3 *2555:C1 *2555:B1 0
4 *2555:C1 *2557:A2 0.000148596
5 *2555:C1 *2967:D 6.24773e-06
6 *2555:C1 *3070:GATE_N 0
7 *2555:C1 *923:36 9.20976e-05
8 *2459:A *2555:C1 3.46582e-05
9 *2555:A1 *2555:C1 4.82863e-05
*RES
1 *2554:X *2555:C1 13.38 
*END

*D_NET *607 0.000489081
*CONN
*I *2558:B I *D sky130_fd_sc_hd__or3_1
*I *2555:X O *D sky130_fd_sc_hd__a221o_1
*CAP
1 *2558:B 0.000156786
2 *2555:X 0.000156786
3 *2558:B *2555:A2 4.05358e-05
4 *2558:B *2557:C1 0.000118964
5 *2558:B *2558:C 4.9253e-06
6 *2558:B *858:34 1.1085e-05
*RES
1 *2555:X *2558:B 9.555 
*END

*D_NET *608 0.000480455
*CONN
*I *2557:B1 I *D sky130_fd_sc_hd__a211o_1
*I *2556:X O *D sky130_fd_sc_hd__a22o_1
*CAP
1 *2557:B1 0.00015203
2 *2556:X 0.00015203
3 *2557:B1 *2557:C1 9.50342e-06
4 *2557:B1 *2910:GATE_N 0.000113416
5 *2557:B1 *3070:GATE_N 0
6 *2459:A *2557:B1 5.34747e-05
7 *2557:A1 *2557:B1 0
*RES
1 *2556:X *2557:B1 9.72 
*END

*D_NET *609 0.000546929
*CONN
*I *2558:C I *D sky130_fd_sc_hd__or3_1
*I *2557:X O *D sky130_fd_sc_hd__a211o_1
*CAP
1 *2558:C 8.31389e-05
2 *2557:X 8.31389e-05
3 *2558:C *2559:B2 2.05571e-05
4 *2558:C *811:60 0.000138273
5 *2558:C *858:34 6.97034e-05
6 *2453:B2 *2558:C 6.31709e-05
7 *2558:A *2558:C 8.40213e-05
8 *2558:B *2558:C 4.9253e-06
*RES
1 *2557:X *2558:C 9.975 
*END

*D_NET *610 0.00868198
*CONN
*I *2559:B2 I *D sky130_fd_sc_hd__o22ai_2
*I *2558:X O *D sky130_fd_sc_hd__or3_1
*CAP
1 *2559:B2 0.00185904
2 *2558:X 0.00185904
3 *2559:B2 *2581:B2 0.00304004
4 *2559:B2 *3079:GATE_N 0.000168494
5 *2559:B2 *631:18 0.00055451
6 *2559:B2 *838:105 0
7 *2453:B2 *2559:B2 1.88602e-05
8 *2481:A *2559:B2 0.0008116
9 *2482:B2 *2559:B2 0.000349836
10 *2558:C *2559:B2 2.05571e-05
*RES
1 *2558:X *2559:B2 16.3147 
*END

*D_NET *611 0.00384381
*CONN
*I *2560:B I *D sky130_fd_sc_hd__nor2_1
*I *2636:B I *D sky130_fd_sc_hd__nor2_1
*I *2559:Y O *D sky130_fd_sc_hd__o22ai_2
*CAP
1 *2560:B 0.00114367
2 *2636:B 0.000113996
3 *2559:Y 0
4 *611:6 0.00125767
5 *2560:B *2474:A2 2.76991e-05
6 *2560:B *3040:D 4.43682e-05
7 *2560:B *3040:GATE_N 0.00012657
8 *2560:B *3072:D 1.83756e-05
9 *2560:B *3072:GATE_N 6.97202e-05
10 *2560:B *3079:GATE_N 0.000105266
11 *2560:B *874:53 8.82341e-05
12 *2560:B *886:54 1.76403e-05
13 *2636:B *3079:GATE_N 0.000180301
14 *2636:B *838:54 0.000122337
15 *2473:B2 *2560:B 0.0001249
16 *2474:A1 *2560:B 5.03209e-05
17 *2474:B2 *2560:B 8.10581e-05
18 *2474:C1 *2560:B 5.26914e-05
19 *2482:B1 *2560:B 4.66108e-05
20 *2800:D *2636:B 1.83847e-05
21 *3157:A *2560:B 6.02123e-05
22 *3157:A *2636:B 9.37893e-05
*RES
1 *2559:Y *611:6 3.6 
2 *611:6 *2636:B 6.885 
3 *611:6 *2560:B 20.895 
*END

*D_NET *612 0.000267181
*CONN
*I *2562:C1 I *D sky130_fd_sc_hd__a221o_1
*I *2561:X O *D sky130_fd_sc_hd__a22o_1
*CAP
1 *2562:C1 6.13269e-05
2 *2561:X 6.13269e-05
3 *2562:C1 *2562:B1 5.83121e-06
4 *2562:C1 *2655:A1 0.000138696
*RES
1 *2561:X *2562:C1 4.61 
*END

*D_NET *613 0.00078193
*CONN
*I *2570:B1 I *D sky130_fd_sc_hd__o22ai_1
*I *2562:X O *D sky130_fd_sc_hd__a221o_1
*CAP
1 *2570:B1 0.000200986
2 *2562:X 0.000200986
3 *2570:B1 *2642:B 9.5433e-05
4 *2570:B1 *2655:A1 3.1562e-06
5 *2570:B1 *2658:A0 1.34361e-05
6 *2562:A1 *2570:B1 0.000267933
*RES
1 *2562:X *2570:B1 10.5 
*END

*D_NET *614 0.00303688
*CONN
*I *2564:C1 I *D sky130_fd_sc_hd__a221o_1
*I *2563:X O *D sky130_fd_sc_hd__a22o_1
*CAP
1 *2564:C1 0.000539585
2 *2563:X 0.000539585
3 *2564:C1 *2487:A2 2.87433e-05
4 *2564:C1 *2913:GATE_N 2.75145e-05
5 *2564:C1 *871:33 2.68024e-05
6 *2564:C1 *872:18 0.000428762
7 *2564:C1 *872:55 0.000212075
8 *2564:C1 *872:62 8.40213e-05
9 *2564:C1 *918:25 0.000332414
10 *2487:B2 *2564:C1 1.12643e-05
11 *2492:A *2564:C1 0.000456803
12 *2564:B2 *2564:C1 1.85674e-05
13 *385:8 *2564:C1 0.000330747
*RES
1 *2563:X *2564:C1 20.91 
*END

*D_NET *615 0.00477506
*CONN
*I *2569:A I *D sky130_fd_sc_hd__or3_1
*I *2564:X O *D sky130_fd_sc_hd__a221o_1
*CAP
1 *2569:A 0.00170036
2 *2564:X 0.00170036
3 *2569:A *2569:B 7.4027e-05
4 *2569:A *2865:D 3.72916e-05
5 *2569:A *2865:GATE_N 5.05521e-05
6 *2569:A *831:28 2.10034e-05
7 *2569:A *831:30 1.17409e-05
8 *2569:A *831:40 0.000296398
9 *2569:A *871:33 0.000718131
10 *2569:A *871:51 5.25599e-05
11 *2569:A *871:53 5.36281e-05
12 *2569:A *900:52 2.42236e-05
13 *2569:A *908:68 0
14 *2534:B2 *2569:A 3.47837e-05
*RES
1 *2564:X *2569:A 29.73 
*END

*D_NET *616 0.00176557
*CONN
*I *2566:C1 I *D sky130_fd_sc_hd__a221o_1
*I *2565:X O *D sky130_fd_sc_hd__a22o_1
*CAP
1 *2566:C1 0.000229507
2 *2565:X 0.000229507
3 *2566:C1 *836:38 4.41506e-05
4 *2566:C1 *906:114 0.000543977
5 *2566:C1 *906:116 5.39961e-05
6 *2565:A1 *2566:C1 0.000577255
7 *2567:A1 *2566:C1 8.71734e-05
*RES
1 *2565:X *2566:C1 15.675 
*END

*D_NET *617 0.00163343
*CONN
*I *2569:B I *D sky130_fd_sc_hd__or3_1
*I *2566:X O *D sky130_fd_sc_hd__a221o_1
*CAP
1 *2569:B 0.000495142
2 *2566:X 0.000495142
3 *2569:B *2566:A2 9.02259e-05
4 *2569:B *2885:GATE_N 0.000163199
5 *2569:B *831:40 0.000132648
6 *2569:B *900:52 0.000183043
7 *2569:B *908:62 0
8 *2534:B2 *2569:B 0
9 *2569:A *2569:B 7.4027e-05
*RES
1 *2566:X *2569:B 14.625 
*END

*D_NET *618 0.000741294
*CONN
*I *2568:B1 I *D sky130_fd_sc_hd__a211o_1
*I *2567:X O *D sky130_fd_sc_hd__a22o_1
*CAP
1 *2568:B1 0.000229984
2 *2567:X 0.000229984
3 *2568:B1 *2567:B1 0.000237243
4 *2568:B1 *820:24 0
5 *2568:B1 *831:53 4.40812e-05
*RES
1 *2567:X *2568:B1 10.755 
*END

*D_NET *619 0.000450569
*CONN
*I *2569:C I *D sky130_fd_sc_hd__or3_1
*I *2568:X O *D sky130_fd_sc_hd__a211o_1
*CAP
1 *2569:C 7.21173e-05
2 *2568:X 7.21173e-05
3 *2569:C *2567:B1 8.40269e-05
4 *2569:C *2965:D 8.53113e-06
5 *2569:C *831:53 5.84378e-05
6 *2569:C *900:52 0.000116158
7 *2569:C *908:68 1.16578e-05
8 *2534:B2 *2569:C 2.75229e-05
*RES
1 *2568:X *2569:C 9.375 
*END

*D_NET *620 0.0148653
*CONN
*I *2570:B2 I *D sky130_fd_sc_hd__o22ai_1
*I *2569:X O *D sky130_fd_sc_hd__or3_1
*CAP
1 *2570:B2 0.00645724
2 *2569:X 0.00645724
3 *2570:B2 *2593:B 0.0013886
4 *2570:B2 *2642:B 0.000169195
5 *2570:B2 *856:60 0.000202731
6 *2570:B2 *900:52 0
7 *2570:B2 *904:38 8.66541e-06
8 *2570:B2 *908:68 8.41703e-06
9 *2570:B2 *908:83 0
10 *2570:B2 *911:72 0
11 *2799:D *2570:B2 0.000173223
*RES
1 *2569:X *2570:B2 21.3475 
*END

*D_NET *621 0.00143729
*CONN
*I *2571:B I *D sky130_fd_sc_hd__nor2_1
*I *2637:B I *D sky130_fd_sc_hd__nor2_1
*I *2570:Y O *D sky130_fd_sc_hd__o22ai_1
*CAP
1 *2571:B 2.71885e-05
2 *2637:B 0
3 *2570:Y 0.000385476
4 *621:20 0.000412665
5 *621:20 *2482:A2 0.000249698
6 *621:20 *2570:A2 8.40269e-05
7 *621:20 *2637:A 8.23457e-05
8 *621:20 *888:34 0.00013994
9 *551:40 *621:20 5.5949e-05
*RES
1 *2570:Y *621:20 12.8375 
2 *621:20 *2637:B 1.6 
3 *621:20 *2571:B 2.05 
*END

*D_NET *622 0.00073926
*CONN
*I *2573:C1 I *D sky130_fd_sc_hd__a221o_1
*I *2572:X O *D sky130_fd_sc_hd__a22o_1
*CAP
1 *2573:C1 7.66052e-05
2 *2572:X 7.66052e-05
3 *2573:C1 *805:148 0.000293025
4 *2573:C1 *822:117 0.000293025
*RES
1 *2572:X *2573:C1 10.62 
*END

*D_NET *623 0.000917983
*CONN
*I *2581:B1 I *D sky130_fd_sc_hd__o22ai_2
*I *2573:X O *D sky130_fd_sc_hd__a221o_1
*CAP
1 *2581:B1 0.000241027
2 *2573:X 0.000241027
3 *2581:B1 *2942:GATE_N 0
4 *2581:B1 *822:59 0
5 *2581:B1 *827:62 0.000158072
6 *2581:B1 *911:78 0.000165299
7 *2581:B1 *911:92 2.8531e-05
8 *2581:B1 *911:131 8.40269e-05
*RES
1 *2573:X *2581:B1 12.36 
*END

*D_NET *624 0.00126332
*CONN
*I *2575:C1 I *D sky130_fd_sc_hd__a221o_1
*I *2574:X O *D sky130_fd_sc_hd__a22o_1
*CAP
1 *2575:C1 0.000207293
2 *2574:X 0.000207293
3 *2575:C1 *2575:B1 4.82863e-05
4 *2575:C1 *3054:GATE_N 5.05521e-05
5 *2575:C1 *807:24 4.94404e-05
6 *2575:C1 *807:26 0.000122877
7 *2575:C1 *916:50 0.000267846
8 *381:18 *2575:C1 0.000309729
*RES
1 *2574:X *2575:C1 13.395 
*END

*D_NET *625 0.0021931
*CONN
*I *2580:A I *D sky130_fd_sc_hd__or3_1
*I *2575:X O *D sky130_fd_sc_hd__a221o_1
*CAP
1 *2580:A 0.00096764
2 *2575:X 0.00096764
3 *2580:A *2921:D 6.05513e-05
4 *2558:A *2580:A 0.000197264
*RES
1 *2575:X *2580:A 14.27 
*END

*D_NET *626 0.000578903
*CONN
*I *2577:C1 I *D sky130_fd_sc_hd__a221o_1
*I *2576:X O *D sky130_fd_sc_hd__a22o_1
*CAP
1 *2577:C1 0.000175267
2 *2576:X 0.000175267
3 *2577:C1 *2576:A2 0.000161529
4 *2577:C1 *2849:GATE_N 5.73362e-05
5 *2577:C1 *833:14 0
6 *2577:B2 *2577:C1 9.50342e-06
*RES
1 *2576:X *2577:C1 10.065 
*END

*D_NET *627 0.00040891
*CONN
*I *2580:B I *D sky130_fd_sc_hd__or3_1
*I *2577:X O *D sky130_fd_sc_hd__a221o_1
*CAP
1 *2580:B 0.000172121
2 *2577:X 0.000172121
3 *2580:B *2887:GATE_N 0
4 *2580:B *853:37 2.6014e-05
5 *2580:B *923:36 3.86529e-05
*RES
1 *2577:X *2580:B 9.555 
*END

*D_NET *628 0.000385142
*CONN
*I *2579:B1 I *D sky130_fd_sc_hd__a211o_1
*I *2578:X O *D sky130_fd_sc_hd__a22o_1
*CAP
1 *2579:B1 9.6925e-05
2 *2578:X 9.6925e-05
3 *2579:B1 *2554:B1 4.99619e-05
4 *2579:B1 *2855:GATE_N 0.000108706
5 *2579:B1 *923:63 3.26241e-05
*RES
1 *2578:X *2579:B1 9.03 
*END

*D_NET *629 0.000912826
*CONN
*I *2580:C I *D sky130_fd_sc_hd__or3_1
*I *2579:X O *D sky130_fd_sc_hd__a211o_1
*CAP
1 *2580:C 0.000298289
2 *2579:X 0.000298289
3 *2580:C *2557:A2 4.3807e-05
4 *2580:C *2887:GATE_N 2.75229e-05
5 *2580:C *858:34 4.54719e-05
6 *2580:C *858:38 0.000137571
7 *2580:C *923:36 6.18754e-05
*RES
1 *2579:X *2580:C 12.45 
*END

*D_NET *630 0.00807763
*CONN
*I *2581:B2 I *D sky130_fd_sc_hd__o22ai_2
*I *2580:X O *D sky130_fd_sc_hd__or3_1
*CAP
1 *2581:B2 0.00235218
2 *2580:X 0.00235218
3 *2581:B2 *2555:B1 0
4 *2581:B2 *2841:D 1.92979e-05
5 *2581:B2 *911:72 0
6 *2581:B2 *911:92 1.88602e-05
7 *2581:B2 *923:36 5.80335e-05
8 *2481:A *2581:B2 0.000237038
9 *2559:B2 *2581:B2 0.00304004
*RES
1 *2580:X *2581:B2 15.4331 
*END

*D_NET *631 0.00604856
*CONN
*I *2582:B I *D sky130_fd_sc_hd__nor2_1
*I *2638:B I *D sky130_fd_sc_hd__nor2_1
*I *2581:Y O *D sky130_fd_sc_hd__o22ai_2
*CAP
1 *2582:B 0
2 *2638:B 0.000227606
3 *2581:Y 0.00198362
4 *631:18 0.00221123
5 *2638:B *2461:A 3.90266e-05
6 *2638:B *3329:A 3.4222e-05
7 *2638:B *3352:A 0.000155227
8 *2638:B *842:36 0.000136106
9 *2638:B *886:50 2.95721e-05
10 *2638:B *886:62 0.000117831
11 *631:18 *2550:A2 3.9141e-05
12 *631:18 *2551:B1 0.000226967
13 *631:18 *858:15 3.59784e-05
14 *631:18 *886:50 1.92979e-05
15 *631:18 *892:121 2.97206e-06
16 PWDATA[5] *2638:B 1.34361e-05
17 rdata[11] *2638:B 9.14049e-05
18 *2482:B2 *631:18 0
19 *2559:B2 *631:18 0.00055451
20 *2581:A1 *631:18 0.000130407
21 *2797:D *2638:B 0
*RES
1 *2581:Y *631:18 10.9707 
2 *631:18 *2638:B 10.08 
3 *631:18 *2582:B 3.6 
*END

*D_NET *632 0.00133409
*CONN
*I *2584:C1 I *D sky130_fd_sc_hd__a221o_1
*I *2583:X O *D sky130_fd_sc_hd__a22o_1
*CAP
1 *2584:C1 0.000394812
2 *2583:X 0.000394812
3 *2584:C1 *2529:A2 0
4 *2584:C1 *2605:A2 0.000252582
5 *2584:C1 *2842:D 0
6 *2584:C1 *805:148 3.25997e-05
7 *2584:C1 *896:40 5.43769e-05
8 *2584:C1 *916:103 0.000180688
9 *2584:C1 *932:49 2.42236e-05
10 *2583:A1 *2584:C1 0
*RES
1 *2583:X *2584:C1 14.4 
*END

*D_NET *633 0.000727913
*CONN
*I *2592:B1 I *D sky130_fd_sc_hd__o22ai_2
*I *2584:X O *D sky130_fd_sc_hd__a221o_1
*CAP
1 *2592:B1 0.000195672
2 *2584:X 0.000195672
3 *2592:B1 *3045:D 1.83847e-05
4 *2592:B1 *827:48 0.000135526
5 *2592:B1 *863:40 0.000135526
6 *2592:B1 *916:111 4.71333e-05
*RES
1 *2584:X *2592:B1 10.665 
*END

*D_NET *634 0.000337072
*CONN
*I *2586:C1 I *D sky130_fd_sc_hd__a221o_1
*I *2585:X O *D sky130_fd_sc_hd__a22o_1
*CAP
1 *2586:C1 9.22154e-05
2 *2585:X 9.22154e-05
3 *2586:C1 *2585:A2 4.82919e-05
4 *2586:C1 *2585:B1 1.13002e-05
5 *2586:C1 *2938:D 3.59531e-06
6 *2586:C1 *807:18 3.91054e-05
7 *2586:C1 *898:20 2.97206e-06
8 *2585:A1 *2586:C1 3.86607e-05
9 *2586:B2 *2586:C1 8.7152e-06
*RES
1 *2585:X *2586:C1 9.03 
*END

*D_NET *635 0.0044769
*CONN
*I *2591:A I *D sky130_fd_sc_hd__or3_1
*I *2586:X O *D sky130_fd_sc_hd__a221o_1
*CAP
1 *2591:A 0.00121615
2 *2586:X 0.00121615
3 *2591:A *2530:A2 4.82863e-05
4 *2591:A *2591:C 4.40812e-05
5 *2591:A *2906:GATE_N 5.64059e-05
6 *2591:A *2938:D 0
7 *2591:A *2972:D 9.50342e-06
8 *2591:A *2993:GATE_N 0
9 *2591:A *3066:GATE_N 0.000426195
10 *2591:A *3071:GATE_N 0
11 *2591:A *3198:A 0.0001249
12 *2591:A *807:18 0.000226774
13 *2591:A *807:22 2.92496e-05
14 *2591:A *829:41 4.9253e-06
15 *2591:A *847:131 0.000107324
16 *2591:A *862:25 5.30673e-05
17 *2591:A *898:20 0.000238137
18 *2591:A *900:38 0.000419386
19 *2591:A *908:12 8.39965e-05
20 *2586:B2 *2591:A 7.00225e-05
21 *2611:B2 *2591:A 0.000102348
*RES
1 *2586:X *2591:A 35.23 
*END

*D_NET *636 0.000373098
*CONN
*I *2588:C1 I *D sky130_fd_sc_hd__a221o_1
*I *2587:X O *D sky130_fd_sc_hd__a22o_1
*CAP
1 *2588:C1 0.000156803
2 *2587:X 0.000156803
3 *2588:C1 *2587:A2 1.77665e-05
4 *2588:C1 *906:93 3.81244e-05
5 *2588:C1 *906:99 3.60024e-06
*RES
1 *2587:X *2588:C1 9.285 
*END

*D_NET *637 0.00369856
*CONN
*I *2591:B I *D sky130_fd_sc_hd__or3_1
*I *2588:X O *D sky130_fd_sc_hd__a221o_1
*CAP
1 *2591:B 0.00128701
2 *2588:X 0.00128701
3 *2591:B *2998:D 6.6925e-05
4 *2591:B *3018:GATE_N 7.10578e-05
5 *2591:B *851:59 4.43682e-05
6 *2591:B *851:102 0.00023078
7 *2591:B *862:25 0.000208766
8 *2591:B *904:22 0.000142037
9 *2591:B *908:34 0.000360611
*RES
1 *2588:X *2591:B 26.91 
*END

*D_NET *638 0.000917587
*CONN
*I *2590:B1 I *D sky130_fd_sc_hd__a211o_1
*I *2589:X O *D sky130_fd_sc_hd__a22o_1
*CAP
1 *2590:B1 0.000122557
2 *2589:X 0.000122557
3 *2590:B1 *833:12 0.00031209
4 *2590:B1 *908:28 4.82919e-05
5 *2590:B1 *934:26 0.00031209
*RES
1 *2589:X *2590:B1 11.325 
*END

*D_NET *639 0.00066179
*CONN
*I *2591:C I *D sky130_fd_sc_hd__or3_1
*I *2590:X O *D sky130_fd_sc_hd__a211o_1
*CAP
1 *2591:C 0.00021634
2 *2590:X 0.00021634
3 *2591:C *2972:GATE_N 9.52646e-05
4 *2591:C *2993:GATE_N 7.63125e-05
5 *2591:C *900:38 1.34503e-05
6 *2591:C *908:12 0
7 *2591:A *2591:C 4.40812e-05
*RES
1 *2590:X *2591:C 10.665 
*END

*D_NET *640 0.00902157
*CONN
*I *2592:B2 I *D sky130_fd_sc_hd__o22ai_2
*I *2591:X O *D sky130_fd_sc_hd__or3_1
*CAP
1 *2592:B2 0.00386443
2 *2591:X 0.00386443
3 *2592:B2 *2993:GATE_N 0
4 *2592:B2 *811:32 0.000379915
5 *2592:B2 *825:18 0
6 *2592:B2 *825:130 7.83172e-05
7 *2592:B2 *827:48 2.97206e-06
8 *2592:B2 *851:20 0
9 *2592:B2 *863:38 0.000107487
10 *2592:B2 *863:40 2.98807e-05
11 *2592:B2 *908:12 1.37226e-05
12 *2592:B2 *932:30 5.32707e-05
13 *2536:A *2592:B2 0.000243349
14 *3106:A *2592:B2 0.000356923
15 *3144:A *2592:B2 0
16 *3204:A *2592:B2 2.68717e-05
*RES
1 *2591:X *2592:B2 17.7131 
*END

*D_NET *641 0.0096528
*CONN
*I *2593:B I *D sky130_fd_sc_hd__nor2_1
*I *2639:B I *D sky130_fd_sc_hd__nor2_1
*I *2592:Y O *D sky130_fd_sc_hd__o22ai_2
*CAP
1 *2593:B 0.00113684
2 *2639:B 0.000831519
3 *2592:Y 0.000208657
4 *641:10 0.00217702
5 *2593:B *2630:A 8.40269e-05
6 *2593:B *2655:A1 0.000128537
7 *2593:B *888:21 1.79536e-05
8 *2639:B *2460:A2 1.47256e-05
9 *2639:B *2550:A2 0.000799693
10 *2639:B *2655:A0 0.000820425
11 *2639:B *2936:GATE_N 0.000134245
12 *2639:B *3031:GATE_N 0.000185549
13 *2639:B *3064:D 0.000131687
14 *2639:B *838:70 0.000159747
15 *2639:B *838:105 0.000431011
16 *2639:B *896:48 3.03464e-05
17 *2639:B *896:50 0
18 *641:10 *2936:GATE_N 8.53255e-05
19 *641:10 *2954:GATE_N 8.49205e-05
20 *641:10 *825:130 8.1552e-05
21 *641:10 *838:105 0.000187551
22 *641:10 *896:48 7.086e-05
23 *641:10 *932:49 2.75229e-05
24 *2550:A1 *2639:B 8.09021e-06
25 *2570:B2 *2593:B 0.0013886
26 *2592:A1 *641:10 0.000289011
27 *2794:D *2593:B 2.76356e-05
28 *2798:D *2593:B 1.92979e-05
29 *3154:A *2639:B 7.67225e-05
30 *3173:A *2639:B 1.37328e-05
*RES
1 *2592:Y *641:10 10.2375 
2 *641:10 *2639:B 28.2175 
3 *641:10 *2593:B 9.8527 
*END

*D_NET *642 0.000379701
*CONN
*I *2595:C1 I *D sky130_fd_sc_hd__a221o_1
*I *2594:X O *D sky130_fd_sc_hd__a22o_1
*CAP
1 *2595:C1 0.000152702
2 *2594:X 0.000152702
3 *2595:C1 *829:20 0
4 *2595:C1 *889:56 0
5 *2594:B2 *2595:C1 0
6 *2595:A1 *2595:C1 2.60049e-05
7 *477:30 *2595:C1 4.82919e-05
*RES
1 *2594:X *2595:C1 9.285 
*END

*D_NET *643 0.000718971
*CONN
*I *2603:B1 I *D sky130_fd_sc_hd__o22ai_2
*I *2595:X O *D sky130_fd_sc_hd__a221o_1
*CAP
1 *2603:B1 0.000206172
2 *2595:X 0.000206172
3 *2603:B1 *2465:B1 0
4 *2603:B1 *2603:B2 7.70784e-05
5 *2603:B1 *839:16 1.79483e-05
6 *2496:B2 *2603:B1 9.50342e-06
7 *3188:A *2603:B1 0.00015381
8 *498:16 *2603:B1 4.82863e-05
*RES
1 *2595:X *2603:B1 11.325 
*END

*D_NET *644 0.00133067
*CONN
*I *2602:A I *D sky130_fd_sc_hd__or3_1
*I *2596:X O *D sky130_fd_sc_hd__a22o_1
*CAP
1 *2602:A 0.000371646
2 *2596:X 0.000371646
3 *2602:A *2602:C 8.65961e-05
4 *2602:A *3051:GATE_N 7.36562e-05
5 *2602:A *829:20 0
6 *2602:A *889:56 0
7 *2602:A *899:23 8.97564e-05
8 *2602:A *899:29 0.000230671
9 *2503:D *2602:A 4.80285e-05
10 *3205:A *2602:A 5.86739e-05
*RES
1 *2596:X *2602:A 15.495 
*END

*D_NET *645 0.00032989
*CONN
*I *2599:B1 I *D sky130_fd_sc_hd__a211o_1
*I *2597:X O *D sky130_fd_sc_hd__a22o_1
*CAP
1 *2599:B1 0.000107929
2 *2597:X 0.000107929
3 *2599:B1 *903:12 4.82863e-05
4 *2599:A1 *2599:B1 5.53249e-06
5 *3193:A *2599:B1 6.02123e-05
*RES
1 *2597:X *2599:B1 9.03 
*END

*D_NET *646 0.00215677
*CONN
*I *2599:C1 I *D sky130_fd_sc_hd__a211o_1
*I *2598:X O *D sky130_fd_sc_hd__a221o_1
*CAP
1 *2599:C1 0.000327652
2 *2598:X 0.000327652
3 *2599:C1 *2385:A 0.000143266
4 *2599:C1 *2602:B 2.05056e-05
5 *2599:C1 *3212:A 0
6 *2599:C1 *870:24 0.000124007
7 *2599:C1 *936:18 0.000112906
8 *2599:C1 *936:20 9.50342e-06
9 *2599:C1 *938:119 1.91597e-05
10 *2599:C1 *947:77 0.000213308
11 *3193:A *2599:C1 7.21296e-06
12 *3196:A *2599:C1 0.000530123
13 *3197:A *2599:C1 0.000321475
14 *3305:A *2599:C1 0
*RES
1 *2598:X *2599:C1 17.46 
*END

*D_NET *647 0.00665023
*CONN
*I *2602:B I *D sky130_fd_sc_hd__or3_1
*I *2599:X O *D sky130_fd_sc_hd__a211o_1
*CAP
1 *2602:B 0.00206605
2 *2599:X 0.00206605
3 *2602:B *2406:D 4.66826e-05
4 *2602:B *2416:D 0.000440848
5 *2602:B *2420:C 4.51641e-05
6 *2602:B *2602:C 5.83121e-06
7 *2602:B *2939:D 0.000199734
8 *2602:B *3146:A 7.47215e-05
9 *2602:B *834:72 9.27255e-06
10 *2602:B *849:31 0
11 *2602:B *850:8 0.000139245
12 *2602:B *870:24 0.000347029
13 *2602:B *925:133 1.09016e-05
14 *2602:B *938:119 1.73913e-05
15 *2602:B *943:104 1.34503e-05
16 *2602:B *944:8 6.3124e-06
17 *2602:B *944:69 0.000151583
18 *2602:B *948:33 0
19 *2503:D *2602:B 1.548e-05
20 *2596:B2 *2602:B 4.41506e-05
21 *2599:C1 *2602:B 2.05056e-05
22 *3147:A *2602:B 9.27495e-05
23 *3202:A *2602:B 0.000140787
24 *3371:A *2602:B 0.000308646
25 *477:30 *2602:B 6.83447e-05
26 *489:10 *2602:B 0.000240425
27 *491:6 *2602:B 7.26176e-06
28 *492:14 *2602:B 7.16176e-05
*RES
1 *2599:X *2602:B 38.34 
*END

*D_NET *648 0.0011474
*CONN
*I *2601:C1 I *D sky130_fd_sc_hd__a221o_1
*I *2600:X O *D sky130_fd_sc_hd__a22o_1
*CAP
1 *2601:C1 0.000308806
2 *2600:X 0.000308806
3 *2601:C1 *2939:GATE_N 5.04904e-05
4 *2601:C1 *808:80 0.000341095
5 *2601:C1 *823:20 7.06865e-05
6 *3190:A *2601:C1 6.75152e-05
*RES
1 *2600:X *2601:C1 12.045 
*END

*D_NET *649 0.00102531
*CONN
*I *2602:C I *D sky130_fd_sc_hd__or3_1
*I *2601:X O *D sky130_fd_sc_hd__a221o_1
*CAP
1 *2602:C 0.00024887
2 *2601:X 0.00024887
3 *2602:C *2603:B2 2.49909e-05
4 *2602:C *2831:GATE_N 0.00015986
5 *2602:C *2911:GATE_N 1.88656e-05
6 *2602:C *828:18 0.000123112
7 *2602:C *849:87 2.05641e-05
8 *2602:C *899:29 4.61178e-05
9 *2503:D *2602:C 4.16353e-05
10 *2602:A *2602:C 8.65961e-05
11 *2602:B *2602:C 5.83121e-06
*RES
1 *2601:X *2602:C 12.81 
*END

*D_NET *650 0.00159489
*CONN
*I *2603:B2 I *D sky130_fd_sc_hd__o22ai_2
*I *2602:X O *D sky130_fd_sc_hd__or3_1
*CAP
1 *2603:B2 0.000569113
2 *2602:X 0.000569113
3 *2603:B2 *2465:B1 5.81098e-05
4 *2603:B2 *2843:D 1.83847e-05
5 *2603:B2 *3051:GATE_N 0.000196046
6 *2603:B2 *651:26 3.25831e-05
7 *2503:D *2603:B2 2.86265e-06
8 *2602:C *2603:B2 2.49909e-05
9 *2603:A1 *2603:B2 4.66108e-05
10 *2603:B1 *2603:B2 7.70784e-05
*RES
1 *2602:X *2603:B2 15.87 
*END

*D_NET *651 0.00902313
*CONN
*I *2640:B I *D sky130_fd_sc_hd__nor2_1
*I *2604:B I *D sky130_fd_sc_hd__nor2_1
*I *2603:Y O *D sky130_fd_sc_hd__o22ai_2
*CAP
1 *2640:B 2.74099e-05
2 *2604:B 0.000335383
3 *2603:Y 0.00171348
4 *651:26 0.00207628
5 *2604:B *2515:A2 0.000272864
6 *2640:B *2515:A2 1.7635e-05
7 *2640:B *962:73 3.62898e-05
8 *651:26 *2465:B1 8.50807e-05
9 *651:26 *2498:A2 1.7714e-05
10 *651:26 *2914:GATE_N 0
11 *651:26 *3042:D 9.25241e-05
12 *651:26 *3083:GATE_N 0.00057819
13 *651:26 *806:14 0.000480948
14 *651:26 *889:26 1.31187e-05
15 *651:26 *889:56 0
16 *651:26 *893:59 9.53978e-06
17 *2496:B2 *651:26 0
18 *2515:A1 *2604:B 0.000226697
19 *2515:A1 *2640:B 7.54672e-05
20 *2515:B2 *2604:B 2.03321e-05
21 *2603:B2 *651:26 3.25831e-05
22 *2820:D *2604:B 4.9253e-06
23 *3111:A *651:26 0.000258225
24 *3127:A *651:26 1.13099e-05
25 *3136:A *651:26 0.00215605
26 *3138:A *651:26 0.000110287
27 *435:12 *651:26 0.000122899
28 *561:14 *651:26 0.000247895
*RES
1 *2603:Y *651:26 13.9766 
2 *651:26 *2604:B 10.1025 
3 *651:26 *2640:B 4.5975 
*END

*D_NET *652 0.00155048
*CONN
*I *2606:C1 I *D sky130_fd_sc_hd__a221o_1
*I *2605:X O *D sky130_fd_sc_hd__a22o_1
*CAP
1 *2606:C1 0.000507506
2 *2605:X 0.000507506
3 *2606:C1 *2605:A2 8.49834e-05
4 *2606:C1 *2614:A2 0.000118513
5 *2606:C1 *811:26 2.43028e-05
6 *2606:C1 *865:59 5.72516e-05
7 *2606:C1 *894:127 7.9642e-06
8 *2606:B2 *2606:C1 4.99619e-05
9 *2614:A1 *2606:C1 0.000192489
*RES
1 *2605:X *2606:C1 16.05 
*END

*D_NET *653 0.00080151
*CONN
*I *2614:B1 I *D sky130_fd_sc_hd__o22ai_2
*I *2606:X O *D sky130_fd_sc_hd__a221o_1
*CAP
1 *2614:B1 0.000316155
2 *2606:X 0.000316155
3 *2614:B1 *2507:A2 3.86529e-05
4 *2614:B1 *2606:B1 0
5 *2614:B1 *2614:B2 0
6 *2614:B1 *3076:D 3.64998e-06
7 *2614:B1 *661:26 0.000126897
*RES
1 *2606:X *2614:B1 12.255 
*END

*D_NET *654 0.000866921
*CONN
*I *2608:C1 I *D sky130_fd_sc_hd__a221o_1
*I *2607:X O *D sky130_fd_sc_hd__a22o_1
*CAP
1 *2608:C1 0.000204782
2 *2607:X 0.000204782
3 *2608:C1 *2922:GATE_N 8.53113e-06
4 *2608:C1 *2924:GATE_N 0.000265426
5 *2608:C1 *825:18 2.89319e-05
6 *2608:C1 *896:12 6.17633e-05
7 *2608:C1 *896:33 8.8266e-05
8 *2608:B2 *2608:C1 4.43871e-06
*RES
1 *2607:X *2608:C1 11.415 
*END

*D_NET *655 0.00641932
*CONN
*I *2613:A I *D sky130_fd_sc_hd__or3_1
*I *2608:X O *D sky130_fd_sc_hd__a221o_1
*CAP
1 *2613:A 0.000983959
2 *2608:X 0.000983959
3 *2613:A *2613:C 1.22505e-05
4 *2613:A *3036:GATE_N 1.34298e-05
5 *2613:A *830:35 0.000472225
6 *2613:A *830:71 0.000207939
7 *2613:A *861:14 0.00270846
8 *2613:A *894:112 1.60922e-05
9 *2613:A *898:14 0.000121416
10 *2613:A *898:89 0.000183967
11 *2545:C *2613:A 0.000196775
12 *2548:B1 *2613:A 0.000510127
13 *2607:B2 *2613:A 8.7152e-06
*RES
1 *2608:X *2613:A 13.0367 
*END

*D_NET *656 0.00120368
*CONN
*I *2610:C1 I *D sky130_fd_sc_hd__a221o_1
*I *2609:X O *D sky130_fd_sc_hd__a22o_1
*CAP
1 *2610:C1 0.000207199
2 *2609:X 0.000207199
3 *2610:C1 *2610:A2 3.51612e-05
4 *2610:C1 *3210:A 0.000271616
5 *2610:C1 *923:16 1.12662e-05
6 *2610:C1 *928:14 0.000247136
7 *2610:C1 *928:33 0.000193801
8 *2610:B2 *2610:C1 3.02994e-05
*RES
1 *2609:X *2610:C1 13.155 
*END

*D_NET *657 0.000542772
*CONN
*I *2613:B I *D sky130_fd_sc_hd__or3_1
*I *2610:X O *D sky130_fd_sc_hd__a221o_1
*CAP
1 *2613:B 0.000206523
2 *2610:X 0.000206523
3 *2613:B *2540:A2 8.57024e-05
4 *2613:B *3210:A 3.03775e-05
5 *2613:B *923:16 1.36454e-05
*RES
1 *2610:X *2613:B 5.72 
*END

*D_NET *658 0.000478381
*CONN
*I *2612:B1 I *D sky130_fd_sc_hd__a211o_1
*I *2611:X O *D sky130_fd_sc_hd__a22o_1
*CAP
1 *2612:B1 7.2557e-05
2 *2611:X 7.2557e-05
3 *2612:B1 *847:131 8.7152e-06
4 *2612:B1 *900:21 0.00013013
5 *2612:B1 *923:16 0.000101201
6 *2612:A1 *2612:B1 4.66108e-05
7 *3192:A *2612:B1 4.66108e-05
*RES
1 *2611:X *2612:B1 9.285 
*END

*D_NET *659 0.000793617
*CONN
*I *2613:C I *D sky130_fd_sc_hd__or3_1
*I *2612:X O *D sky130_fd_sc_hd__a211o_1
*CAP
1 *2613:C 0.000212799
2 *2612:X 0.000212799
3 *2613:C *3216:A 0.00011852
4 *2613:C *831:22 0
5 *2613:C *900:6 0.000237249
6 *2613:A *2613:C 1.22505e-05
*RES
1 *2612:X *2613:C 10.755 
*END

*D_NET *660 0.00739868
*CONN
*I *2614:B2 I *D sky130_fd_sc_hd__o22ai_2
*I *2613:X O *D sky130_fd_sc_hd__or3_1
*CAP
1 *2614:B2 0.00267014
2 *2613:X 0.00267014
3 *2614:B2 *2519:A2 7.6192e-05
4 *2614:B2 *2519:B1 0.000342867
5 *2614:B2 *2900:GATE_N 8.92483e-05
6 *2614:B2 *2932:D 8.65961e-05
7 *2614:B2 *2932:GATE_N 8.40213e-05
8 *2614:B2 *3068:D 0.000176032
9 *2614:B2 *3216:A 0
10 *2614:B2 *661:26 5.10646e-05
11 *2614:B2 *807:99 3.79854e-05
12 *2614:B2 *831:22 0
13 *2614:B2 *848:8 6.07575e-06
14 *2520:A1 *2614:B2 8.8266e-05
15 *2520:C1 *2614:B2 3.09088e-05
16 *2605:A1 *2614:B2 1.4389e-05
17 *2614:B1 *2614:B2 0
18 *3108:A *2614:B2 4.80285e-05
19 *3110:A *2614:B2 0.000484118
20 *3145:A *2614:B2 0.000442608
*RES
1 *2613:X *2614:B2 44.625 
*END

*D_NET *661 0.00542214
*CONN
*I *2641:B I *D sky130_fd_sc_hd__nor2_1
*I *2615:B I *D sky130_fd_sc_hd__nor2_1
*I *2614:Y O *D sky130_fd_sc_hd__o22ai_2
*CAP
1 *2641:B 0.000124926
2 *2615:B 0
3 *2614:Y 0.00139187
4 *661:26 0.00151679
5 *2641:B *2805:GATE_N 0.00035825
6 *2641:B *2813:GATE_N 1.7902e-05
7 *2641:B *843:20 8.53113e-06
8 *2641:B *886:18 4.66108e-05
9 *2641:B *886:30 0.000252551
10 *661:26 *2615:A 5.4155e-06
11 *661:26 *2836:D 0.00015755
12 *661:26 *3076:D 0.000525709
13 *661:26 *885:32 0.000276232
14 *661:26 *886:14 4.66108e-05
15 *661:26 *886:18 2.28628e-05
16 *2518:B2 *661:26 0.000122337
17 *2614:B1 *661:26 0.000126897
18 *2614:B2 *661:26 5.10646e-05
19 *2813:D *661:26 8.73389e-06
20 *581:10 *661:26 0.000361299
*RES
1 *2614:Y *661:26 29.15 
2 *661:26 *2615:B 1.6 
3 *661:26 *2641:B 10.235 
*END

*D_NET *662 0.000335527
*CONN
*I *2617:C1 I *D sky130_fd_sc_hd__a221o_1
*I *2616:X O *D sky130_fd_sc_hd__a22o_1
*CAP
1 *2617:C1 8.14228e-05
2 *2616:X 8.14228e-05
3 *2617:C1 *2616:A2 5.4155e-06
4 *2617:C1 *2616:B1 0
5 *2617:C1 *2617:B1 4.66108e-05
6 *2617:C1 *917:90 0.000120655
*RES
1 *2616:X *2617:C1 4.955 
*END

*D_NET *663 0.000734139
*CONN
*I *2625:B1 I *D sky130_fd_sc_hd__o22ai_2
*I *2617:X O *D sky130_fd_sc_hd__a221o_1
*CAP
1 *2625:B1 0.000170539
2 *2617:X 0.000170539
3 *2625:B1 *2518:A2 0
4 *2625:B1 *2547:B1 0.000164746
5 *2625:B1 *2625:B2 6.66554e-05
6 *2625:B1 *845:8 0.000113372
7 *2617:A1 *2625:B1 4.82863e-05
*RES
1 *2617:X *2625:B1 11.325 
*END

*D_NET *664 0.000966151
*CONN
*I *2619:C1 I *D sky130_fd_sc_hd__a221o_1
*I *2618:X O *D sky130_fd_sc_hd__a22o_1
*CAP
1 *2619:C1 0.000331049
2 *2618:X 0.000331049
3 *2619:C1 *2605:B1 7.12477e-05
4 *2619:C1 *2619:A2 5.65828e-05
5 *2619:C1 *2619:B1 4.34986e-05
6 *2619:C1 *919:49 7.00225e-05
7 *2619:C1 *919:51 2.75145e-05
8 *2526:B2 *2619:C1 2.16825e-05
9 *2619:B2 *2619:C1 1.35051e-05
*RES
1 *2618:X *2619:C1 11.895 
*END

*D_NET *665 0.00798254
*CONN
*I *2624:A I *D sky130_fd_sc_hd__or3_1
*I *2619:X O *D sky130_fd_sc_hd__a221o_1
*CAP
1 *2624:A 0.00280819
2 *2619:X 0.00280819
3 *2624:A *2541:A2 0
4 *2624:A *2605:B1 2.66852e-05
5 *2624:A *2610:B1 0.000293383
6 *2624:A *2623:B1 2.24975e-05
7 *2624:A *2624:B 7.3039e-05
8 *2624:A *2624:C 3.31282e-05
9 *2624:A *812:55 0
10 *2624:A *844:20 0.000572484
11 *2624:A *899:52 0.00122228
12 *2624:A *906:20 0
13 *2624:A *919:49 6.10352e-05
14 *2624:A *921:26 0
15 *3126:A *2624:A 6.16247e-05
*RES
1 *2619:X *2624:A 18.7118 
*END

*D_NET *666 0.000418267
*CONN
*I *2621:C1 I *D sky130_fd_sc_hd__a221o_1
*I *2620:X O *D sky130_fd_sc_hd__a22o_1
*CAP
1 *2621:C1 8.82433e-05
2 *2620:X 8.82433e-05
3 *2621:C1 *2621:B1 4.71081e-05
4 *2621:C1 *819:35 4.82919e-05
5 *2621:C1 *907:56 0.000136877
6 *2621:B2 *2621:C1 9.50342e-06
*RES
1 *2620:X *2621:C1 9.285 
*END

*D_NET *667 0.00218773
*CONN
*I *2624:B I *D sky130_fd_sc_hd__or3_1
*I *2621:X O *D sky130_fd_sc_hd__a221o_1
*CAP
1 *2624:B 0.000594211
2 *2621:X 0.000594211
3 *2624:B *2610:B1 5.99925e-05
4 *2624:B *2624:C 7.3039e-05
5 *2624:B *906:20 4.28396e-05
6 *2624:A *2624:B 7.3039e-05
7 *3130:A *2624:B 0.000750401
*RES
1 *2621:X *2624:B 16.35 
*END

*D_NET *668 0.0010419
*CONN
*I *2623:B1 I *D sky130_fd_sc_hd__a211o_1
*I *2622:X O *D sky130_fd_sc_hd__a22o_1
*CAP
1 *2623:B1 0.000308267
2 *2622:X 0.000308267
3 *2623:B1 *2624:C 7.23533e-05
4 *2623:B1 *834:44 0.000196287
5 *2623:B1 *906:20 0.000134229
6 *2624:A *2623:B1 2.24975e-05
*RES
1 *2622:X *2623:B1 12.045 
*END

*D_NET *669 0.000661281
*CONN
*I *2624:C I *D sky130_fd_sc_hd__or3_1
*I *2623:X O *D sky130_fd_sc_hd__a211o_1
*CAP
1 *2624:C 0.000178082
2 *2623:X 0.000178082
3 *2624:C *906:20 3.24463e-05
4 *2624:C *922:47 7.55945e-06
5 *2624:C *922:68 8.65905e-05
6 *2623:B1 *2624:C 7.23533e-05
7 *2624:A *2624:C 3.31282e-05
8 *2624:B *2624:C 7.3039e-05
*RES
1 *2623:X *2624:C 10.32 
*END

*D_NET *670 0.0122434
*CONN
*I *2625:B2 I *D sky130_fd_sc_hd__o22ai_2
*I *2624:X O *D sky130_fd_sc_hd__or3_1
*CAP
1 *2625:B2 0.00253674
2 *2624:X 0.00253674
3 *2625:B2 *2518:A2 3.15789e-05
4 *2625:B2 *2610:B1 2.05641e-05
5 *2625:B2 *2639:A 4.57523e-06
6 *2625:B2 *3212:A 1.88656e-05
7 *2625:B2 *3357:A 0.00237525
8 *2625:B2 *671:26 1.89685e-05
9 *2625:B2 *844:20 0.00170141
10 *2625:B2 *845:29 0.000606692
11 *2625:B1 *2625:B2 6.66554e-05
12 *3214:A *2625:B2 0.00232537
*RES
1 *2624:X *2625:B2 18.0771 
*END

*D_NET *671 0.00987964
*CONN
*I *2626:B I *D sky130_fd_sc_hd__nor2_1
*I *2642:B I *D sky130_fd_sc_hd__nor2_1
*I *2625:Y O *D sky130_fd_sc_hd__o22ai_2
*CAP
1 *2626:B 9.48506e-05
2 *2642:B 0.00096191
3 *2625:Y 0.00174253
4 *671:26 0.00279929
5 *2642:B *2537:A2 3.96653e-05
6 *2642:B *2648:A1 0.000251715
7 *2642:B *2658:A0 0.000559102
8 *2642:B *3315:A 2.39856e-05
9 *2642:B *884:20 0
10 *2642:B *888:86 0.00015806
11 *671:26 *2518:A2 4.18203e-05
12 *671:26 *2538:A 0.000115669
13 *671:26 *2547:B1 0
14 *671:26 *2648:A1 0
15 *671:26 *2649:A0 1.93834e-05
16 *671:26 *885:36 0.000138242
17 *671:26 *887:30 0.000118376
18 *671:26 *888:19 8.41703e-06
19 *671:26 *889:26 0.000542353
20 *2537:B1 *2642:B 0.000120655
21 *2537:B2 *2642:B 4.82919e-05
22 *2538:B *2626:B 0.000167875
23 *2538:B *2642:B 3.64998e-06
24 *2562:A1 *2642:B 9.34171e-06
25 *2570:B1 *2642:B 9.5433e-05
26 *2570:B2 *2642:B 0.000169195
27 *2625:B2 *671:26 1.89685e-05
28 *2799:D *2642:B 0.00130712
29 *3214:A *671:26 0.000152059
30 *382:10 *2642:B 0.000134245
31 *591:6 *2642:B 3.74359e-05
*RES
1 *2625:Y *671:26 12.0313 
2 *671:26 *2642:B 31.145 
3 *671:26 *2626:B 3.43 
*END

*D_NET *672 0.0146721
*CONN
*I *2673:A I *D sky130_fd_sc_hd__and2_1
*I *2688:C I *D sky130_fd_sc_hd__or3_1
*I *2762:A3 I *D sky130_fd_sc_hd__a31o_1
*I *2666:A1 I *D sky130_fd_sc_hd__mux2_1
*I *2765:B I *D sky130_fd_sc_hd__and2b_1
*I *2683:A2 I *D sky130_fd_sc_hd__o22ai_1
*I *2671:B1 I *D sky130_fd_sc_hd__o31a_1
*I *2665:X O *D sky130_fd_sc_hd__or4_4
*CAP
1 *2673:A 0.000160137
2 *2688:C 0
3 *2762:A3 0
4 *2666:A1 0
5 *2765:B 0.000534757
6 *2683:A2 0
7 *2671:B1 7.28131e-05
8 *2665:X 0
9 *672:84 0.00103875
10 *672:70 0.000809205
11 *672:53 0.00068768
12 *672:43 0.00119977
13 *672:21 0.00105273
14 *672:6 0.0001481
15 *2671:B1 *2671:A2 4.99619e-05
16 *2671:B1 *2676:B 4.82863e-05
17 *2671:B1 *887:12 0.000128195
18 *2673:A *2387:A 0
19 *2673:A *2672:B 0
20 *2673:A *2673:B 5.4155e-06
21 *2673:A *2695:D_N 4.25379e-05
22 *2765:B *2666:A0 3.26889e-05
23 *2765:B *2765:A_N 0.000231211
24 *2765:B *2766:A0 6.90876e-05
25 *2765:B *751:22 0.000207263
26 *2765:B *948:10 0.000163199
27 *672:21 *887:12 9.23395e-05
28 *672:43 *2387:A 0.000230419
29 *672:43 *2679:B 6.2848e-05
30 *672:43 *2680:C 7.11468e-05
31 *672:43 *2688:A 3.74161e-05
32 *672:43 *2696:B 0.000222244
33 *672:43 *2703:C1 0.000216165
34 *672:43 *2756:A 4.66108e-05
35 *672:43 *2757:B2 0
36 *672:43 *3366:A 4.22968e-05
37 *672:43 *739:10 0
38 *672:43 *868:20 0.000114492
39 *672:43 *891:84 2.92496e-05
40 *672:43 *954:40 0.000239203
41 *672:43 *956:26 0.000114492
42 *672:43 *982:52 0.00115901
43 *672:43 *982:75 0
44 *672:43 *1050:31 0
45 *672:43 *1050:37 0
46 *672:53 *2683:B1 0.000235565
47 *672:53 *2688:A 8.23457e-05
48 *672:53 *2703:C1 0.000117297
49 *672:53 *3233:A 0.000113247
50 *672:53 *679:16 0.000157469
51 *672:53 *683:6 0.000145743
52 *672:53 *969:63 0.000122337
53 *672:70 *2683:B1 1.60203e-05
54 *672:70 *2762:A2 0.000177693
55 *672:70 *804:10 4.41506e-05
56 *672:70 *931:10 0.000113909
57 *672:70 *931:14 1.98158e-05
58 *672:84 *2666:A0 0.000125994
59 *672:84 *2761:B2 0.000133268
60 *672:84 *2762:A2 8.7152e-06
61 *672:84 *881:31 0
62 *672:84 *931:14 0.000398444
63 *2671:A1 *2671:B1 0.000229219
64 *2671:A1 *672:21 0.000183043
65 *2683:A1 *672:53 0.00039046
66 *2683:B2 *672:70 0.000237249
67 *2688:B *672:43 9.53428e-06
68 *2761:B1 *672:70 1.53986e-05
69 *2763:B1 *672:84 0.000149613
70 *2783:D *672:84 7.23602e-05
71 *3099:A *672:53 1.12578e-05
72 *3099:A *672:70 0.00027441
73 *3175:A *672:84 0.00012657
74 *3183:A *672:43 0.000796407
75 *475:20 *672:84 0.000108453
76 *475:38 *672:84 2.10868e-05
77 *501:8 *672:53 0.000370917
78 *501:17 *672:53 9.50342e-06
79 *504:12 *672:43 0.000294861
*RES
1 *2665:X *672:6 3.6 
2 *672:6 *2671:B1 6.705 
3 *672:6 *672:21 4.145 
4 *672:21 *672:43 31.22 
5 *672:43 *672:53 16.24 
6 *672:53 *2683:A2 1.6 
7 *672:53 *672:70 10.25 
8 *672:70 *672:84 14.27 
9 *672:84 *2765:B 11.38 
10 *672:84 *2666:A1 1.6 
11 *672:70 *2762:A3 3.6 
12 *672:43 *2688:C 1.6 
13 *672:21 *2673:A 3.7 
*END

*D_NET *673 0.00375834
*CONN
*I *2709:A1 I *D sky130_fd_sc_hd__a21oi_1
*I *2716:B I *D sky130_fd_sc_hd__nand2_1
*I *2667:X O *D sky130_fd_sc_hd__or2_1
*CAP
1 *2709:A1 0.000264485
2 *2716:B 0.00059787
3 *2667:X 0
4 *673:6 0.000862355
5 *2709:A1 *2709:A2 2.16907e-05
6 *2709:A1 *2718:A1 3.68772e-05
7 *2709:A1 *2718:B2 8.25872e-05
8 *2709:A1 *868:20 4.5783e-05
9 *2709:A1 *979:10 6.99988e-05
10 *2709:A1 *1047:111 0
11 *2716:B *2668:C 0.000460679
12 *2716:B *2718:A1 0.000165222
13 *2716:B *2718:B2 0.000267591
14 *2716:B *2723:A2 4.9968e-05
15 *2716:B *674:18 3.75616e-05
16 *2716:B *676:10 0.00015896
17 *2716:B *788:42 0.000321508
18 *2716:B *1047:111 9.54399e-05
19 *2718:B1 *2716:B 4.12825e-05
20 *3262:A *2709:A1 1.52835e-05
21 *3277:A *2709:A1 0.000163199
*RES
1 *2667:X *673:6 3.6 
2 *673:6 *2716:B 17.535 
3 *673:6 *2709:A1 8.505 
*END

*D_NET *674 0.00449587
*CONN
*I *2720:A2 I *D sky130_fd_sc_hd__a21bo_1
*I *2717:A1 I *D sky130_fd_sc_hd__a21oi_1
*I *2669:B I *D sky130_fd_sc_hd__nor2_1
*I *2668:X O *D sky130_fd_sc_hd__or3_1
*CAP
1 *2720:A2 0
2 *2717:A1 0.000321976
3 *2669:B 0
4 *2668:X 0.000505435
5 *674:30 0.000437
6 *674:18 0.000620459
7 *2717:A1 *2693:B 0
8 *2717:A1 *2717:A2 6.95753e-05
9 *2717:A1 *772:43 0.000424619
10 *2717:A1 *788:16 0.000115742
11 *2717:A1 *891:80 0.000172962
12 *2717:A1 *891:110 0.000269987
13 *2717:A1 *997:20 0
14 *674:18 *2669:A 6.05917e-05
15 *674:18 *2693:A 5.39961e-05
16 *674:18 *2694:C 8.22234e-06
17 *674:18 *2718:A1 0.000139231
18 *674:18 *2718:A2 4.4123e-05
19 *674:18 *2723:A2 3.31204e-05
20 *674:18 *2787:CLK 0.000120655
21 *674:18 *2790:CLK 7.35729e-05
22 *674:18 *676:10 7.23533e-05
23 *674:18 *772:39 1.07797e-05
24 *674:18 *772:74 8.52172e-05
25 *674:18 *772:85 7.28173e-05
26 *674:18 *786:47 0.00012997
27 *674:18 *789:8 5.98004e-06
28 *674:30 *2669:A 3.18641e-05
29 *674:30 *2749:B1 0
30 *674:30 *772:39 3.05295e-05
31 *674:30 *772:43 4.86478e-05
32 *674:30 *891:80 0.000313983
33 *2716:B *674:18 3.75616e-05
34 *2718:B1 *674:18 2.00272e-05
35 *2720:A1 *674:30 0.000164874
*RES
1 *2668:X *674:18 18.175 
2 *674:18 *674:30 6.305 
3 *674:30 *2669:B 1.6 
4 *674:30 *2717:A1 14.96 
5 *674:18 *2720:A2 3.6 
*END

*D_NET *675 0.0103541
*CONN
*I *2749:A3 I *D sky130_fd_sc_hd__o41a_4
*I *2761:A3 I *D sky130_fd_sc_hd__a32o_1
*I *2686:A3 I *D sky130_fd_sc_hd__a31o_1
*I *2671:A3 I *D sky130_fd_sc_hd__o31a_1
*I *2669:Y O *D sky130_fd_sc_hd__nor2_1
*CAP
1 *2749:A3 0
2 *2761:A3 0.000269476
3 *2686:A3 0
4 *2671:A3 0.000486928
5 *2669:Y 8.96466e-05
6 *675:37 0.00177749
7 *675:12 0.00226987
8 *675:10 0.000364567
9 *2671:A3 *2441:B 1.58871e-05
10 *2671:A3 *2447:A_N 0.000135274
11 *2671:A3 *2450:C 0
12 *2671:A3 *2671:A2 6.00864e-05
13 *2671:A3 *2676:B 1.48096e-05
14 *2671:A3 *774:59 7.9711e-05
15 *2671:A3 *953:73 0.00027033
16 *2761:A3 *2678:A 0.00015639
17 *2761:A3 *2701:A 7.16048e-06
18 *2761:A3 *2761:B2 0.000157156
19 *2761:A3 *2764:B 5.17381e-06
20 *2761:A3 *2764:D 1.27288e-06
21 *2761:A3 *801:14 0.000111284
22 *2761:A3 *868:70 5.38986e-06
23 *2761:A3 *881:31 7.40446e-05
24 *675:10 *2749:A4 9.50342e-06
25 *675:10 *2749:B1 0.000114276
26 *675:10 *891:80 4.82863e-05
27 *675:12 *2447:A_N 2.4997e-05
28 *675:12 *2695:B 0
29 *675:12 *2749:A4 0.000230448
30 *675:12 *696:28 4.8986e-05
31 *675:12 *774:59 8.00143e-05
32 *675:12 *953:73 0.000222185
33 *675:12 *953:112 2.86623e-05
34 *675:37 *2676:B 0.000887465
35 *675:37 *2684:B1 0.000267743
36 *675:37 *2685:A 2.97004e-06
37 *675:37 *2685:B 0
38 *675:37 *2686:A1 1.02346e-05
39 *675:37 *2686:B1 5.05437e-05
40 *675:37 *2689:A1 0.000709253
41 *675:37 *2763:A2 0
42 *675:37 *1019:12 0.000365674
43 *2394:B1 *675:37 0
44 *2447:B *2671:A3 0.000308037
45 *2684:C1 *675:37 0.00015896
46 *2720:A1 *675:10 6.54596e-05
47 *2720:A1 *675:12 8.06063e-05
48 *2761:A2 *2761:A3 2.99953e-05
49 *503:8 *675:12 1.83114e-05
50 *503:53 *675:12 3.08148e-05
51 *503:62 *675:12 3.53919e-05
52 *509:8 *2671:A3 9.50342e-06
53 *510:32 *675:37 3.61927e-05
54 *510:38 *2761:A3 0.000102622
55 *510:38 *675:37 2.49909e-05
*RES
1 *2669:Y *675:10 5.685 
2 *675:10 *675:12 6.8625 
3 *675:12 *2671:A3 12.2625 
4 *675:12 *675:37 9.3615 
5 *675:37 *2686:A3 1.6 
6 *675:37 *2761:A3 11.5212 
7 *675:10 *2749:A3 3.6 
*END

*D_NET *676 0.00321063
*CONN
*I *2703:A2 I *D sky130_fd_sc_hd__o211a_4
*I *2692:C I *D sky130_fd_sc_hd__and3b_1
*I *2696:C I *D sky130_fd_sc_hd__nor3_1
*I *2670:X O *D sky130_fd_sc_hd__or4_1
*CAP
1 *2703:A2 0
2 *2692:C 0
3 *2696:C 0.000146296
4 *2670:X 0.000214409
5 *676:16 0.000593351
6 *676:10 0.000661464
7 *2696:C *2696:A 4.52133e-05
8 *2696:C *954:38 8.1871e-05
9 *676:10 *2694:C 0.000115464
10 *676:10 *2702:A1 5.98004e-06
11 *676:10 *2723:A2 0.000270647
12 *676:10 *772:74 0
13 *676:10 *772:85 0
14 *676:16 *2694:C 0.000307361
15 *676:16 *2702:A1 9.3062e-06
16 *676:16 *2703:B1 0.000284274
17 *676:16 *3233:A 7.00889e-06
18 *676:16 *954:38 7.67415e-06
19 *2702:A2 *676:16 0.000228995
20 *2716:B *676:10 0.00015896
21 *674:18 *676:10 7.23533e-05
*RES
1 *2670:X *676:10 8.505 
2 *676:10 *676:16 10.265 
3 *676:16 *2696:C 4.39 
4 *676:16 *2692:C 1.6 
5 *676:10 *2703:A2 3.6 
*END

*D_NET *677 0.000662872
*CONN
*I *2691:B I *D sky130_fd_sc_hd__and3_1
*I *2673:B I *D sky130_fd_sc_hd__and2_1
*I *2672:Y O *D sky130_fd_sc_hd__nand2_1
*CAP
1 *2691:B 3.03798e-05
2 *2673:B 4.7855e-05
3 *2672:Y 3.54953e-05
4 *677:6 0.00011373
5 *2673:B *2672:B 0
6 *2673:B *1050:31 2.49909e-05
7 *2691:B *982:27 0.00011852
8 *2691:B *1050:25 0.00011852
9 *677:6 *2672:B 4.47209e-05
10 *677:6 *1050:31 2.49909e-05
11 *2673:A *2673:B 5.4155e-06
12 *2823:GATE_N *2673:B 0
13 *2823:GATE_N *677:6 1.16578e-05
14 *432:6 *677:6 8.65961e-05
*RES
1 *2672:Y *677:6 2.74 
2 *677:6 *2673:B 2.41 
3 *677:6 *2691:B 6.98 
*END

*D_NET *678 0.00107954
*CONN
*I *2691:C I *D sky130_fd_sc_hd__and3_1
*I *2676:A I *D sky130_fd_sc_hd__and2_1
*I *2674:Y O *D sky130_fd_sc_hd__nand2_1
*CAP
1 *2691:C 0.000113463
2 *2676:A 0
3 *2674:Y 9.87151e-05
4 *678:8 0.000212178
5 *2691:C *2674:A 9.50342e-06
6 *2691:C *982:27 0.000126385
7 *678:8 *2674:A 0.00029067
8 *2388:B *2691:C 6.82231e-05
9 *2388:B *678:8 0.000100536
10 *3180:A *678:8 4.11112e-05
11 *478:23 *2691:C 1.87584e-05
*RES
1 *2674:Y *678:8 7.02 
2 *678:8 *2676:A 3.6 
3 *678:8 *2691:C 5.9325 
*END

*D_NET *679 0.00913956
*CONN
*I *2676:B I *D sky130_fd_sc_hd__and2_1
*I *2684:B1 I *D sky130_fd_sc_hd__o311a_1
*I *2689:B1 I *D sky130_fd_sc_hd__o311a_1
*I *2675:Y O *D sky130_fd_sc_hd__nand2_2
*CAP
1 *2676:B 0.00103409
2 *2684:B1 0.000495131
3 *2689:B1 1.23885e-05
4 *2675:Y 0.000520566
5 *679:33 0.0016172
6 *679:16 0.000620939
7 *2676:B *2387:B 0.000116165
8 *2676:B *2447:C 8.20028e-05
9 *2676:B *2671:A2 3.65344e-05
10 *2676:B *3366:A 0.000326289
11 *2676:B *3368:A 0
12 *2676:B *738:12 0
13 *2676:B *868:62 6.47661e-05
14 *2676:B *885:97 0.000184394
15 *2676:B *954:40 1.49369e-05
16 *2676:B *982:8 2.49909e-05
17 *2684:B1 *2684:A1 5.53249e-06
18 *2684:B1 *2685:B 0
19 *2684:B1 *2689:A1 0.000670402
20 *2684:B1 *2697:A 0.000175841
21 *2684:B1 *691:20 0.000101912
22 *2684:B1 *868:62 0.00020756
23 *2684:B1 *953:10 1.7635e-05
24 *2689:B1 *2695:A 2.42043e-05
25 *679:16 *2426:A 7.03952e-05
26 *679:16 *2695:A 9.1631e-06
27 *679:16 *2703:C1 9.14049e-05
28 *679:16 *969:12 1.37328e-05
29 *679:16 *969:63 0
30 *679:16 *1012:16 0.000134685
31 *679:16 *1047:82 4.82919e-05
32 *679:16 *1048:35 4.82919e-05
33 *679:33 *2449:B 7.96104e-06
34 *679:33 *2695:A 0.000169676
35 *679:33 *956:26 1.7635e-05
36 *679:33 *969:12 2.49909e-05
37 *2447:B *2676:B 1.77595e-05
38 *2671:A1 *2676:B 4.66108e-05
39 *2671:A3 *2676:B 1.48096e-05
40 *2671:B1 *2676:B 4.82863e-05
41 *2680:B *679:16 0.000512829
42 *2682:B *2684:B1 4.9253e-06
43 *2684:C1 *2684:B1 4.66108e-05
44 *2689:A2 *679:16 2.49909e-05
45 *431:10 *2676:B 2.67184e-05
46 *501:8 *679:16 3.53768e-05
47 *501:17 *679:16 3.98865e-05
48 *508:46 *2684:B1 1.83756e-05
49 *672:53 *679:16 0.000157469
50 *675:37 *2676:B 0.000887465
51 *675:37 *2684:B1 0.000267743
*RES
1 *2675:Y *679:16 17.09 
2 *679:16 *2689:B1 2.05 
3 *679:16 *679:33 4.5775 
4 *679:33 *2684:B1 6.4393 
5 *679:33 *2676:B 14.0968 
*END

*D_NET *680 0.00527105
*CONN
*I *2678:B I *D sky130_fd_sc_hd__or2_1
*I *2697:A I *D sky130_fd_sc_hd__or4b_4
*I *2677:X O *D sky130_fd_sc_hd__o31a_1
*CAP
1 *2678:B 0
2 *2697:A 0.000682329
3 *2677:X 0.000264436
4 *680:10 0.000946765
5 *2697:A *2689:A1 3.98864e-05
6 *2697:A *2690:B1 8.05167e-05
7 *2697:A *2695:A 2.49909e-05
8 *2697:A *2697:D_N 6.97118e-05
9 *2697:A *2698:A3 5.8023e-05
10 *2697:A *3104:A 7.99768e-05
11 *2697:A *691:20 2.38557e-05
12 *2697:A *696:28 8.40269e-05
13 *2697:A *751:16 7.83095e-05
14 *2697:A *868:62 0.000390843
15 *2697:A *868:70 0.000239433
16 *2697:A *885:115 5.39156e-06
17 *2697:A *953:10 1.47446e-05
18 *2697:A *1019:12 0.000667692
19 *680:10 *2764:A 6.1357e-05
20 *680:10 *3104:A 0.0002224
21 *680:10 *751:16 0.000511263
22 *680:10 *804:10 0.000268973
23 *2684:B1 *2697:A 0.000175841
24 *508:46 *2697:A 2.7441e-05
25 *510:46 *2697:A 0.000252847
*RES
1 *2677:X *680:10 11.055 
2 *680:10 *2697:A 11.0106 
3 *680:10 *2678:B 3.6 
*END

*D_NET *681 0.00350742
*CONN
*I *2680:C I *D sky130_fd_sc_hd__and3_1
*I *2679:Y O *D sky130_fd_sc_hd__nand2_1
*CAP
1 *2680:C 0.000865591
2 *2679:Y 0.000865591
3 *2680:C *2749:A1 7.57202e-05
4 *2680:C *2749:B1 4.99619e-05
5 *2680:C *2756:A 6.71882e-05
6 *2680:C *3101:A 4.30059e-05
7 *2680:C *739:10 9.51035e-05
8 *2680:C *950:80 0.000340209
9 *2680:C *950:94 0.000421956
10 *2680:C *997:20 4.99619e-05
11 *2680:A *2680:C 0.00030615
12 *3183:A *2680:C 0.000140125
13 *504:12 *2680:C 0.000115705
14 *672:43 *2680:C 7.11468e-05
*RES
1 *2679:Y *2680:C 23.205 
*END

*D_NET *682 0.00252379
*CONN
*I *2685:A I *D sky130_fd_sc_hd__or3b_1
*I *2680:X O *D sky130_fd_sc_hd__and3_1
*CAP
1 *2685:A 0.000794854
2 *2680:X 0.000794854
3 *2685:A *2389:B 9.68083e-06
4 *2685:A *2685:B 0.000145696
5 *2685:A *2686:A1 0
6 *2685:A *3100:A 0.000310588
7 *2685:A *3101:A 5.6361e-05
8 *2685:A *982:52 0.000272984
9 *2685:A *1018:12 0
10 *2384:A *2685:A 0
11 *2683:B2 *2685:A 8.7512e-05
12 *3183:A *2685:A 4.82919e-05
13 *475:38 *2685:A 0
14 *675:37 *2685:A 2.97004e-06
*RES
1 *2680:X *2685:A 22.41 
*END

*D_NET *683 0.0032732
*CONN
*I *2697:D_N I *D sky130_fd_sc_hd__or4b_4
*I *2683:B1 I *D sky130_fd_sc_hd__o22ai_1
*I *2681:X O *D sky130_fd_sc_hd__or3_1
*CAP
1 *2697:D_N 0.000258962
2 *2683:B1 0.000322273
3 *2681:X 0.000381351
4 *683:6 0.000962585
5 *2683:B1 *2685:B 4.82919e-05
6 *2697:D_N *2378:A 0
7 *2697:D_N *2697:C 6.89243e-05
8 *2697:D_N *2698:A3 7.50477e-05
9 *2697:D_N *2762:B1 0.000135359
10 *2697:D_N *953:10 0
11 *2697:D_N *1018:12 0
12 *683:6 *969:63 0.000268739
13 *2683:A1 *2697:D_N 7.23533e-05
14 *2683:B2 *2683:B1 8.8266e-05
15 *2697:A *2697:D_N 6.97118e-05
16 *508:46 *2697:D_N 0.000124007
17 *672:53 *2683:B1 0.000235565
18 *672:53 *683:6 0.000145743
19 *672:70 *2683:B1 1.60203e-05
*RES
1 *2681:X *683:6 6.535 
2 *683:6 *2683:B1 6.655 
3 *683:6 *2697:D_N 11.225 
*END

*D_NET *684 0.00087375
*CONN
*I *2699:A2 I *D sky130_fd_sc_hd__a21o_1
*I *2682:Y O *D sky130_fd_sc_hd__nor2_1
*CAP
1 *2699:A2 0.000266915
2 *2682:Y 0.000266915
3 *2699:A2 *2383:B 0.000122331
4 *2699:A2 *2428:A 5.7164e-05
5 *2682:A *2699:A2 4.65515e-05
6 *475:14 *2699:A2 2.86265e-06
7 *502:42 *2699:A2 0.000111011
*RES
1 *2682:Y *2699:A2 11.1 
*END

*D_NET *685 0.000769426
*CONN
*I *2685:B I *D sky130_fd_sc_hd__or3b_1
*I *2683:Y O *D sky130_fd_sc_hd__o22ai_1
*CAP
1 *2685:B 0.000286221
2 *2683:Y 0.000286221
3 *2685:B *2684:A1 0
4 *2685:B *2687:B 0
5 *2685:B *2690:B1 0
6 *2685:B *953:10 0
7 *2682:B *2685:B 2.99518e-06
8 *2683:B1 *2685:B 4.82919e-05
9 *2684:B1 *2685:B 0
10 *2685:A *2685:B 0.000145696
11 *675:37 *2685:B 0
*RES
1 *2683:Y *2685:B 11.835 
*END

*D_NET *686 8.4422e-05
*CONN
*I *2685:C_N I *D sky130_fd_sc_hd__or3b_1
*I *2684:X O *D sky130_fd_sc_hd__o311a_1
*CAP
1 *2685:C_N 1.72301e-05
2 *2684:X 1.72301e-05
3 *2684:C1 *2685:C_N 4.99619e-05
*RES
1 *2684:X *2685:C_N 3.65 
*END

*D_NET *687 0.000190694
*CONN
*I *2686:B1 I *D sky130_fd_sc_hd__a31o_1
*I *2685:X O *D sky130_fd_sc_hd__or3b_1
*CAP
1 *2686:B1 5.96382e-05
2 *2685:X 5.96382e-05
3 *2686:A2 *2686:B1 1.18384e-05
4 *510:32 *2686:B1 9.03508e-06
5 *675:37 *2686:B1 5.05437e-05
*RES
1 *2685:X *2686:B1 4.355 
*END

*D_NET *688 0.00121716
*CONN
*I *2698:A3 I *D sky130_fd_sc_hd__a31o_1
*I *2687:X O *D sky130_fd_sc_hd__or4_1
*CAP
1 *2698:A3 0.00024923
2 *2687:X 0.00024923
3 *2698:A3 *2383:B 2.30292e-05
4 *2698:A3 *2428:B 0
5 *2698:A3 *691:20 1.7635e-05
6 *2698:A3 *953:10 0
7 *2383:C_N *2698:A3 0.000234669
8 *2697:A *2698:A3 5.8023e-05
9 *2697:D_N *2698:A3 7.50477e-05
10 *475:14 *2698:A3 8.08153e-06
11 *502:42 *2698:A3 0.000302219
*RES
1 *2687:X *2698:A3 13.14 
*END

*D_NET *689 0.00147416
*CONN
*I *2689:C1 I *D sky130_fd_sc_hd__o311a_1
*I *2688:X O *D sky130_fd_sc_hd__or3_1
*CAP
1 *2689:C1 0.00026382
2 *2688:X 0.00026382
3 *2689:C1 *2681:A 0.000192261
4 *2689:C1 *956:26 7.80737e-05
5 *2689:C1 *969:50 4.70556e-05
6 *2689:C1 *1012:16 0.000148129
7 *2689:C1 *1048:31 0.000136884
8 *2681:C *2689:C1 0.00034412
*RES
1 *2688:X *2689:C1 14.7 
*END

*D_NET *690 0.00168105
*CONN
*I *2690:B1 I *D sky130_fd_sc_hd__o31ai_1
*I *2689:X O *D sky130_fd_sc_hd__o311a_1
*CAP
1 *2690:B1 0.000554224
2 *2689:X 0.000554224
3 *2690:B1 *2687:D 1.39525e-05
4 *2690:B1 *696:28 0.000267846
5 *2690:B1 *953:10 2.45773e-05
6 *2684:C1 *2690:B1 0.00018202
7 *2685:B *2690:B1 0
8 *2697:A *2690:B1 8.05167e-05
9 *508:46 *2690:B1 3.68645e-06
*RES
1 *2689:X *2690:B1 14.55 
*END

*D_NET *691 0.00388747
*CONN
*I *2695:A I *D sky130_fd_sc_hd__or4b_4
*I *2697:B I *D sky130_fd_sc_hd__or4b_4
*I *2690:Y O *D sky130_fd_sc_hd__o31ai_1
*CAP
1 *2695:A 0.000690753
2 *2697:B 0
3 *2690:Y 0.000331459
4 *691:20 0.00102221
5 *2695:A *2428:B 4.92062e-05
6 *2695:A *2664:A_N 4.66108e-05
7 *2695:A *3103:A 0.000394838
8 *2695:A *696:28 3.74338e-05
9 *2695:A *969:12 5.28932e-05
10 *2695:A *1048:10 4.82919e-05
11 *691:20 *2428:B 3.28761e-05
12 *691:20 *2690:A1 8.59955e-05
13 *691:20 *2697:C 6.90381e-05
14 *691:20 *2762:B1 7.87501e-05
15 *691:20 *773:20 2.75493e-05
16 *691:20 *868:62 0.000208371
17 *691:20 *953:8 0.000123225
18 *691:20 *953:10 6.57653e-06
19 *2684:B1 *691:20 0.000101912
20 *2689:A2 *2695:A 4.81072e-05
21 *2689:A3 *2695:A 7.78283e-05
22 *2689:B1 *2695:A 2.42043e-05
23 *2697:A *2695:A 2.49909e-05
24 *2697:A *691:20 2.38557e-05
25 *2698:A3 *691:20 1.7635e-05
26 *508:46 *2695:A 8.40213e-05
27 *679:16 *2695:A 9.1631e-06
28 *679:33 *2695:A 0.000169676
*RES
1 *2690:Y *691:20 11.0993 
2 *691:20 *2697:B 1.6 
3 *691:20 *2695:A 14.485 
*END

*D_NET *692 0.00146191
*CONN
*I *2695:D_N I *D sky130_fd_sc_hd__or4b_4
*I *2691:X O *D sky130_fd_sc_hd__and3_1
*CAP
1 *2695:D_N 0.000428019
2 *2691:X 0.000428019
3 *2695:D_N *2387:A 4.01778e-05
4 *2695:D_N *2387:B 8.23457e-05
5 *2695:D_N *2387:C_N 0.000103554
6 *2695:D_N *2441:B 0.00018955
7 *2695:D_N *982:27 9.54399e-05
8 *2695:D_N *1050:31 3.64998e-06
9 *2673:A *2695:D_N 4.25379e-05
10 *3180:A *2695:D_N 8.08153e-06
11 *478:8 *2695:D_N 4.05358e-05
*RES
1 *2691:X *2695:D_N 14.64 
*END

*D_NET *693 0.000907025
*CONN
*I *2695:B I *D sky130_fd_sc_hd__or4b_4
*I *2692:X O *D sky130_fd_sc_hd__and3b_1
*CAP
1 *2695:B 0.00022212
2 *2692:X 0.00022212
3 *2695:B *2382:B 0.000243662
4 *2695:B *3362:A 3.33697e-05
5 *2695:B *951:83 9.91571e-05
6 *2695:B *953:73 0
7 *2695:B *954:38 8.65961e-05
8 *503:8 *2695:B 0
9 *675:12 *2695:B 0
*RES
1 *2692:X *2695:B 11.925 
*END

*D_NET *694 0.00353055
*CONN
*I *2694:C I *D sky130_fd_sc_hd__and3_1
*I *2693:X O *D sky130_fd_sc_hd__or4b_1
*CAP
1 *2694:C 0.000884819
2 *2693:X 0.000884819
3 *2694:C *2449:C 0.000130828
4 *2694:C *2693:A 3.78664e-05
5 *2694:C *2693:C 5.78262e-05
6 *2694:C *2698:B1 1.83194e-05
7 *2694:C *2702:A1 1.16433e-05
8 *2694:C *2790:CLK 4.80182e-05
9 *2694:C *772:10 5.86717e-05
10 *2694:C *772:39 9.33477e-05
11 *2694:C *772:74 2.88519e-05
12 *2694:C *774:12 3.23391e-05
13 *2694:C *950:35 0.000122321
14 *2694:C *950:46 0.000213755
15 *2694:C *950:63 0.000132842
16 *2694:C *950:80 0
17 *2694:C *954:8 0.000312673
18 *474:25 *2694:C 3.05646e-05
19 *674:18 *2694:C 8.22234e-06
20 *676:10 *2694:C 0.000115464
21 *676:16 *2694:C 0.000307361
*RES
1 *2693:X *2694:C 24.96 
*END

*D_NET *695 0.00340655
*CONN
*I *2695:C I *D sky130_fd_sc_hd__or4b_4
*I *2698:B1 I *D sky130_fd_sc_hd__a31o_1
*I *2694:X O *D sky130_fd_sc_hd__and3_1
*CAP
1 *2695:C 0.000324709
2 *2698:B1 0.000608329
3 *2694:X 0
4 *695:4 0.000933038
5 *2695:C *2382:B 5.64768e-05
6 *2695:C *951:38 9.39661e-05
7 *2695:C *951:51 0.000246383
8 *2695:C *951:83 0.000123199
9 *2698:B1 *2383:B 4.9968e-05
10 *2698:B1 *2426:A 0.000116165
11 *2698:B1 *2440:B 4.82863e-05
12 *2698:B1 *2694:A 0.00015639
13 *2698:B1 *951:6 0.000309612
14 *2698:B1 *951:30 8.49205e-05
15 *2698:B1 *951:38 0.00015337
16 *2694:C *2698:B1 1.83194e-05
17 *2784:D *2695:C 4.92014e-05
18 *2785:D *2698:B1 3.42142e-05
*RES
1 *2694:X *695:4 1.6 
2 *695:4 *2698:B1 15.155 
3 *695:4 *2695:C 11.375 
*END

*D_NET *696 0.00832523
*CONN
*I *2762:B1 I *D sky130_fd_sc_hd__a31o_1
*I *2697:C I *D sky130_fd_sc_hd__or4b_4
*I *2696:Y O *D sky130_fd_sc_hd__nor3_1
*CAP
1 *2762:B1 0.000474003
2 *2697:C 2.97461e-05
3 *2696:Y 0.0013566
4 *696:28 0.00186035
5 *2762:B1 *2378:A 2.10582e-05
6 *2762:B1 *2389:A 7.9642e-06
7 *2762:B1 *2687:C 0.000271308
8 *2762:B1 *2687:D 0.000163199
9 *2762:B1 *2690:A1 1.33285e-05
10 *2762:B1 *931:34 0.000470253
11 *696:28 *2381:A 1.79536e-05
12 *696:28 *2383:B 0.000153514
13 *696:28 *2426:A 0.000150023
14 *696:28 *2428:B 8.23457e-05
15 *696:28 *2447:A_N 0.000176273
16 *696:28 *2449:B 4.80285e-05
17 *696:28 *2449:C 6.1357e-05
18 *696:28 *2665:B 0.000112143
19 *696:28 *2749:A4 2.47723e-05
20 *696:28 *3359:A 8.70316e-05
21 *696:28 *774:12 0.000263595
22 *696:28 *774:42 0.000192125
23 *696:28 *774:59 0.000192125
24 *696:28 *950:94 7.04003e-05
25 *696:28 *951:59 4.18421e-05
26 *696:28 *952:36 0.000230282
27 *696:28 *953:112 4.9968e-05
28 *696:28 *966:16 4.78924e-05
29 *696:28 *997:20 9.50342e-06
30 *2690:A2 *2762:B1 0.000366186
31 *2690:B1 *696:28 0.000267846
32 *2695:A *696:28 3.74338e-05
33 *2697:A *696:28 8.40269e-05
34 *2697:D_N *2697:C 6.89243e-05
35 *2697:D_N *2762:B1 0.000135359
36 *474:45 *696:28 1.58761e-05
37 *475:38 *2762:B1 4.7878e-05
38 *480:10 *2762:B1 5.83121e-06
39 *502:55 *696:28 0.000122331
40 *504:12 *696:28 6.5662e-05
41 *508:18 *696:28 0.000232116
42 *675:12 *696:28 4.8986e-05
43 *691:20 *2697:C 6.90381e-05
44 *691:20 *2762:B1 7.87501e-05
*RES
1 *2696:Y *696:28 35.93 
2 *696:28 *2697:C 4.47 
3 *696:28 *2762:B1 18.85 
*END

*D_NET *697 0.000589986
*CONN
*I *2699:B1 I *D sky130_fd_sc_hd__a21o_1
*I *2698:X O *D sky130_fd_sc_hd__a31o_1
*CAP
1 *2699:B1 0.000185049
2 *2698:X 0.000185049
3 *2699:B1 *2383:B 0.000161529
4 *2699:B1 *2428:B 0
5 *502:42 *2699:B1 5.83588e-05
*RES
1 *2698:X *2699:B1 10.065 
*END

*D_NET *698 0.00292749
*CONN
*I *2703:C1 I *D sky130_fd_sc_hd__o211a_4
*I *2728:C1 I *D sky130_fd_sc_hd__o221a_2
*I *2700:X O *D sky130_fd_sc_hd__o2bb2a_4
*CAP
1 *2703:C1 0.000619657
2 *2728:C1 0.000367689
3 *2700:X 0
4 *698:4 0.000987347
5 *2703:C1 *701:6 5.4155e-06
6 *2703:C1 *701:12 2.75145e-05
7 *2703:C1 *701:34 0.000152145
8 *2703:C1 *891:72 5.83121e-06
9 *2703:C1 *982:75 0
10 *2688:B *2703:C1 0.000203886
11 *472:14 *2703:C1 6.97352e-05
12 *472:14 *2728:C1 4.99619e-05
13 *501:17 *2703:C1 1.34361e-05
14 *672:43 *2703:C1 0.000216165
15 *672:53 *2703:C1 0.000117297
16 *679:16 *2703:C1 9.14049e-05
*RES
1 *2700:X *698:4 1.6 
2 *698:4 *2728:C1 7.405 
3 *698:4 *2703:C1 16.37 
*END

*D_NET *699 0.00222399
*CONN
*I *2764:A I *D sky130_fd_sc_hd__or4_4
*I *2701:Y O *D sky130_fd_sc_hd__nor2_1
*CAP
1 *2764:A 0.000543729
2 *2701:Y 0.000543729
3 *2764:A *2678:A 4.53578e-05
4 *2764:A *2829:D 0
5 *2764:A *3104:A 0.00048586
6 *2764:A *783:26 3.18137e-05
7 *2764:A *783:37 0.000311294
8 *2764:A *784:14 1.52184e-05
9 *2764:A *804:10 7.21296e-06
10 *2764:A *887:105 6.31657e-05
11 *2829:GATE_N *2764:A 0.000115254
12 *680:10 *2764:A 6.1357e-05
*RES
1 *2701:Y *2764:A 19.05 
*END

*D_NET *700 0.000873582
*CONN
*I *2703:B1 I *D sky130_fd_sc_hd__o211a_4
*I *2702:X O *D sky130_fd_sc_hd__o32a_1
*CAP
1 *2703:B1 0.000125201
2 *2702:X 0.000125201
3 *2703:B1 *2702:A1 0.000219968
4 *2703:B1 *2723:A2 5.83121e-06
5 *2703:B1 *701:34 2.8185e-05
6 *2703:B1 *891:72 8.49205e-05
7 *676:16 *2703:B1 0.000284274
*RES
1 *2702:X *2703:B1 11.415 
*END

*D_NET *701 0.00581246
*CONN
*I *2711:S I *D sky130_fd_sc_hd__mux2_1
*I *2719:S I *D sky130_fd_sc_hd__mux2_1
*I *2749:B1 I *D sky130_fd_sc_hd__o41a_4
*I *2720:B1_N I *D sky130_fd_sc_hd__a21bo_1
*I *2706:S I *D sky130_fd_sc_hd__mux2_1
*I *2723:B2 I *D sky130_fd_sc_hd__a22o_1
*I *2703:X O *D sky130_fd_sc_hd__o211a_4
*CAP
1 *2711:S 0.000267917
2 *2719:S 0
3 *2749:B1 0.00017599
4 *2720:B1_N 0
5 *2706:S 7.77927e-05
6 *2723:B2 0
7 *2703:X 1.88809e-05
8 *701:60 0.000407822
9 *701:43 0.000443519
10 *701:34 0.000720151
11 *701:12 0.000270712
12 *701:6 0.000804328
13 *2706:S *2705:B1 0.000136884
14 *2706:S *2723:B1 1.26548e-05
15 *2706:S *956:12 9.26907e-06
16 *2706:S *1012:16 0.000171994
17 *2711:S *2693:D_N 1.07797e-05
18 *2711:S *2711:A1 4.18603e-06
19 *2711:S *2719:A0 0.000227943
20 *2711:S *2719:A1 7.00115e-05
21 *2711:S *787:14 0.000147297
22 *2711:S *956:70 0
23 *2711:S *997:20 8.40285e-05
24 *2711:S *1047:111 0
25 *2711:S *1047:123 8.53113e-06
26 *2749:B1 *2749:A4 9.50342e-06
27 *2749:B1 *997:20 9.5055e-05
28 *701:12 *2675:B 4.14369e-05
29 *701:12 *956:12 7.8831e-05
30 *701:12 *1012:16 0.000172402
31 *701:12 *1048:31 7.06865e-05
32 *701:34 *2723:A2 0.000141741
33 *701:34 *772:43 0.00027299
34 *701:34 *891:72 6.07575e-06
35 *701:43 *772:43 0.000189845
36 *701:60 *2669:A 0
37 *701:60 *2693:D_N 0.000101317
38 *701:60 *956:70 0
39 *701:60 *997:20 0.00011067
40 *2680:C *2749:B1 4.99619e-05
41 *2703:B1 *701:34 2.8185e-05
42 *2703:C1 *701:6 5.4155e-06
43 *2703:C1 *701:12 2.75145e-05
44 *2703:C1 *701:34 0.000152145
45 *2710:B1 *2711:S 0
46 *2720:A1 *2749:B1 1.44259e-05
47 *3278:A *2711:S 1.09923e-05
48 *504:12 *2749:B1 4.82919e-05
49 *674:30 *2749:B1 0
50 *675:10 *2749:B1 0.000114276
*RES
1 *2703:X *701:6 1.96 
2 *701:6 *701:12 6.125 
3 *701:12 *2723:B2 3.6 
4 *701:12 *2706:S 6.3 
5 *701:6 *701:34 7.695 
6 *701:34 *2720:B1_N 1.6 
7 *701:34 *701:43 3.83 
8 *701:43 *2749:B1 7.515 
9 *701:43 *701:60 3.42 
10 *701:60 *2719:S 3.6 
11 *701:60 *2711:S 10.53 
*END

*D_NET *702 0.00131608
*CONN
*I *2705:B1 I *D sky130_fd_sc_hd__o21ai_1
*I *2704:X O *D sky130_fd_sc_hd__o2bb2a_1
*CAP
1 *2705:B1 0.000338889
2 *2704:X 0.000338889
3 *2705:B1 *2704:B2 0.000235573
4 *2705:B1 *2723:B1 0.000181821
5 *2705:A2 *2705:B1 8.40269e-05
6 *2706:S *2705:B1 0.000136884
*RES
1 *2704:X *2705:B1 12.84 
*END

*D_NET *703 0.000339889
*CONN
*I *2706:A1 I *D sky130_fd_sc_hd__mux2_1
*I *2705:Y O *D sky130_fd_sc_hd__o21ai_1
*CAP
1 *2706:A1 9.21961e-05
2 *2705:Y 9.21961e-05
3 *2705:A2 *2706:A1 0.000155497
*RES
1 *2705:Y *2706:A1 4.685 
*END

*D_NET *704 0.00682935
*CONN
*I *2710:B2 I *D sky130_fd_sc_hd__a221o_1
*I *2736:B2 I *D sky130_fd_sc_hd__a221o_1
*I *2707:X O *D sky130_fd_sc_hd__xor2_1
*CAP
1 *2710:B2 0.00286361
2 *2736:B2 0.000157295
3 *2707:X 3.59451e-05
4 *704:8 0.00305685
5 *2710:B2 *2443:B 2.55692e-05
6 *2710:B2 *2710:A1 2.97206e-06
7 *2710:B2 *2718:A2 0
8 *2710:B2 *882:8 1.20741e-05
9 *2710:B2 *968:24 0.000306848
10 *2710:B2 *1047:123 5.78871e-05
11 *2736:B2 *2731:A1 5.81236e-05
12 *2736:B2 *2736:C1 2.74107e-05
13 *2736:B2 *719:8 0
14 *704:8 *957:18 0
15 rdata[5] *2710:B2 6.03947e-06
16 *2710:B1 *2710:B2 7.2586e-05
17 *2718:B1 *2710:B2 0
18 *3261:A *2710:B2 7.05863e-06
19 *3278:A *2710:B2 0.0001247
20 *481:14 *2736:B2 1.43738e-05
*RES
1 *2707:X *704:8 4.0875 
2 *704:8 *2736:B2 6.37125 
3 *704:8 *2710:B2 12.6291 
*END

*D_NET *705 0.00147038
*CONN
*I *2709:A2 I *D sky130_fd_sc_hd__a21oi_1
*I *2708:Y O *D sky130_fd_sc_hd__nand2_1
*CAP
1 *2709:A2 0.000321824
2 *2708:Y 0.000321824
3 *2709:A2 *2667:A 9.56322e-05
4 *2709:A2 *2667:B 0.000124895
5 *2709:A2 *2718:A1 0
6 *2709:A2 *3235:A 0
7 *2709:A2 *787:34 0.000117548
8 *2709:A2 *868:20 0.000134249
9 *2709:A2 *979:27 0.000192125
10 *2709:A2 *996:16 0.000135531
11 *2709:A2 *1047:111 5.06382e-06
12 *2709:A1 *2709:A2 2.16907e-05
*RES
1 *2708:Y *2709:A2 18.79 
*END

*D_NET *706 0.00219293
*CONN
*I *2710:C1 I *D sky130_fd_sc_hd__a221o_1
*I *2709:Y O *D sky130_fd_sc_hd__a21oi_1
*CAP
1 *2710:C1 0.000414076
2 *2709:Y 0.000414076
3 *2710:C1 *2709:B1 1.16578e-05
4 *2710:C1 *868:20 1.46744e-05
5 *2710:C1 *882:8 6.52265e-05
6 *2710:C1 *979:10 0.000287917
7 *2710:C1 *981:18 0.000268919
8 *2710:C1 *1047:111 0.000353049
9 rdata[5] *2710:C1 0.000201503
10 *3250:A *2710:C1 3.00381e-05
11 *3277:A *2710:C1 0.000131791
*RES
1 *2709:Y *2710:C1 14.405 
*END

*D_NET *707 0.00142266
*CONN
*I *2711:A1 I *D sky130_fd_sc_hd__mux2_1
*I *2710:X O *D sky130_fd_sc_hd__a221o_1
*CAP
1 *2711:A1 0.000439961
2 *2710:X 0.000439961
3 *2711:A1 *979:10 0.000538555
4 *2711:A1 *1047:111 0
5 *2711:A1 *1047:123 0
6 *2711:S *2711:A1 4.18603e-06
*RES
1 *2710:X *2711:A1 13.515 
*END

*D_NET *708 0.000633485
*CONN
*I *2714:A I *D sky130_fd_sc_hd__or2_1
*I *2712:Y O *D sky130_fd_sc_hd__a21oi_1
*CAP
1 *2714:A 0.000127612
2 *2712:Y 0.000127612
3 *2714:A *2712:B1 3.7712e-05
4 *2714:A *2713:A 4.82863e-05
5 *2714:A *2713:B 6.86553e-05
6 *2714:A *2713:C 1.70906e-05
7 *2714:A *2721:B 4.82863e-05
8 *2714:A *2740:A3 9.66106e-05
9 *2714:A *709:8 4.99619e-05
10 *2714:A *968:40 1.16578e-05
*RES
1 *2712:Y *2714:A 6.68 
*END

*D_NET *709 0.000854391
*CONN
*I *2721:B I *D sky130_fd_sc_hd__xnor2_1
*I *2714:B I *D sky130_fd_sc_hd__or2_1
*I *2713:X O *D sky130_fd_sc_hd__and3_1
*CAP
1 *2721:B 0.000130349
2 *2714:B 0
3 *2713:X 3.19974e-05
4 *709:8 0.000162346
5 *2721:B *2715:A 1.01152e-05
6 *2721:B *2740:A3 5.64657e-05
7 *2721:B *2740:B1 1.07797e-05
8 *2721:B *3365:A 0.000122325
9 *2721:B *957:54 3.96653e-05
10 *2721:B *968:40 0.000162089
11 *709:8 *2712:B1 1.76403e-05
12 *709:8 *968:40 1.23707e-05
13 *2714:A *2721:B 4.82863e-05
14 *2714:A *709:8 4.99619e-05
*RES
1 *2713:X *709:8 2.41 
2 *709:8 *2714:B 1.6 
3 *709:8 *2721:B 9.08 
*END

*D_NET *710 0.00316371
*CONN
*I *2715:A I *D sky130_fd_sc_hd__inv_2
*I *2740:B1 I *D sky130_fd_sc_hd__o32a_1
*I *2714:X O *D sky130_fd_sc_hd__or2_1
*CAP
1 *2715:A 0.000233758
2 *2740:B1 0.000245369
3 *2714:X 3.69588e-05
4 *710:8 0.000516085
5 *2715:A *2740:A3 0.000197264
6 *2715:A *957:77 0.000273878
7 *2715:A *968:24 8.23457e-05
8 *2715:A *968:26 0.000421062
9 *2715:A *968:40 3.96737e-05
10 *2715:A *979:27 7.88978e-05
11 *2715:A *1018:12 6.97124e-05
12 *2740:B1 *2734:B1 1.07797e-05
13 *2740:B1 *2740:A2 9.91257e-05
14 *2740:B1 *2740:A3 0
15 *2740:B1 *2746:B2 8.27964e-05
16 *2740:B1 *716:10 0.000139245
17 *2740:B1 *968:40 0.000113797
18 *2740:B1 *1018:12 0.000455453
19 *710:8 *968:40 4.66108e-05
20 *2721:B *2715:A 1.01152e-05
21 *2721:B *2740:B1 1.07797e-05
*RES
1 *2714:X *710:8 4.05 
2 *710:8 *2740:B1 10.545 
3 *710:8 *2715:A 10.8 
*END

*D_NET *711 0.00202236
*CONN
*I *2718:B2 I *D sky130_fd_sc_hd__a221o_1
*I *2715:Y O *D sky130_fd_sc_hd__inv_2
*CAP
1 *2718:B2 0.000391568
2 *2715:Y 0.000391568
3 *2718:B2 *2668:C 0.000157595
4 *2718:B2 *2718:C1 7.33554e-05
5 *2718:B2 *2788:RESET_B 2.33473e-05
6 *2718:B2 *868:20 0.000177954
7 *2718:B2 *979:27 0.000456797
8 *2709:A1 *2718:B2 8.25872e-05
9 *2716:B *2718:B2 0.000267591
*RES
1 *2715:Y *2718:B2 17.04 
*END

*D_NET *712 0.000506205
*CONN
*I *2717:A2 I *D sky130_fd_sc_hd__a21oi_1
*I *2716:Y O *D sky130_fd_sc_hd__nand2_1
*CAP
1 *2717:A2 0.000133919
2 *2716:Y 0.000133919
3 *2717:A2 *788:16 9.2908e-05
4 *2717:A2 *788:42 1.14169e-05
5 *2717:A2 *997:20 0
6 *2710:B1 *2717:A2 6.44676e-05
7 *2717:A1 *2717:A2 6.95753e-05
*RES
1 *2716:Y *2717:A2 9.72 
*END

*D_NET *713 0.00243329
*CONN
*I *2718:C1 I *D sky130_fd_sc_hd__a221o_1
*I *2717:Y O *D sky130_fd_sc_hd__a21oi_1
*CAP
1 *2718:C1 0.00100494
2 *2717:Y 0.00100494
3 *2718:C1 *2718:A2 9.64638e-06
4 *2718:C1 *2719:A1 1.18588e-05
5 *2718:C1 *2750:B 4.9253e-06
6 *2718:C1 *2788:RESET_B 0.000127937
7 *2718:C1 *787:14 0.000195682
8 *2718:B2 *2718:C1 7.33554e-05
*RES
1 *2717:Y *2718:C1 15.0013 
*END

*D_NET *714 0.0012369
*CONN
*I *2719:A1 I *D sky130_fd_sc_hd__mux2_1
*I *2718:X O *D sky130_fd_sc_hd__a221o_1
*CAP
1 *2719:A1 0.000373833
2 *2718:X 0.000373833
3 *2719:A1 *2719:A0 7.00115e-05
4 *2719:A1 *2788:RESET_B 0.000337351
5 *2711:S *2719:A1 7.00115e-05
6 *2718:C1 *2719:A1 1.18588e-05
*RES
1 *2718:X *2719:A1 12.315 
*END

*D_NET *715 0.0017154
*CONN
*I *2723:A2 I *D sky130_fd_sc_hd__a22o_1
*I *2720:X O *D sky130_fd_sc_hd__a21bo_1
*CAP
1 *2723:A2 0.000331115
2 *2720:X 0.000331115
3 *2723:A2 *2668:C 0.000118081
4 *2723:A2 *2702:A1 4.94326e-05
5 *2723:A2 *2703:A1 5.4155e-06
6 *2723:A2 *2723:A1 0.000122325
7 *2723:A2 *772:43 1.08758e-05
8 *2723:A2 *891:72 4.78585e-05
9 *2723:A2 *891:80 2.96334e-05
10 *2723:A2 *1047:111 0.000152598
11 *2703:B1 *2723:A2 5.83121e-06
12 *2716:B *2723:A2 4.9968e-05
13 *2790:D *2723:A2 1.56428e-05
14 *674:18 *2723:A2 3.31204e-05
15 *676:10 *2723:A2 0.000270647
16 *701:34 *2723:A2 0.000141741
*RES
1 *2720:X *2723:A2 16.305 
*END

*D_NET *716 0.00137537
*CONN
*I *2722:A2_N I *D sky130_fd_sc_hd__a2bb2o_1
*I *2746:A1_N I *D sky130_fd_sc_hd__a2bb2o_1
*I *2721:Y O *D sky130_fd_sc_hd__xnor2_1
*CAP
1 *2722:A2_N 4.66816e-05
2 *2746:A1_N 8.54662e-05
3 *2721:Y 4.20149e-05
4 *716:10 0.000174163
5 *2722:A2_N *2734:B1 7.23635e-05
6 *2722:A2_N *2744:A 1.19928e-05
7 *2722:A2_N *981:35 0.000160635
8 *2722:A2_N *1047:27 8.65961e-05
9 *2722:A2_N *1047:29 4.66108e-05
10 *2746:A1_N *2734:B1 4.82919e-05
11 *2746:A1_N *2744:A 1.19928e-05
12 *2746:A1_N *2744:B 0.00016616
13 *2746:A1_N *2746:B1 0.000147947
14 *716:10 *2734:B1 0.00013521
15 *2740:B1 *716:10 0.000139245
*RES
1 *2721:Y *716:10 7.235 
2 *716:10 *2746:A1_N 4.6 
3 *716:10 *2722:A2_N 3.43 
*END

*D_NET *717 0.00160641
*CONN
*I *2723:B1 I *D sky130_fd_sc_hd__a22o_1
*I *2722:X O *D sky130_fd_sc_hd__a2bb2o_1
*CAP
1 *2723:B1 0.000397686
2 *2722:X 0.000397686
3 *2723:B1 *3365:A 0.000309618
4 *2723:B1 *956:10 4.39001e-05
5 *2723:B1 *956:12 5.21046e-05
6 *2723:B1 *1012:16 8.08153e-06
7 *2705:A2 *2723:B1 0.000113005
8 *2705:B1 *2723:B1 0.000181821
9 *2706:S *2723:B1 1.26548e-05
10 *2722:A1_N *2723:B1 5.83121e-06
11 *2787:D *2723:B1 8.40213e-05
*RES
1 *2722:X *2723:B1 15.075 
*END

*D_NET *718 0.00420801
*CONN
*I *2726:B I *D sky130_fd_sc_hd__nand2_1
*I *2730:B1 I *D sky130_fd_sc_hd__o22a_1
*I *2741:A2 I *D sky130_fd_sc_hd__o21ai_1
*I *2728:A2 I *D sky130_fd_sc_hd__o221a_2
*I *2762:A2 I *D sky130_fd_sc_hd__a31o_1
*I *2733:A2 I *D sky130_fd_sc_hd__o21ai_1
*I *2724:Y O *D sky130_fd_sc_hd__nor2_4
*CAP
1 *2726:B 0
2 *2730:B1 2.30482e-05
3 *2741:A2 3.21871e-05
4 *2728:A2 7.16444e-05
5 *2762:A2 0.000283212
6 *2733:A2 0.00030393
7 *2724:Y 0
8 *718:47 0.000123318
9 *718:25 0.000494814
10 *718:21 0.00020804
11 *718:19 0.000215284
12 *718:4 0.000519214
13 *2728:A2 *722:10 2.75229e-05
14 *2730:B1 *2741:B1 0.000111455
15 *2730:B1 *782:53 0.000122331
16 *2733:A2 *2391:C 4.36241e-05
17 *2733:A2 *2747:B2 4.00541e-06
18 *2741:A2 *2741:B1 4.66108e-05
19 *2741:A2 *2747:B1 1.33285e-05
20 *2741:A2 *722:14 4.82863e-05
21 *2741:A2 *782:53 0.000119756
22 *2762:A2 *2762:A1 0.000305645
23 *2762:A2 *722:10 1.82563e-05
24 *718:19 *2391:A 1.47347e-05
25 *718:19 *2391:C 2.75145e-05
26 *718:19 *720:10 1.4389e-05
27 *718:25 *2726:A 5.53249e-06
28 *718:25 *2728:B2 0
29 *718:25 *722:10 0.000102419
30 *718:47 *2390:B 7.06865e-05
31 *718:47 *2726:A 7.1866e-05
32 *718:47 *720:10 0.000132842
33 *718:47 *722:10 3.47757e-05
34 *2683:B2 *2762:A2 0
35 *2683:B2 *718:25 0
36 *2728:A1 *2728:A2 8.65961e-05
37 *2733:A1 *2733:A2 0.000307348
38 *2761:B1 *2762:A2 0
39 *482:12 *718:19 1.7386e-05
40 *483:21 *2762:A2 0
41 *672:70 *2762:A2 0.000177693
42 *672:84 *2762:A2 8.7152e-06
*RES
1 *2724:Y *718:4 1.6 
2 *718:4 *2733:A2 6.13 
3 *718:4 *718:19 3.225 
4 *718:19 *718:21 2 
5 *718:21 *718:25 2.595 
6 *718:25 *2762:A2 9.825 
7 *718:25 *2728:A2 5.085 
8 *718:21 *718:47 4.4 
9 *718:47 *2741:A2 2.74 
10 *718:47 *2730:B1 2.74 
11 *718:19 *2726:B 1.6 
*END

*D_NET *719 0.00162828
*CONN
*I *2736:A2 I *D sky130_fd_sc_hd__a221o_1
*I *2729:A2 I *D sky130_fd_sc_hd__a21bo_1
*I *2743:A2 I *D sky130_fd_sc_hd__a21bo_1
*I *2725:X O *D sky130_fd_sc_hd__or2_1
*CAP
1 *2736:A2 5.84592e-05
2 *2729:A2 2.99551e-05
3 *2743:A2 9.65942e-05
4 *2725:X 7.43364e-05
5 *719:10 0.000205386
6 *719:8 0.000211632
7 *2729:A2 *2732:A1 8.49205e-05
8 *2729:A2 *782:32 4.66108e-05
9 *2736:A2 *2737:B1 2.75229e-05
10 *2743:A2 *2391:A 3.09164e-05
11 *2743:A2 *722:18 0.00016063
12 *2743:A2 *782:36 0.00013994
13 *2743:A2 *782:53 0.00015896
14 *2743:A2 *801:25 7.25036e-05
15 *2743:A2 *804:14 1.07797e-05
16 *719:8 *801:25 5.05716e-06
17 *719:8 *804:14 5.42825e-05
18 *719:10 *801:25 6.80247e-05
19 *719:10 *804:14 9.17716e-05
20 *2736:B2 *719:8 0
*RES
1 *2725:X *719:8 4.98 
2 *719:8 *719:10 2.145 
3 *719:10 *2743:A2 7.23 
4 *719:10 *2729:A2 4.395 
5 *719:8 *2736:A2 4.5675 
*END

*D_NET *720 0.00389185
*CONN
*I *2728:B1 I *D sky130_fd_sc_hd__o221a_2
*I *2731:A2 I *D sky130_fd_sc_hd__o21ai_1
*I *2746:A2_N I *D sky130_fd_sc_hd__a2bb2o_1
*I *2740:B2 I *D sky130_fd_sc_hd__o32a_1
*I *2727:A I *D sky130_fd_sc_hd__inv_2
*I *2726:Y O *D sky130_fd_sc_hd__nand2_1
*CAP
1 *2728:B1 0.000257325
2 *2731:A2 8.11399e-05
3 *2746:A2_N 0
4 *2740:B2 7.51634e-05
5 *2727:A 0
6 *2726:Y 0
7 *720:33 0.000276031
8 *720:20 0.000410437
9 *720:10 0.000454914
10 *720:4 0.00042153
11 *2728:B1 *2728:B2 0.000210839
12 *2728:B1 *3347:A 2.92496e-05
13 *2728:B1 *973:8 4.66108e-05
14 *2731:A2 *2443:A 0
15 *2731:A2 *2731:A1 6.73908e-05
16 *2731:A2 *2731:B1 5.81466e-05
17 *2740:B2 *2740:A1 5.84815e-05
18 *2740:B2 *2740:A3 0.000159964
19 *2740:B2 *2744:A 4.43871e-06
20 *2740:B2 *1018:12 0
21 *720:10 *2390:B 1.71207e-05
22 *720:10 *2731:B1 7.06865e-05
23 *720:10 *722:10 0.00011379
24 *720:10 *722:75 0.000132842
25 *720:20 *2732:A1 2.92869e-05
26 *720:20 *2736:B1 3.81463e-05
27 *720:20 *2742:B2 0
28 *720:20 *2744:B 1.85674e-05
29 *720:20 *2747:B1 8.49205e-05
30 *720:33 *2736:B1 9.53428e-06
31 *720:33 *2740:A3 5.16348e-05
32 *720:33 *2744:A 0.00010648
33 *720:33 *2744:B 1.88749e-05
34 *720:33 *2746:B1 0.00019637
35 *720:33 *2747:B1 1.48096e-05
36 *2683:B2 *2728:B1 0.000229897
37 *2683:B2 *2740:B2 0
38 *481:14 *2731:A2 0
39 *718:19 *720:10 1.4389e-05
40 *718:47 *720:10 0.000132842
*RES
1 *2726:Y *720:4 1.6 
2 *720:4 *720:10 5.705 
3 *720:10 *720:20 5.345 
4 *720:20 *2727:A 1.6 
5 *720:20 *720:33 6.095 
6 *720:33 *2740:B2 5.745 
7 *720:33 *2746:A2_N 3.6 
8 *720:10 *2731:A2 5.28 
9 *720:4 *2728:B1 10.5387 
*END

*D_NET *721 0.00137728
*CONN
*I *2736:B1 I *D sky130_fd_sc_hd__a221o_1
*I *2727:Y O *D sky130_fd_sc_hd__inv_2
*CAP
1 *2736:B1 0.000500658
2 *2727:Y 0.000500658
3 *2736:B1 *2443:A 0
4 *2736:B1 *2731:A1 0
5 *2736:B1 *2732:A1 0.000181861
6 *2733:A1 *2736:B1 7.06865e-05
7 *2736:A1 *2736:B1 7.57315e-05
8 *720:20 *2736:B1 3.81463e-05
9 *720:33 *2736:B1 9.53428e-06
*RES
1 *2727:Y *2736:B1 14.13 
*END

*D_NET *722 0.00531619
*CONN
*I *2742:B2 I *D sky130_fd_sc_hd__a22o_1
*I *2729:B1_N I *D sky130_fd_sc_hd__a21bo_1
*I *2743:B1_N I *D sky130_fd_sc_hd__a21bo_1
*I *2737:B2 I *D sky130_fd_sc_hd__a22o_1
*I *2732:S I *D sky130_fd_sc_hd__mux2_1
*I *2733:B1 I *D sky130_fd_sc_hd__o21ai_1
*I *2747:B2 I *D sky130_fd_sc_hd__a22o_1
*I *2728:X O *D sky130_fd_sc_hd__o221a_2
*CAP
1 *2742:B2 2.81129e-05
2 *2729:B1_N 0.000221896
3 *2743:B1_N 0
4 *2737:B2 0.000143109
5 *2732:S 1.41866e-05
6 *2733:B1 0
7 *2747:B2 4.21256e-05
8 *2728:X 0.000270594
9 *722:75 0.000366327
10 *722:42 0.000229761
11 *722:26 0.000151829
12 *722:18 0.000309633
13 *722:14 0.000155509
14 *722:10 0.000414957
15 *2729:B1_N *2732:A1 9.45409e-05
16 *2732:S *2732:A1 8.65905e-05
17 *2732:S *782:32 8.65905e-05
18 *2737:B2 *2725:B 1.32017e-05
19 *2737:B2 *2737:A1 5.83121e-06
20 *2737:B2 *2737:A2 0.00011852
21 *2737:B2 *2737:B1 3.31103e-05
22 *2737:B2 *804:14 5.92191e-05
23 *2742:B2 *2731:A1 2.51977e-05
24 *2742:B2 *2732:A1 4.25504e-06
25 *2747:B2 *2747:B1 2.49909e-05
26 *722:10 *2443:A 6.67956e-05
27 *722:14 *2747:B1 0.00010978
28 *722:14 *782:53 1.46828e-05
29 *722:18 *2747:A2 0.00023468
30 *722:18 *2747:B1 0.000247679
31 *722:18 *782:53 3.51968e-05
32 *722:26 *2391:C 4.82919e-05
33 *722:26 *2742:A2 4.66108e-05
34 *722:26 *3240:A 0.000134516
35 *722:26 *784:8 7.67415e-06
36 *722:26 *804:14 6.9117e-05
37 *722:42 *2725:B 7.96996e-05
38 *722:42 *804:14 8.6099e-05
39 *722:75 *2443:A 3.60648e-05
40 *722:75 *2731:A1 8.18333e-06
41 *722:75 *2732:A1 3.17066e-05
42 *2728:A1 *722:10 4.43682e-05
43 *2728:A2 *722:10 2.75229e-05
44 *2733:A2 *2747:B2 4.00541e-06
45 *2741:A2 *722:14 4.82863e-05
46 *2743:A1 *722:14 4.66108e-05
47 *2743:A1 *722:18 0.000160635
48 *2743:A2 *722:18 0.00016063
49 *2762:A2 *722:10 1.82563e-05
50 *3088:D *2737:B2 4.9968e-05
51 *3088:D *722:42 4.9968e-05
52 *482:12 *722:10 5.83373e-05
53 *482:12 *722:75 1.07797e-05
54 *483:21 *722:10 9.61344e-05
55 *718:25 *722:10 0.000102419
56 *718:47 *722:10 3.47757e-05
57 *720:10 *722:10 0.00011379
58 *720:10 *722:75 0.000132842
59 *720:20 *2742:B2 0
*RES
1 *2728:X *722:10 9.78 
2 *722:10 *722:14 3.14 
3 *722:14 *722:18 6.59 
4 *722:18 *722:26 4.79 
5 *722:26 *2747:B2 2.41 
6 *722:26 *2733:B1 1.6 
7 *722:18 *722:42 2.4 
8 *722:42 *2732:S 4.395 
9 *722:42 *2737:B2 6.99 
10 *722:14 *2743:B1_N 1.6 
11 *722:10 *722:75 4.43 
12 *722:75 *2729:B1_N 4.12 
13 *722:75 *2742:B2 2.215 
*END

*D_NET *723 0.000433172
*CONN
*I *2737:A2 I *D sky130_fd_sc_hd__a22o_1
*I *2729:X O *D sky130_fd_sc_hd__a21bo_1
*CAP
1 *2737:A2 9.21859e-05
2 *2729:X 9.21859e-05
3 *2737:A2 *2725:B 7.38696e-05
4 *2737:A2 *2732:A1 4.82863e-05
5 *2737:A2 *804:14 8.12462e-06
6 *2737:B2 *2737:A2 0.00011852
*RES
1 *2729:X *2737:A2 9.285 
*END

*D_NET *724 0.000484706
*CONN
*I *2731:B1 I *D sky130_fd_sc_hd__o21ai_1
*I *2730:X O *D sky130_fd_sc_hd__o22a_1
*CAP
1 *2731:B1 9.37811e-05
2 *2730:X 9.37811e-05
3 *2731:B1 *2390:B 0.000114492
4 *2731:B1 *3347:A 0
5 *2731:B1 *782:53 4.82863e-05
6 *2731:A2 *2731:B1 5.81466e-05
7 *481:14 *2731:B1 5.53249e-06
8 *720:10 *2731:B1 7.06865e-05
*RES
1 *2730:X *2731:B1 9.285 
*END

*D_NET *725 0.00167605
*CONN
*I *2732:A1 I *D sky130_fd_sc_hd__mux2_1
*I *2731:Y O *D sky130_fd_sc_hd__o21ai_1
*CAP
1 *2732:A1 0.000382734
2 *2731:Y 0.000382734
3 *2732:A1 *2731:A1 2.09966e-05
4 *2732:A1 *782:25 3.26889e-05
5 *2732:A1 *782:32 7.46855e-05
6 *2729:A2 *2732:A1 8.49205e-05
7 *2729:B1_N *2732:A1 9.45409e-05
8 *2732:S *2732:A1 8.65905e-05
9 *2736:B1 *2732:A1 0.000181861
10 *2737:A2 *2732:A1 4.82863e-05
11 *2742:B2 *2732:A1 4.25504e-06
12 *3088:D *2732:A1 0.000220766
13 *720:20 *2732:A1 2.92869e-05
14 *722:75 *2732:A1 3.17066e-05
*RES
1 *2731:Y *2732:A1 12.545 
*END

*D_NET *726 0.00157236
*CONN
*I *2742:A2 I *D sky130_fd_sc_hd__a22o_1
*I *2733:Y O *D sky130_fd_sc_hd__o21ai_1
*CAP
1 *2742:A2 0.000416602
2 *2733:Y 0.000416602
3 *2742:A2 *2390:B 6.38291e-05
4 *2742:A2 *2391:A 0.000272984
5 *2742:A2 *2391:C 5.82176e-05
6 *2742:A2 *2443:A 4.41294e-05
7 *2742:A2 *2742:A1 9.30787e-05
8 *2742:A2 *783:37 8.53113e-06
9 *2733:A1 *2742:A2 0.000151778
10 *722:26 *2742:A2 4.66108e-05
*RES
1 *2733:Y *2742:A2 14.52 
*END

*D_NET *727 0.000116037
*CONN
*I *2735:B1 I *D sky130_fd_sc_hd__a21oi_1
*I *2734:Y O *D sky130_fd_sc_hd__o21ai_1
*CAP
1 *2735:B1 9.73191e-06
2 *2734:Y 9.73191e-06
3 *2735:B1 *2734:A2 4.82863e-05
4 *2735:B1 *957:31 4.82863e-05
*RES
1 *2734:Y *2735:B1 3.65 
*END

*D_NET *728 0.000899242
*CONN
*I *2736:C1 I *D sky130_fd_sc_hd__a221o_1
*I *2735:Y O *D sky130_fd_sc_hd__a21oi_1
*CAP
1 *2736:C1 0.000191257
2 *2735:Y 0.000191257
3 *2736:C1 *2443:B 2.75145e-05
4 *2736:C1 *2734:A2 4.60584e-05
5 *2736:C1 *2734:B1 4.82863e-05
6 *2736:C1 *3317:A 3.99879e-05
7 *2736:C1 *957:31 1.61831e-05
8 *2736:B2 *2736:C1 2.74107e-05
9 *481:14 *2736:C1 0.000311288
*RES
1 *2735:Y *2736:C1 8.06 
*END

*D_NET *729 0.000352584
*CONN
*I *2737:B1 I *D sky130_fd_sc_hd__a22o_1
*I *2736:X O *D sky130_fd_sc_hd__a221o_1
*CAP
1 *2737:B1 0.00014437
2 *2736:X 0.00014437
3 *2737:B1 *2737:A1 3.21081e-06
4 *2736:A2 *2737:B1 2.75229e-05
5 *2737:B2 *2737:B1 3.31103e-05
*RES
1 *2736:X *2737:B1 5.045 
*END

*D_NET *730 0.00305834
*CONN
*I *2745:A2 I *D sky130_fd_sc_hd__o21a_1
*I *2740:A2 I *D sky130_fd_sc_hd__o32a_1
*I *2744:B I *D sky130_fd_sc_hd__nand2_1
*I *2738:X O *D sky130_fd_sc_hd__and3_1
*CAP
1 *2745:A2 0
2 *2740:A2 0.000124904
3 *2744:B 0.000373657
4 *2738:X 0.000159141
5 *730:25 0.000166593
6 *730:6 0.000574487
7 *2740:A2 *2740:A3 5.30673e-05
8 *2740:A2 *2745:A1 9.53428e-06
9 *2740:A2 *2745:B1 2.75229e-05
10 *2740:A2 *883:10 0.00043044
11 *2744:B *2734:B1 0.000122325
12 *2744:B *2744:A 8.57024e-05
13 *2744:B *2746:B1 3.42871e-05
14 *2744:B *2747:B1 0.000123225
15 *2744:B *1047:27 3.57349e-05
16 *2744:B *1047:29 3.57349e-05
17 *730:6 *1047:27 0.000196376
18 *730:25 *2745:B1 0.000116853
19 *730:25 *891:32 6.5525e-05
20 *2705:A2 *730:6 2.05056e-05
21 *2740:B1 *2740:A2 9.91257e-05
22 *2746:A1_N *2744:B 0.00016616
23 *720:20 *2744:B 1.85674e-05
24 *720:33 *2744:B 1.88749e-05
*RES
1 *2738:X *730:6 3.775 
2 *730:6 *2744:B 7.705 
3 *730:6 *730:25 5.38 
4 *730:25 *2740:A2 6.115 
5 *730:25 *2745:A2 1.6 
*END

*D_NET *731 0.00193368
*CONN
*I *2740:A3 I *D sky130_fd_sc_hd__o32a_1
*I *2739:Y O *D sky130_fd_sc_hd__a21oi_1
*CAP
1 *2740:A3 0.000539412
2 *2739:Y 0.000539412
3 *2740:A3 *2705:A1 4.25242e-05
4 *2740:A3 *2734:B1 5.85076e-05
5 *2740:A3 *2740:A1 0
6 *2740:A3 *2744:A 7.21296e-06
7 *2740:A3 *2746:B2 4.94326e-05
8 *2740:A3 *968:40 9.80032e-06
9 *2740:A3 *993:12 7.23768e-05
10 *2740:A3 *1018:12 0
11 *2683:B2 *2740:A3 0
12 *2714:A *2740:A3 9.66106e-05
13 *2715:A *2740:A3 0.000197264
14 *2721:B *2740:A3 5.64657e-05
15 *2740:A2 *2740:A3 5.30673e-05
16 *2740:B1 *2740:A3 0
17 *2740:B2 *2740:A3 0.000159964
18 *720:33 *2740:A3 5.16348e-05
*RES
1 *2739:Y *2740:A3 18.03 
*END

*D_NET *732 0.000754314
*CONN
*I *2741:B1 I *D sky130_fd_sc_hd__o21ai_1
*I *2740:X O *D sky130_fd_sc_hd__o32a_1
*CAP
1 *2741:B1 0.000133897
2 *2740:X 0.000133897
3 *2741:B1 *2726:A 4.35348e-05
4 *2741:B1 *2730:B2 2.05056e-05
5 *2741:B1 *2747:B1 0.000194694
6 *2741:B1 *883:10 6.97202e-05
7 *2730:B1 *2741:B1 0.000111455
8 *2741:A2 *2741:B1 4.66108e-05
*RES
1 *2740:X *2741:B1 6.755 
*END

*D_NET *733 0.000723159
*CONN
*I *2742:B1 I *D sky130_fd_sc_hd__a22o_1
*I *2741:Y O *D sky130_fd_sc_hd__o21ai_1
*CAP
1 *2742:B1 0.000170316
2 *2741:Y 0.000170316
3 *2742:B1 *2443:A 9.30787e-05
4 *2742:B1 *2742:A1 9.30787e-05
5 *2742:B1 *782:53 0.00019637
*RES
1 *2741:Y *2742:B1 10.155 
*END

*D_NET *734 0.00140817
*CONN
*I *2747:A2 I *D sky130_fd_sc_hd__a22o_1
*I *2743:X O *D sky130_fd_sc_hd__a21bo_1
*CAP
1 *2747:A2 0.000217252
2 *2743:X 0.000217252
3 *2747:A2 *2725:B 0
4 *2747:A2 *2747:A1 0.000266491
5 *2747:A2 *2747:B1 0.00030615
6 *2747:A2 *783:12 0.000166346
7 *722:18 *2747:A2 0.00023468
*RES
1 *2743:X *2747:A2 13.68 
*END

*D_NET *735 0.000710715
*CONN
*I *2746:B1 I *D sky130_fd_sc_hd__a2bb2o_1
*I *2744:Y O *D sky130_fd_sc_hd__nand2_1
*CAP
1 *2746:B1 8.18513e-05
2 *2744:Y 8.18513e-05
3 *2746:B1 *2744:A 0.000168408
4 *2744:B *2746:B1 3.42871e-05
5 *2746:A1_N *2746:B1 0.000147947
6 *720:33 *2746:B1 0.00019637
*RES
1 *2744:Y *2746:B1 6.41 
*END

*D_NET *736 0.000347936
*CONN
*I *2746:B2 I *D sky130_fd_sc_hd__a2bb2o_1
*I *2745:X O *D sky130_fd_sc_hd__o21a_1
*CAP
1 *2746:B2 0.000103102
2 *2745:X 0.000103102
3 *2746:B2 *2734:B1 9.50342e-06
4 *2740:A3 *2746:B2 4.94326e-05
5 *2740:B1 *2746:B2 8.27964e-05
*RES
1 *2745:X *2746:B2 9.12 
*END

*D_NET *737 0.00381635
*CONN
*I *2747:B1 I *D sky130_fd_sc_hd__a22o_1
*I *2746:X O *D sky130_fd_sc_hd__a2bb2o_1
*CAP
1 *2747:B1 0.00083944
2 *2746:X 0.00083944
3 *2747:B1 *2390:A 7.23533e-05
4 *2747:B1 *2390:B 0.000330757
5 *2747:B1 *2725:B 0.000160658
6 *2747:B1 *2726:A 8.65961e-05
7 *2747:B1 *3240:A 0.00010596
8 *2747:B1 *3347:A 8.5225e-05
9 *2747:B1 *784:8 0.000124007
10 *2747:B1 *784:32 5.23362e-05
11 *2741:A2 *2747:B1 1.33285e-05
12 *2741:B1 *2747:B1 0.000194694
13 *2744:B *2747:B1 0.000123225
14 *2747:A2 *2747:B1 0.00030615
15 *2747:B2 *2747:B1 2.49909e-05
16 *720:20 *2747:B1 8.49205e-05
17 *720:33 *2747:B1 1.48096e-05
18 *722:14 *2747:B1 0.00010978
19 *722:18 *2747:B1 0.000247679
*RES
1 *2746:X *2747:B1 27.49 
*END

*D_NET *738 0.0103244
*CONN
*I *2749:A4 I *D sky130_fd_sc_hd__o41a_4
*I *2763:A2 I *D sky130_fd_sc_hd__a21oi_1
*I *2748:X O *D sky130_fd_sc_hd__and2b_1
*CAP
1 *2749:A4 0.000819922
2 *2763:A2 0.0027451
3 *2748:X 0.000909281
4 *738:12 0.00447431
5 *2749:A4 *3312:A 0.000258182
6 *2749:A4 *887:99 4.03822e-05
7 *2749:A4 *950:94 0.000134475
8 *2749:A4 *997:20 1.23331e-05
9 *2763:A2 *2764:D 1.17036e-05
10 *2763:A2 *881:31 1.88602e-05
11 *2763:A2 *1019:12 0
12 *738:12 *2674:A 0.000333496
13 *738:12 *885:26 0
14 *738:12 *982:27 3.97171e-05
15 *738:12 *1050:10 0.000145678
16 *2516:A *738:12 6.55328e-05
17 *2676:B *738:12 0
18 *2749:B1 *2749:A4 9.50342e-06
19 *3180:A *738:12 0
20 *503:16 *2749:A4 4.12356e-05
21 *675:10 *2749:A4 9.50342e-06
22 *675:12 *2749:A4 0.000230448
23 *675:37 *2763:A2 0
24 *696:28 *2749:A4 2.47723e-05
*RES
1 *2748:X *738:12 11.0584 
2 *738:12 *2763:A2 8.53657 
3 *738:12 *2749:A4 9.1935 
*END

*D_NET *739 0.00707015
*CONN
*I *2754:A I *D sky130_fd_sc_hd__nand2_1
*I *2760:B2 I *D sky130_fd_sc_hd__a22o_1
*I *2752:S I *D sky130_fd_sc_hd__mux2_1
*I *2755:A1_N I *D sky130_fd_sc_hd__o2bb2a_2
*I *2757:A2 I *D sky130_fd_sc_hd__o22a_1
*I *2749:X O *D sky130_fd_sc_hd__o41a_4
*CAP
1 *2754:A 4.20529e-05
2 *2760:B2 0.000320822
3 *2752:S 0
4 *2755:A1_N 8.38189e-05
5 *2757:A2 0.000171486
6 *2749:X 0.000319566
7 *739:44 0.000475204
8 *739:22 0.00036849
9 *739:16 0.000810596
10 *739:10 0.000904648
11 *2754:A *2754:B 9.50342e-06
12 *2754:A *891:110 0.000108322
13 *2754:A *1050:37 3.98952e-05
14 *2757:A2 *2659:A0 2.11084e-05
15 *2757:A2 *2661:A0 0.000181376
16 *2757:A2 *2757:B1 0.000194694
17 *2757:A2 *2757:B2 1.91597e-05
18 *2760:B2 *2662:A0 1.08758e-05
19 *2760:B2 *2759:A1 5.66699e-05
20 *2760:B2 *2759:A2 7.18883e-05
21 *2760:B2 *2760:A1 3.03684e-05
22 *2760:B2 *2760:A2 0.00027042
23 *739:10 *2756:A 1.47347e-05
24 *739:10 *2757:B2 4.43871e-06
25 *739:10 *891:84 0
26 *739:10 *891:110 9.78082e-05
27 *739:10 *982:52 7.9205e-06
28 *739:10 *1050:37 0.000114466
29 *739:16 *3091:RESET_B 0.000152243
30 *739:16 *772:43 4.82919e-05
31 *739:16 *772:56 0.000122325
32 *739:22 *2661:A0 0.000155234
33 *739:44 *2751:B2 0.000308383
34 *739:44 *2759:A2 1.26626e-05
35 *2444:A *2760:B2 2.14129e-05
36 *2444:A *739:22 0.000187346
37 *2444:A *739:44 0.000470207
38 *2445:A *2757:A2 0.000160635
39 *2680:C *739:10 9.51035e-05
40 *2756:B *2755:A1_N 0.000170618
41 *2756:B *739:10 3.64998e-06
42 *2758:B *2757:A2 0.000100536
43 *2758:B *739:22 2.86895e-05
44 *3091:D *739:16 0.000145917
45 *3091:D *739:22 8.08153e-06
46 *3092:D *2760:B2 4.66108e-05
47 *116:38 *739:22 2.24336e-05
48 *116:38 *739:44 4.70343e-05
49 *116:57 *739:44 1.24035e-05
50 *672:43 *739:10 0
*RES
1 *2749:X *739:10 8.85 
2 *739:10 *739:16 10.66 
3 *739:16 *739:22 3.465 
4 *739:22 *2757:A2 8.61 
5 *739:22 *2755:A1_N 5.1975 
6 *739:16 *739:44 5.715 
7 *739:44 *2752:S 3.6 
8 *739:44 *2760:B2 9.75 
9 *739:10 *2754:A 4.98 
*END

*D_NET *740 0.000231376
*CONN
*I *2751:C1 I *D sky130_fd_sc_hd__a221o_1
*I *2750:Y O *D sky130_fd_sc_hd__nor2_1
*CAP
1 *2751:C1 9.58739e-05
2 *2750:Y 9.58739e-05
3 *2751:C1 *2750:B 0
4 *2751:C1 *2751:B2 0
5 *2751:C1 *882:25 3.96284e-05
*RES
1 *2750:Y *2751:C1 4.7 
*END

*D_NET *741 0.000514617
*CONN
*I *2752:A1 I *D sky130_fd_sc_hd__mux2_1
*I *2751:X O *D sky130_fd_sc_hd__a221o_1
*CAP
1 *2752:A1 0.000143263
2 *2751:X 0.000143263
3 *2752:A1 *2751:B2 0.000228091
4 *2444:A *2752:A1 0
*RES
1 *2751:X *2752:A1 5.735 
*END

*D_NET *742 0.00261966
*CONN
*I *2755:A2_N I *D sky130_fd_sc_hd__o2bb2a_2
*I *2754:B I *D sky130_fd_sc_hd__nand2_1
*I *2753:X O *D sky130_fd_sc_hd__a21o_1
*CAP
1 *2755:A2_N 0.000336091
2 *2754:B 0.00023087
3 *2753:X 0
4 *742:4 0.000566961
5 *2754:B *2753:B1 1.03423e-05
6 *2754:B *2760:A2 1.83847e-05
7 *2754:B *891:110 7.53115e-05
8 *2754:B *956:70 3.00381e-05
9 *2754:B *1050:37 7.44375e-05
10 *2755:A2_N *2760:A2 7.06865e-05
11 *2755:A2_N *3322:A 0.000531981
12 *2755:A2_N *882:44 0.000219167
13 *2755:A2_N *882:52 9.77943e-05
14 *2750:A *2754:B 0.000194692
15 *2750:A *2755:A2_N 4.82863e-05
16 *2753:A2 *2755:A2_N 1.19928e-05
17 *2754:A *2754:B 9.50342e-06
18 *2758:A_N *2755:A2_N 5.83121e-06
19 *115:26 *2755:A2_N 7.67415e-06
20 *115:34 *2755:A2_N 7.96134e-05
*RES
1 *2753:X *742:4 1.6 
2 *742:4 *2754:B 9.86 
3 *742:4 *2755:A2_N 14 
*END

*D_NET *743 0.00271543
*CONN
*I *2760:A2 I *D sky130_fd_sc_hd__a22o_1
*I *2754:Y O *D sky130_fd_sc_hd__nand2_1
*CAP
1 *2760:A2 0.000881393
2 *2754:Y 0.000881393
3 *2760:A2 *2751:A1 0
4 *2760:A2 *3092:RESET_B 5.91516e-05
5 *2760:A2 *3322:A 0.000279782
6 *2760:A2 *882:44 0.000128344
7 *2760:A2 *956:70 1.01315e-05
8 *2754:B *2760:A2 1.83847e-05
9 *2755:A2_N *2760:A2 7.06865e-05
10 *2760:B2 *2760:A2 0.00027042
11 *3090:D *2760:A2 0.00011574
12 *3251:A *2760:A2 0
*RES
1 *2754:Y *2760:A2 22.065 
*END

*D_NET *744 0.000993846
*CONN
*I *2757:B1 I *D sky130_fd_sc_hd__o22a_1
*I *2755:X O *D sky130_fd_sc_hd__o2bb2a_2
*CAP
1 *2757:B1 0.000109683
2 *2755:X 0.000109683
3 *2757:B1 *2757:B2 0.000304474
4 *2757:B1 *3322:A 7.23602e-05
5 *2757:B1 *882:52 2.15594e-05
6 *2445:A *2757:B1 6.52265e-05
7 *2757:A2 *2757:B1 0.000194694
8 *2758:B *2757:B1 0.000116165
*RES
1 *2755:X *2757:B1 11.445 
*END

*D_NET *745 0.00195333
*CONN
*I *2757:B2 I *D sky130_fd_sc_hd__o22a_1
*I *2756:X O *D sky130_fd_sc_hd__and2_1
*CAP
1 *2757:B2 0.00042378
2 *2756:X 0.00042378
3 *2757:B2 *2448:A 4.82919e-05
4 *2757:B2 *2448:B 4.66108e-05
5 *2757:B2 *2672:A 2.29156e-05
6 *2757:B2 *3322:A 0.000344459
7 *2757:B2 *1050:37 9.54469e-05
8 *2445:A *2757:B2 3.72413e-05
9 *2445:B *2757:B2 9.87031e-05
10 *2757:A2 *2757:B2 1.91597e-05
11 *2757:B1 *2757:B2 0.000304474
12 *3178:A *2757:B2 8.40269e-05
13 *672:43 *2757:B2 0
14 *739:10 *2757:B2 4.43871e-06
*RES
1 *2756:X *2757:B2 16.38 
*END

*D_NET *746 0.000300723
*CONN
*I *2759:C1 I *D sky130_fd_sc_hd__a221o_1
*I *2758:X O *D sky130_fd_sc_hd__and4b_1
*CAP
1 *2759:C1 6.1065e-05
2 *2758:X 6.1065e-05
3 *2759:C1 *2751:B2 7.23602e-05
4 *2759:C1 *2759:A1 4.66108e-05
5 *2759:C1 *2759:B2 9.50342e-06
6 *2759:C1 *3325:A 5.12017e-06
7 *116:57 *2759:C1 4.49987e-05
*RES
1 *2758:X *2759:C1 8.52 
*END

*D_NET *747 0.000729309
*CONN
*I *2760:B1 I *D sky130_fd_sc_hd__a22o_1
*I *2759:X O *D sky130_fd_sc_hd__a221o_1
*CAP
1 *2760:B1 0.000123812
2 *2759:X 0.000123812
3 *2760:B1 *2760:A1 0.00031573
4 *2760:B1 *3325:A 0
5 *2760:B1 *3327:A 0.000120186
6 *3092:D *2760:B1 4.57693e-05
*RES
1 *2759:X *2760:B1 10.875 
*END

*D_NET *748 0.00133642
*CONN
*I *2764:C I *D sky130_fd_sc_hd__or4_4
*I *2761:X O *D sky130_fd_sc_hd__a32o_1
*CAP
1 *2764:C 0.000235747
2 *2761:X 0.000235747
3 *2764:C *2443:A 0.000335268
4 *2764:C *2701:A 8.22234e-06
5 *2764:C *2764:B 0.000471951
6 *2764:C *2764:D 4.51806e-05
7 *2764:C *783:37 3.64998e-06
8 *483:8 *2764:C 6.51823e-07
*RES
1 *2761:X *2764:C 13.4663 
*END

*D_NET *749 0.00132031
*CONN
*I *2764:B I *D sky130_fd_sc_hd__or4_4
*I *2762:X O *D sky130_fd_sc_hd__a31o_1
*CAP
1 *2764:B 0.000297199
2 *2762:X 0.000297199
3 *2764:B *2701:A 2.03798e-05
4 *2764:B *2761:B2 2.75229e-05
5 *2764:B *2764:D 5.71093e-06
6 *2764:B *801:14 0.000177182
7 *2761:A3 *2764:B 5.17381e-06
8 *2761:B1 *2764:B 1.79892e-05
9 *2764:C *2764:B 0.000471951
*RES
1 *2762:X *2764:B 14.58 
*END

*D_NET *750 0.00274755
*CONN
*I *2764:D I *D sky130_fd_sc_hd__or4_4
*I *2763:Y O *D sky130_fd_sc_hd__a21oi_1
*CAP
1 *2764:D 0.000393421
2 *2763:Y 0.000393421
3 *2764:D *2443:A 0.000406181
4 *2764:D *2666:A0 4.99619e-05
5 *2764:D *801:14 0
6 *2764:D *868:70 1.92979e-05
7 *2764:D *881:31 2.40298e-05
8 *2764:D *889:62 0
9 *2764:D *889:75 0
10 *2761:A2 *2764:D 1.44947e-05
11 *2761:A3 *2764:D 1.27288e-06
12 *2763:A1 *2764:D 0.000938276
13 *2763:A2 *2764:D 1.17036e-05
14 *2763:B1 *2764:D 4.82863e-05
15 *2764:B *2764:D 5.71093e-06
16 *2764:C *2764:D 4.51806e-05
17 *3175:A *2764:D 0.000314056
18 *483:21 *2764:D 4.03082e-05
19 *510:38 *2764:D 4.19501e-05
*RES
1 *2763:Y *2764:D 20.505 
*END

*D_NET *751 0.00421131
*CONN
*I *2766:A1 I *D sky130_fd_sc_hd__mux2_4
*I *3370:A I *D sky130_fd_sc_hd__buf_1
*I *2765:A_N I *D sky130_fd_sc_hd__and2b_1
*I *2764:X O *D sky130_fd_sc_hd__or4_4
*CAP
1 *2766:A1 0
2 *3370:A 0
3 *2765:A_N 7.92746e-05
4 *2764:X 0.000614129
5 *751:22 0.000205933
6 *751:16 0.000740787
7 *2765:A_N *2766:A0 8.32039e-05
8 *2765:A_N *3227:A 8.23457e-05
9 *751:16 *2766:S 5.05521e-05
10 *751:16 *2767:B 2.96553e-05
11 *751:16 *2783:CLK 0.00013516
12 *751:16 *3104:A 3.14807e-05
13 *751:16 *771:28 0
14 *751:16 *801:14 0.000520682
15 *751:16 *885:115 1.93765e-05
16 *751:16 *889:75 7.42457e-05
17 *751:22 *2766:A0 0.000454975
18 *751:22 *2767:B 6.14689e-05
19 *2697:A *751:16 7.83095e-05
20 *2765:B *2765:A_N 0.000231211
21 *2765:B *751:22 0.000207263
22 *3175:A *751:16 0
23 *510:38 *751:16 0
24 *680:10 *751:16 0.000511263
*RES
1 *2764:X *751:16 21.4 
2 *751:16 *751:22 7.1 
3 *751:22 *2765:A_N 4.135 
4 *751:22 *3370:A 1.6 
5 *751:16 *2766:A1 3.6 
*END

*D_NET *752 0.00416245
*CONN
*I *2766:A0 I *D sky130_fd_sc_hd__mux2_4
*I *2772:B1 I *D sky130_fd_sc_hd__a22o_1
*I *2782:B1 I *D sky130_fd_sc_hd__a22o_1
*I *2778:B1 I *D sky130_fd_sc_hd__a22o_1
*I *2765:X O *D sky130_fd_sc_hd__and2b_1
*CAP
1 *2766:A0 0.000371915
2 *2772:B1 0.000143755
3 *2782:B1 0.000112934
4 *2778:B1 0
5 *2765:X 0
6 *752:19 0.000354348
7 *752:10 0.000302949
8 *752:4 0.000577205
9 *2766:A0 *3227:A 8.23457e-05
10 *2766:A0 *771:28 0
11 *2766:A0 *948:10 2.59926e-05
12 *2766:A0 *955:59 0
13 *2766:A0 *965:10 0.00027019
14 *2772:B1 *2769:A 1.33293e-05
15 *2772:B1 *2772:A2 4.67355e-05
16 *2772:B1 *2772:B2 4.87465e-06
17 *2772:B1 *945:25 4.82863e-05
18 *2782:B1 *2782:A1 2.30292e-05
19 *2782:B1 *2782:A2 0.000163199
20 *2782:B1 *3218:A 1.33293e-05
21 *752:10 *939:23 0.000163985
22 *752:10 *942:12 0.000258935
23 *752:10 *942:59 8.88715e-05
24 *752:10 *948:10 5.83121e-06
25 *752:10 *965:10 0.000153469
26 *752:19 *2772:A2 1.07797e-05
27 *752:19 *939:23 0.000194264
28 *752:19 *942:12 9.50342e-06
29 *752:19 *965:10 1.34361e-05
30 *752:19 *965:19 0.000101693
31 *2765:A_N *2766:A0 8.32039e-05
32 *2765:B *2766:A0 6.90876e-05
33 *3093:D *2766:A0 0
34 *751:22 *2766:A0 0.000454975
*RES
1 *2765:X *752:4 1.6 
2 *752:4 *752:10 8.135 
3 *752:10 *2778:B1 3.6 
4 *752:10 *752:19 2.91 
5 *752:19 *2782:B1 5.775 
6 *752:19 *2772:B1 5.88 
7 *752:4 *2766:A0 14.72 
*END

*D_NET *753 0.00641724
*CONN
*I *2774:B I *D sky130_fd_sc_hd__nand2_1
*I *2780:B I *D sky130_fd_sc_hd__xnor2_1
*I *2775:B I *D sky130_fd_sc_hd__or2_1
*I *2767:Y O *D sky130_fd_sc_hd__nand2_1
*CAP
1 *2774:B 0
2 *2780:B 0
3 *2775:B 0.000182518
4 *2767:Y 0.00161289
5 *753:18 0.000407035
6 *753:12 0.00183741
7 *2775:B *2776:B 0
8 *2775:B *2779:B1_N 0
9 *2775:B *2780:A 4.99619e-05
10 *2775:B *938:8 0
11 *753:12 *2402:C 0.000199833
12 *753:12 *2776:A 0
13 *753:12 *2777:A 0
14 *753:12 *2777:B 0
15 *753:12 *870:24 2.59733e-05
16 *753:12 *939:23 0.000534304
17 *753:12 *955:59 0.00092416
18 *753:18 *2774:A 5.4155e-06
19 *753:18 *2775:A 0.000122155
20 *753:18 *2777:B 2.75229e-05
21 *753:18 *2781:B 2.67403e-05
22 *753:18 *759:8 0.000313852
23 *753:18 *942:20 5.70565e-05
24 *3165:A *753:12 3.96737e-05
25 *3305:A *753:12 5.07419e-05
*RES
1 *2767:Y *753:12 27.755 
2 *753:12 *753:18 5.565 
3 *753:18 *2775:B 8.54 
4 *753:18 *2780:B 1.6 
5 *753:12 *2774:B 1.6 
*END

*D_NET *754 0.000878278
*CONN
*I *2773:B1 I *D sky130_fd_sc_hd__a21o_1
*I *2770:A_N I *D sky130_fd_sc_hd__nand2b_1
*I *2768:X O *D sky130_fd_sc_hd__o21a_1
*CAP
1 *2773:B1 0
2 *2770:A_N 7.8508e-05
3 *2768:X 0.000246167
4 *754:12 0.000324675
5 *2770:A_N *2770:B 4.71357e-05
6 *2770:A_N *2773:A1 8.8266e-05
7 *2770:A_N *2773:A2 1.35397e-05
8 *2770:A_N *755:10 5.88185e-05
9 *754:12 *2771:A 9.50342e-06
10 *754:12 *2771:B 0
11 *3099:A *754:12 1.16646e-05
*RES
1 *2768:X *754:12 8.72 
2 *754:12 *2770:A_N 3.93625 
3 *754:12 *2773:B1 1.6 
*END

*D_NET *755 0.0010734
*CONN
*I *2773:A2 I *D sky130_fd_sc_hd__a21o_1
*I *2770:B I *D sky130_fd_sc_hd__nand2b_1
*I *2769:X O *D sky130_fd_sc_hd__or3_1
*CAP
1 *2773:A2 7.41394e-06
2 *2770:B 3.63894e-05
3 *2769:X 0.000179209
4 *755:10 0.000223012
5 *2770:B *2771:B 5.32432e-05
6 *755:10 *2771:A 9.66106e-05
7 *755:10 *2771:B 0.000329243
8 *755:10 *2772:B2 2.11084e-05
9 *755:10 *2773:A1 7.67415e-06
10 *2770:A_N *2770:B 4.71357e-05
11 *2770:A_N *2773:A2 1.35397e-05
12 *2770:A_N *755:10 5.88185e-05
*RES
1 *2769:X *755:10 6.655 
2 *755:10 *2770:B 2.86375 
3 *755:10 *2773:A2 1.96 
*END

*D_NET *756 0.00108604
*CONN
*I *2771:B I *D sky130_fd_sc_hd__xnor2_1
*I *2770:Y O *D sky130_fd_sc_hd__nand2b_1
*CAP
1 *2771:B 0.000351777
2 *2770:Y 0.000351777
3 *2768:A2 *2771:B 0
4 *2770:B *2771:B 5.32432e-05
5 *754:12 *2771:B 0
6 *755:10 *2771:B 0.000329243
*RES
1 *2770:Y *2771:B 12.06 
*END

*D_NET *757 0.000413604
*CONN
*I *2772:B2 I *D sky130_fd_sc_hd__a22o_1
*I *2771:Y O *D sky130_fd_sc_hd__xnor2_1
*CAP
1 *2772:B2 0.000177255
2 *2771:Y 0.000177255
3 *2772:B2 *2769:A 3.31103e-05
4 *2772:B1 *2772:B2 4.87465e-06
5 *755:10 *2772:B2 2.11084e-05
*RES
1 *2771:Y *2772:B2 6.095 
*END

*D_NET *758 0.000891022
*CONN
*I *2779:A1 I *D sky130_fd_sc_hd__a21bo_1
*I *2777:A I *D sky130_fd_sc_hd__xnor2_1
*I *2773:X O *D sky130_fd_sc_hd__a21o_1
*CAP
1 *2779:A1 4.53825e-05
2 *2777:A 0.000154854
3 *2773:X 7.50391e-05
4 *758:8 0.000275276
5 *2777:A *2775:A 8.23691e-05
6 *2777:A *2777:B 1.91397e-05
7 *2777:A *2779:B1_N 8.79074e-05
8 *2779:A1 *2775:A 4.21973e-05
9 *2779:A1 *2779:A2 3.6558e-05
10 *2779:A1 *2779:B1_N 1.08758e-05
11 *2779:A1 *3218:A 1.34503e-05
12 *758:8 *2773:A1 8.53113e-06
13 *758:8 *2775:A 2.86623e-05
14 *758:8 *2779:B1_N 1.07797e-05
15 *753:12 *2777:A 0
*RES
1 *2773:X *758:8 4.98 
2 *758:8 *2777:A 6.555 
3 *758:8 *2779:A1 4.755 
*END

*D_NET *759 0.00199768
*CONN
*I *2779:B1_N I *D sky130_fd_sc_hd__a21bo_1
*I *2776:A I *D sky130_fd_sc_hd__nand2_1
*I *2774:Y O *D sky130_fd_sc_hd__nand2_1
*CAP
1 *2779:B1_N 0.000167241
2 *2776:A 7.28096e-05
3 *2774:Y 0.00020384
4 *759:8 0.00044389
5 *2776:A *2776:B 0.000120186
6 *2776:A *2777:B 7.23533e-05
7 *2779:B1_N *2775:A 0.000163199
8 *2779:B1_N *2776:B 0.000193286
9 *2779:B1_N *2777:B 7.47215e-05
10 *2779:B1_N *2779:A2 1.19928e-05
11 *2779:B1_N *760:6 5.07419e-05
12 *2775:B *2779:B1_N 0
13 *2777:A *2779:B1_N 8.79074e-05
14 *2779:A1 *2779:B1_N 1.08758e-05
15 *753:12 *2776:A 0
16 *753:18 *759:8 0.000313852
17 *758:8 *2779:B1_N 1.07797e-05
*RES
1 *2774:Y *759:8 6.465 
2 *759:8 *2776:A 5.43 
3 *759:8 *2779:B1_N 8.25 
*END

*D_NET *760 0.00141076
*CONN
*I *2779:A2 I *D sky130_fd_sc_hd__a21bo_1
*I *2776:B I *D sky130_fd_sc_hd__nand2_1
*I *2775:X O *D sky130_fd_sc_hd__or2_1
*CAP
1 *2779:A2 4.41203e-05
2 *2776:B 0.000165641
3 *2775:X 7.80345e-05
4 *760:6 0.000287796
5 *2776:B *938:8 0
6 *2776:B *938:14 0
7 *2779:A2 *3218:A 7.3151e-05
8 *760:6 *2775:A 3.54025e-05
9 *760:6 *3218:A 0.000313852
10 *2775:B *2776:B 0
11 *2776:A *2776:B 0.000120186
12 *2779:A1 *2779:A2 3.6558e-05
13 *2779:B1_N *2776:B 0.000193286
14 *2779:B1_N *2779:A2 1.19928e-05
15 *2779:B1_N *760:6 5.07419e-05
*RES
1 *2775:X *760:6 4.465 
2 *760:6 *2776:B 9.275 
3 *760:6 *2779:A2 2.755 
*END

*D_NET *761 0.000390184
*CONN
*I *2777:B I *D sky130_fd_sc_hd__xnor2_1
*I *2776:Y O *D sky130_fd_sc_hd__nand2_1
*CAP
1 *2777:B 8.44618e-05
2 *2776:Y 8.44618e-05
3 *2777:B *2781:B 2.75229e-05
4 *2776:A *2777:B 7.23533e-05
5 *2777:A *2777:B 1.91397e-05
6 *2779:B1_N *2777:B 7.47215e-05
7 *753:12 *2777:B 0
8 *753:18 *2777:B 2.75229e-05
*RES
1 *2776:Y *2777:B 9.285 
*END

*D_NET *762 0.000768113
*CONN
*I *2778:B2 I *D sky130_fd_sc_hd__a22o_1
*I *2777:Y O *D sky130_fd_sc_hd__xnor2_1
*CAP
1 *2778:B2 0.000194557
2 *2777:Y 0.000194557
3 *2778:B2 *2775:A 4.99619e-05
4 *2778:B2 *942:20 0.000324113
5 *3096:D *2778:B2 4.9253e-06
*RES
1 *2777:Y *2778:B2 7.475 
*END

*D_NET *763 0.00018113
*CONN
*I *2781:A I *D sky130_fd_sc_hd__xnor2_1
*I *2779:X O *D sky130_fd_sc_hd__a21bo_1
*CAP
1 *2781:A 5.4256e-05
2 *2779:X 5.4256e-05
3 *2781:A *2775:A 2.75145e-05
4 *2781:A *3218:A 4.51031e-05
*RES
1 *2779:X *2781:A 4.34 
*END

*D_NET *764 0.000736299
*CONN
*I *2781:B I *D sky130_fd_sc_hd__xnor2_1
*I *2780:Y O *D sky130_fd_sc_hd__xnor2_1
*CAP
1 *2781:B 0.000248914
2 *2780:Y 0.000248914
3 *2781:B *2775:A 0.000184208
4 *2777:B *2781:B 2.75229e-05
5 *753:18 *2781:B 2.67403e-05
*RES
1 *2780:Y *2781:B 10.755 
*END

*D_NET *765 0.000158404
*CONN
*I *2782:B2 I *D sky130_fd_sc_hd__a22o_1
*I *2781:Y O *D sky130_fd_sc_hd__xnor2_1
*CAP
1 *2782:B2 4.80331e-05
2 *2781:Y 4.80331e-05
3 *2782:B2 *2782:A1 1.23763e-05
4 *2782:B2 *3218:A 4.99619e-05
*RES
1 *2781:Y *2782:B2 4.265 
*END

*D_NET *766 0.00354059
*CONN
*I *2434:B1 I *D sky130_fd_sc_hd__a211oi_2
*I *2436:A_N I *D sky130_fd_sc_hd__and3b_1
*I *2435:C I *D sky130_fd_sc_hd__and3b_1
*I *2437:C I *D sky130_fd_sc_hd__and3_1
*I *2827:Q O *D sky130_fd_sc_hd__dlxtn_1
*CAP
1 *2434:B1 0
2 *2436:A_N 8.71956e-05
3 *2435:C 0.000213874
4 *2437:C 1.27756e-05
5 *2827:Q 0.000213589
6 *766:31 0.000386356
7 *766:27 0.000296675
8 *766:10 0.000437752
9 *2435:C *2435:A_N 8.40269e-05
10 *2435:C *970:12 0.00011852
11 *2435:C *982:8 5.90847e-05
12 *2436:A_N *3325:A 8.97486e-05
13 *2436:A_N *970:12 0.000177561
14 *2437:C *2437:B 4.17708e-06
15 *766:10 *2437:B 7.20188e-05
16 *766:10 *2662:A1 0.000335264
17 *766:10 *3328:A 0.000134531
18 *766:27 *2437:B 1.08723e-05
19 *766:27 *2662:A0 0.000110422
20 *766:27 *2662:A1 9.28053e-05
21 *766:27 *767:27 0.000203121
22 *766:27 *767:42 0.00013994
23 *766:31 *2434:C1 6.97034e-05
24 *2437:A *766:27 0
25 *478:36 *766:31 1.34594e-05
26 *507:24 *2435:C 4.82018e-05
27 *507:24 *2436:A_N 8.09021e-06
28 *507:24 *766:27 0.000120828
*RES
1 *2827:Q *766:10 8.67 
2 *766:10 *2437:C 3.765 
3 *766:10 *766:27 8.27 
4 *766:27 *766:31 3.485 
5 *766:31 *2435:C 7.155 
6 *766:31 *2436:A_N 6.195 
7 *766:27 *2434:B1 1.6 
*END

*D_NET *767 0.00280827
*CONN
*I *2436:C I *D sky130_fd_sc_hd__and3b_1
*I *2434:C1 I *D sky130_fd_sc_hd__a211oi_2
*I *2435:A_N I *D sky130_fd_sc_hd__and3b_1
*I *2437:B I *D sky130_fd_sc_hd__and3_1
*I *2828:Q O *D sky130_fd_sc_hd__dlxtn_1
*CAP
1 *2436:C 7.17302e-05
2 *2434:C1 6.94669e-05
3 *2435:A_N 0.000109531
4 *2437:B 0.00010636
5 *2828:Q 4.54724e-05
6 *767:42 0.000250728
7 *767:27 0.000351686
8 *767:8 0.000284457
9 *2435:A_N *982:8 0.000109377
10 *2436:C *2662:A0 9.58051e-05
11 *2436:C *3325:A 1.10631e-05
12 *2437:B *3328:A 9.50342e-06
13 *2437:B *3345:A 3.79352e-05
14 *767:27 *3345:A 4.5783e-05
15 *767:42 *2662:A0 0.000103974
16 *767:42 *982:8 3.83194e-05
17 PADDR[2] *2436:C 3.62776e-05
18 PSEL2 *2437:B 4.01535e-05
19 PSEL2 *767:27 8.5242e-05
20 *2435:C *2435:A_N 8.40269e-05
21 *2437:C *2437:B 4.17708e-06
22 *478:36 *2434:C1 0.000158066
23 *507:24 *2436:C 4.31189e-05
24 *507:24 *767:27 9.61414e-05
25 *507:24 *767:42 2.42236e-05
26 *766:10 *2437:B 7.20188e-05
27 *766:27 *2437:B 1.08723e-05
28 *766:27 *767:27 0.000203121
29 *766:27 *767:42 0.00013994
30 *766:31 *2434:C1 6.97034e-05
*RES
1 *2828:Q *767:8 4.05 
2 *767:8 *2437:B 5.985 
3 *767:8 *767:27 5.93 
4 *767:27 *2435:A_N 3.79 
5 *767:27 *767:42 4.94 
6 *767:42 *2434:C1 5.445 
7 *767:42 *2436:C 5.745 
*END

*D_NET *768 0.000922587
*CONN
*I *2748:B I *D sky130_fd_sc_hd__and2b_1
*I *2825:Q O *D sky130_fd_sc_hd__dlxtn_1
*CAP
1 *2748:B 0.00011599
2 *2825:Q 0.00011599
3 *2748:B *2748:A_N 1.56428e-05
4 *2748:B *885:26 0.000335071
5 *2516:A *2748:B 0.000339893
*RES
1 *2825:Q *2748:B 11.58 
*END

*D_NET *769 0.000467229
*CONN
*I *2748:A_N I *D sky130_fd_sc_hd__and2b_1
*I *2826:Q O *D sky130_fd_sc_hd__dlxtn_1
*CAP
1 *2748:A_N 0.000174995
2 *2826:Q 0.000174995
3 *2748:A_N *3354:A 6.15576e-06
4 *2516:A *2748:A_N 9.54399e-05
5 *2748:B *2748:A_N 1.56428e-05
*RES
1 *2826:Q *2748:A_N 9.81 
*END

*D_NET *770 0.00250497
*CONN
*I *3101:A I *D sky130_fd_sc_hd__clkbuf_16
*I *3100:A I *D sky130_fd_sc_hd__clkbuf_16
*I *3099:X O *D sky130_fd_sc_hd__clkbuf_16
*CAP
1 *3101:A 0.000171093
2 *3100:A 0.000185666
3 *3099:X 4.33599e-05
4 *770:10 0.000400119
5 *3100:A *2762:A1 0.000617721
6 *3100:A *891:6 0.000235573
7 *3101:A *891:6 7.40446e-05
8 *770:10 *2378:A 4.94326e-05
9 *770:10 *891:72 3.86529e-05
10 *2680:A *3101:A 4.82863e-05
11 *2680:C *3101:A 4.30059e-05
12 *2685:A *3100:A 0.000310588
13 *2685:A *3101:A 5.6361e-05
14 *3183:A *3101:A 0.000223849
15 *501:8 *770:10 7.21296e-06
*RES
1 *3099:X *770:10 6.725 
2 *770:10 *3100:A 9.295 
3 *770:10 *3101:A 5.62 
*END

*D_NET *771 0.00868405
*CONN
*I *3102:A I *D sky130_fd_sc_hd__clkbuf_4
*I *3087:CLK I *D sky130_fd_sc_hd__dfrtp_1
*I *3086:CLK I *D sky130_fd_sc_hd__dfrtp_1
*I *3089:CLK I *D sky130_fd_sc_hd__dfrtp_1
*I *3088:CLK I *D sky130_fd_sc_hd__dfrtp_1
*I *3094:CLK I *D sky130_fd_sc_hd__dfrtp_1
*I *3093:CLK I *D sky130_fd_sc_hd__dfrtp_1
*I *3095:CLK I *D sky130_fd_sc_hd__dfrtp_1
*I *3096:CLK I *D sky130_fd_sc_hd__dfrtp_1
*I *2783:CLK I *D sky130_fd_sc_hd__dfrtp_1
*I *3100:X O *D sky130_fd_sc_hd__clkbuf_16
*CAP
1 *3102:A 0
2 *3087:CLK 0.000328748
3 *3086:CLK 0
4 *3089:CLK 0
5 *3088:CLK 5.66328e-05
6 *3094:CLK 0
7 *3093:CLK 0
8 *3095:CLK 0
9 *3096:CLK 0
10 *2783:CLK 0.000330002
11 *3100:X 0.000150553
12 *771:89 0.000456688
13 *771:78 0.000237309
14 *771:67 0.000449377
15 *771:28 0.000407982
16 *771:22 0.000891371
17 *771:14 0.00095913
18 *771:12 0.00024889
19 *771:10 0.00132269
20 *771:6 0.00108672
21 *2783:CLK *2766:S 0.000193046
22 *3087:CLK *3098:A 0.000127485
23 *771:10 *783:26 9.27764e-05
24 *771:12 *972:10 0
25 *771:14 *2769:B 0
26 *771:14 *945:10 0
27 *771:14 *945:14 0
28 *771:22 *2772:A2 0.000110399
29 *771:22 *3095:RESET_B 7.69078e-05
30 *771:22 *3218:A 2.65814e-06
31 *771:22 *3222:A 7.27298e-06
32 *771:22 *945:14 0
33 *771:22 *945:25 2.81892e-05
34 *771:28 *2766:S 0.000102993
35 *771:67 *972:10 0
36 *2766:A0 *771:28 0
37 *3086:D *3087:CLK 8.53856e-06
38 *3089:D *771:78 4.91189e-05
39 *3093:D *2783:CLK 0.000516974
40 *3093:D *771:28 0.000116429
41 *3094:D *771:14 4.40812e-05
42 *383:10 *3087:CLK 0.000145922
43 *383:10 *771:12 0
44 *383:10 *771:14 0
45 *383:10 *771:22 0
46 *383:10 *771:67 0
47 *383:10 *771:78 0
48 *383:10 *771:89 0
49 *751:16 *2783:CLK 0.00013516
50 *751:16 *771:28 0
*RES
1 *3100:X *771:6 3.43 
2 *771:6 *771:10 14.87 
3 *771:10 *771:12 1.635 
4 *771:12 *771:14 2.145 
5 *771:14 *771:22 11.6 
6 *771:22 *771:28 6.4 
7 *771:28 *2783:CLK 10.465 
8 *771:28 *3096:CLK 1.6 
9 *771:22 *3095:CLK 1.6 
10 *771:14 *3093:CLK 3.6 
11 *771:12 *3094:CLK 3.6 
12 *771:10 *771:67 4.695 
13 *771:67 *3088:CLK 4.395 
14 *771:67 *771:78 2.145 
15 *771:78 *3089:CLK 3.6 
16 *771:78 *771:89 4.145 
17 *771:89 *3086:CLK 1.6 
18 *771:89 *3087:CLK 11.6 
19 *771:6 *3102:A 1.6 
*END

*D_NET *772 0.0140735
*CONN
*I *2789:CLK I *D sky130_fd_sc_hd__dfrtp_1
*I *2787:CLK I *D sky130_fd_sc_hd__dfrtp_1
*I *2788:CLK I *D sky130_fd_sc_hd__dfrtp_1
*I *2790:CLK I *D sky130_fd_sc_hd__dfrtp_1
*I *3090:CLK I *D sky130_fd_sc_hd__dfrtp_1
*I *3092:CLK I *D sky130_fd_sc_hd__dfrtp_1
*I *3091:CLK I *D sky130_fd_sc_hd__dfrtp_1
*I *2784:CLK I *D sky130_fd_sc_hd__dfrtp_1
*I *2785:CLK I *D sky130_fd_sc_hd__dfrtp_1
*I *2786:CLK I *D sky130_fd_sc_hd__dfrtp_1
*I *3101:X O *D sky130_fd_sc_hd__clkbuf_16
*CAP
1 *2789:CLK 8.264e-05
2 *2787:CLK 0.000707373
3 *2788:CLK 0
4 *2790:CLK 0.000228202
5 *3090:CLK 0.000190085
6 *3092:CLK 0
7 *3091:CLK 2.08101e-05
8 *2784:CLK 0.000276799
9 *2785:CLK 0
10 *2786:CLK 0.000245496
11 *3101:X 0
12 *772:96 0.000851416
13 *772:85 0.000222451
14 *772:74 0.000469727
15 *772:56 0.000278387
16 *772:43 0.000443195
17 *772:39 0.000575191
18 *772:12 0.000597972
19 *772:10 0.00106847
20 *772:6 0.000599828
21 *2784:CLK *2447:A_N 3.00381e-05
22 *2786:CLK *2784:RESET_B 9.51192e-05
23 *2786:CLK *3058:D 4.43871e-06
24 *2787:CLK *2668:B 8.40213e-05
25 *2787:CLK *2705:A1 2.56156e-05
26 *2787:CLK *2708:A 3.57349e-05
27 *2787:CLK *2721:A 2.61299e-05
28 *2787:CLK *786:10 0.000302562
29 *2787:CLK *786:32 0.000218666
30 *2787:CLK *786:39 7.49327e-05
31 *2789:CLK *2668:B 7.40446e-05
32 *2789:CLK *2708:A 1.48813e-05
33 *2790:CLK *2790:RESET_B 8.53755e-05
34 *2790:CLK *996:16 9.14035e-05
35 *2790:CLK *1047:82 7.51897e-05
36 *3090:CLK *1050:37 0.00052287
37 *772:10 *3103:A 0.000283907
38 *772:10 *3362:A 1.16283e-05
39 *772:10 *774:16 7.19074e-05
40 *772:10 *950:94 5.53249e-06
41 *772:10 *954:8 4.44131e-05
42 *772:12 *2784:RESET_B 0.000456499
43 *772:12 *956:26 0.000134938
44 *772:39 *950:94 2.78732e-05
45 *772:43 *2669:A 0.0001249
46 *772:43 *891:80 2.10134e-05
47 *772:43 *891:110 2.96334e-05
48 *772:56 *3091:RESET_B 9.14049e-05
49 *772:56 *1050:37 0.000136877
50 *772:85 *2693:A 1.86688e-05
51 *772:85 *786:47 0.000152498
52 *772:85 *787:38 0.000110044
53 *772:96 *786:47 0.000146623
54 *772:96 *787:36 1.07797e-05
55 *772:96 *787:38 7.15815e-05
56 *2694:C *2790:CLK 4.80182e-05
57 *2694:C *772:10 5.86717e-05
58 *2694:C *772:39 9.33477e-05
59 *2694:C *772:74 2.88519e-05
60 *2717:A1 *772:43 0.000424619
61 *2720:A1 *772:10 0
62 *2720:A1 *772:39 0
63 *2720:A1 *772:43 4.60584e-05
64 *2723:A2 *772:43 1.08758e-05
65 *2784:D *2784:CLK 0.000123304
66 *2784:D *772:10 0.000138279
67 *2786:D *2786:CLK 0
68 *3090:D *3090:CLK 0
69 *3091:D *772:56 7.00889e-06
70 *3251:A *3090:CLK 0.000235159
71 *474:25 *772:10 0.000597573
72 *474:45 *772:10 9.37731e-05
73 *474:45 *772:12 0.000389572
74 *485:12 *2786:CLK 0
75 *505:38 *3090:CLK 0.000106869
76 *505:38 *772:56 2.60986e-05
77 *674:18 *2787:CLK 0.000120655
78 *674:18 *2790:CLK 7.35729e-05
79 *674:18 *772:39 1.07797e-05
80 *674:18 *772:74 8.52172e-05
81 *674:18 *772:85 7.28173e-05
82 *674:30 *772:39 3.05295e-05
83 *674:30 *772:43 4.86478e-05
84 *676:10 *772:74 0
85 *676:10 *772:85 0
86 *701:34 *772:43 0.00027299
87 *701:43 *772:43 0.000189845
88 *739:16 *772:43 4.82919e-05
89 *739:16 *772:56 0.000122325
*RES
1 *3101:X *772:6 3.6 
2 *772:6 *772:10 13.58 
3 *772:10 *772:12 9.765 
4 *772:12 *2786:CLK 9.92 
5 *772:12 *2785:CLK 1.6 
6 *772:10 *2784:CLK 6.535 
7 *772:6 *772:39 3.165 
8 *772:39 *772:43 10.73 
9 *772:43 *3091:CLK 1.96 
10 *772:43 *772:56 4.775 
11 *772:56 *3092:CLK 3.6 
12 *772:56 *3090:CLK 9.825 
13 *772:39 *772:74 1.89 
14 *772:74 *2790:CLK 8.535 
15 *772:74 *772:85 3.93 
16 *772:85 *2788:CLK 3.6 
17 *772:85 *772:96 3.89 
18 *772:96 *2787:CLK 12.445 
19 *772:96 *2789:CLK 3.1 
*END

*D_NET *773 0.00530414
*CONN
*I *3233:A I *D sky130_fd_sc_hd__buf_1
*I *3232:A I *D sky130_fd_sc_hd__clkbuf_2
*I *2783:Q O *D sky130_fd_sc_hd__dfrtp_1
*CAP
1 *3233:A 0.000445349
2 *3232:A 0
3 *2783:Q 0.000552214
4 *773:20 0.000997563
5 *3233:A *2378:A 0.000219178
6 *3233:A *2428:B 9.387e-06
7 *3233:A *2702:A1 4.66108e-05
8 *3233:A *2702:A3 1.19928e-05
9 *3233:A *2702:B2 4.66108e-05
10 *3233:A *891:72 0.000597179
11 *3233:A *969:63 0.00012918
12 *773:20 *2383:B 2.55359e-05
13 *773:20 *2428:A 4.99619e-05
14 *773:20 *2428:B 0.000397385
15 *773:20 *2699:A1 3.94429e-05
16 *773:20 *2783:RESET_B 7.37556e-05
17 *2681:C *3233:A 0.000122331
18 *2702:A2 *3233:A 8.51419e-05
19 *2785:D *773:20 0.000302893
20 *485:12 *773:20 0.000117116
21 *501:8 *3233:A 0
22 *502:10 *773:20 8.65961e-05
23 *502:42 *773:20 0.000124895
24 *508:10 *773:20 0.00019283
25 *508:46 *773:20 6.83447e-05
26 *510:32 *773:20 0.000414846
27 *672:53 *3233:A 0.000113247
28 *676:16 *3233:A 7.00889e-06
29 *691:20 *773:20 2.75493e-05
*RES
1 *2783:Q *773:20 23.02 
2 *773:20 *3232:A 3.6 
3 *773:20 *3233:A 14.76 
*END

*D_NET *774 0.00512577
*CONN
*I *2387:C_N I *D sky130_fd_sc_hd__or3b_1
*I *3231:A I *D sky130_fd_sc_hd__buf_6
*I *3369:A I *D sky130_fd_sc_hd__dlymetal6s2s_1
*I *3362:A I *D sky130_fd_sc_hd__dlygate4sd1_1
*I *3367:A I *D sky130_fd_sc_hd__dlygate4sd1_1
*I *2784:Q O *D sky130_fd_sc_hd__dfrtp_1
*CAP
1 *2387:C_N 0.000105476
2 *3231:A 0
3 *3369:A 3.42536e-05
4 *3362:A 0.000165664
5 *3367:A 1.36534e-05
6 *2784:Q 0.000221236
7 *774:59 0.000216163
8 *774:42 0.000185621
9 *774:16 0.000307491
10 *774:12 0.00039009
11 *2387:C_N *2387:A 8.6076e-05
12 *2387:C_N *2430:B 6.00111e-05
13 *2387:C_N *2441:B 0.000118081
14 *2387:C_N *969:12 2.49909e-05
15 *3362:A *2382:B 2.25119e-05
16 *3362:A *3103:A 0.000118427
17 *3362:A *954:38 0.0001249
18 *3367:A *3366:A 4.66108e-05
19 *3367:A *953:65 4.66108e-05
20 *3369:A *3360:A 5.22918e-05
21 *3369:A *3368:A 1.33285e-05
22 *3369:A *951:59 2.04101e-05
23 *774:12 *2449:C 0.000118081
24 *774:12 *2450:B 0.00011379
25 *774:12 *2450:D 0.000321674
26 *774:12 *950:35 6.43623e-05
27 *774:12 *950:46 4.14369e-05
28 *774:12 *966:16 0.000132131
29 *774:16 *2382:B 0.000114084
30 *774:16 *3103:A 0.000158297
31 *774:42 *3360:A 1.60203e-05
32 *774:42 *966:16 7.23635e-05
33 *774:59 *2447:A_N 0.000153186
34 *774:59 *951:59 0.000170884
35 *2671:A3 *774:59 7.9711e-05
36 *2694:C *774:12 3.23391e-05
37 *2695:B *3362:A 3.33697e-05
38 *2695:D_N *2387:C_N 0.000103554
39 *2702:A2 *3362:A 0.0001249
40 *2784:D *774:16 9.02937e-05
41 *503:62 *3362:A 0
42 *675:12 *774:59 8.00143e-05
43 *696:28 *774:12 0.000263595
44 *696:28 *774:42 0.000192125
45 *696:28 *774:59 0.000192125
46 *772:10 *3362:A 1.16283e-05
47 *772:10 *774:16 7.19074e-05
*RES
1 *2784:Q *774:12 12.05 
2 *774:12 *774:16 5.675 
3 *774:16 *3367:A 4.05 
4 *774:16 *3362:A 7.44 
5 *774:12 *774:42 1.83 
6 *774:42 *3369:A 2.755 
7 *774:42 *774:59 7.72 
8 *774:59 *3231:A 1.6 
9 *774:59 *2387:C_N 4.465 
*END

*D_NET *775 0.00113335
*CONN
*I *2664:D I *D sky130_fd_sc_hd__and4bb_1
*I *3230:A I *D sky130_fd_sc_hd__buf_6
*I *2785:Q O *D sky130_fd_sc_hd__dfrtp_1
*CAP
1 *2664:D 0.000144662
2 *3230:A 9.71884e-06
3 *2785:Q 6.69602e-05
4 *775:8 0.000221341
5 *2664:D *2449:A_N 1.65192e-05
6 *2664:D *2449:B 7.36641e-05
7 *2664:D *2694:A 0.000308736
8 *2664:D *956:26 0
9 *2664:D *1048:10 7.9642e-06
10 *3230:A *2694:A 4.82919e-05
11 *3230:A *951:38 4.82919e-05
12 *775:8 *2450:D 2.37234e-05
13 *474:45 *2664:D 6.51234e-06
14 *474:45 *775:8 7.12055e-05
15 *510:12 *2664:D 5.04183e-05
16 *510:12 *775:8 3.53398e-05
*RES
1 *2785:Q *775:8 5.235 
2 *775:8 *3230:A 4.05 
3 *775:8 *2664:D 7.53 
*END

*D_NET *776 0.00139728
*CONN
*I *3359:A I *D sky130_fd_sc_hd__dlygate4sd1_1
*I *3229:A I *D sky130_fd_sc_hd__buf_6
*I *2786:Q O *D sky130_fd_sc_hd__dfrtp_1
*CAP
1 *3359:A 0.000127242
2 *3229:A 1.71225e-05
3 *2786:Q 0.000183183
4 *776:8 0.000327548
5 *3229:A *950:10 5.05437e-05
6 *3229:A *951:6 8.65905e-05
7 *3359:A *956:26 0.000153591
8 *3359:A *1012:16 0
9 *776:8 *2450:A_N 6.8665e-05
10 *776:8 *956:26 0.000134238
11 *776:8 *1012:16 0
12 *474:45 *3359:A 0.000161529
13 *696:28 *3359:A 8.70316e-05
*RES
1 *2786:Q *776:8 7.275 
2 *776:8 *3229:A 4.395 
3 *776:8 *3359:A 6.975 
*END

*D_NET *777 0.000174757
*CONN
*I *3228:A I *D sky130_fd_sc_hd__clkbuf_2
*I *3093:Q O *D sky130_fd_sc_hd__dfrtp_1
*CAP
1 *3228:A 6.9004e-05
2 *3093:Q 6.9004e-05
3 *3228:A *885:115 3.09179e-05
4 *3093:D *3228:A 5.83121e-06
*RES
1 *3093:Q *3228:A 4.355 
*END

*D_NET *778 0.00145858
*CONN
*I *3225:A I *D sky130_fd_sc_hd__buf_1
*I *3094:Q O *D sky130_fd_sc_hd__dfrtp_1
*CAP
1 *3225:A 0.000672832
2 *3094:Q 0.000672832
3 *3225:A *2768:B1 2.34602e-05
4 *3099:A *3225:A 8.94607e-05
*RES
1 *3094:Q *3225:A 11.075 
*END

*D_NET *779 0.00091161
*CONN
*I *3222:A I *D sky130_fd_sc_hd__buf_1
*I *3095:Q O *D sky130_fd_sc_hd__dfrtp_1
*CAP
1 *3222:A 0.000160811
2 *3095:Q 0.000160811
3 *3222:A *945:25 0.000291358
4 *383:10 *3222:A 0.000291358
5 *771:22 *3222:A 7.27298e-06
*RES
1 *3095:Q *3222:A 11.415 
*END

*D_NET *780 0.00321011
*CONN
*I *3219:A I *D sky130_fd_sc_hd__clkbuf_2
*I *3218:A I *D sky130_fd_sc_hd__clkbuf_2
*I *3096:Q O *D sky130_fd_sc_hd__dfrtp_1
*CAP
1 *3219:A 1.44843e-05
2 *3218:A 0.000999468
3 *3096:Q 0.000102738
4 *780:10 0.00111669
5 *3218:A *2775:A 2.86265e-06
6 *3218:A *2782:A1 0.000132649
7 *3218:A *2782:A2 2.05056e-05
8 *3218:A *939:6 7.3151e-05
9 *3218:A *965:19 1.79536e-05
10 *3219:A *2772:A2 8.53113e-06
11 *3219:A *945:25 1.2961e-05
12 *3219:A *965:19 3.14383e-05
13 *780:10 *945:25 0.000124695
14 *780:10 *965:19 4.04791e-05
15 *2779:A1 *3218:A 1.34503e-05
16 *2779:A2 *3218:A 7.3151e-05
17 *2781:A *3218:A 4.51031e-05
18 *2782:B1 *3218:A 1.33293e-05
19 *2782:B2 *3218:A 4.99619e-05
20 *760:6 *3218:A 0.000313852
21 *771:22 *3218:A 2.65814e-06
*RES
1 *3096:Q *780:10 5.9025 
2 *780:10 *3218:A 17.0025 
3 *780:10 *3219:A 4.0875 
*END

*D_NET *781 0.00246412
*CONN
*I *2443:A I *D sky130_fd_sc_hd__and2_1
*I *2829:Q O *D sky130_fd_sc_hd__dlxtn_1
*CAP
1 *2443:A 0.000511172
2 *2829:Q 0.000511172
3 *2443:A *2390:B 3.86529e-05
4 *2443:A *2731:A1 0.000110535
5 *2443:A *783:37 0.000150755
6 *2443:A *801:14 0
7 *2443:A *804:10 1.56428e-05
8 *2731:A2 *2443:A 0
9 *2733:A1 *2443:A 0
10 *2736:B1 *2443:A 0
11 *2742:A2 *2443:A 4.41294e-05
12 *2742:B1 *2443:A 9.30787e-05
13 *2764:C *2443:A 0.000335268
14 *2764:D *2443:A 0.000406181
15 *482:12 *2443:A 0.000134509
16 *483:21 *2443:A 1.01661e-05
17 *722:10 *2443:A 6.67956e-05
18 *722:75 *2443:A 3.60648e-05
*RES
1 *2829:Q *2443:A 20.805 
*END

*D_NET *782 0.00636042
*CONN
*I *2729:A1 I *D sky130_fd_sc_hd__a21bo_1
*I *2730:B2 I *D sky130_fd_sc_hd__o22a_1
*I *2390:A I *D sky130_fd_sc_hd__nor2_1
*I *2391:A I *D sky130_fd_sc_hd__or3_1
*I *2732:A0 I *D sky130_fd_sc_hd__mux2_1
*I *2392:A I *D sky130_fd_sc_hd__nor4_1
*I *3086:Q O *D sky130_fd_sc_hd__dfrtp_1
*CAP
1 *2729:A1 0
2 *2730:B2 4.4351e-05
3 *2390:A 7.56812e-05
4 *2391:A 0.000202509
5 *2732:A0 0
6 *2392:A 0.000228695
7 *3086:Q 4.43627e-05
8 *782:53 0.000329423
9 *782:36 0.000446537
10 *782:32 0.000130877
11 *782:25 0.000196145
12 *782:6 0.000372963
13 *2390:A *2390:B 6.28765e-05
14 *2390:A *3347:A 1.65192e-05
15 *2391:A *2391:C 0.000320817
16 *2391:A *801:25 0
17 *2391:A *804:14 0.000179981
18 *2392:A *3104:A 4.82863e-05
19 *2392:A *783:12 0.000558891
20 *2392:A *785:14 0.000315139
21 *2392:A *972:36 4.99619e-05
22 *782:6 *3086:RESET_B 8.65905e-05
23 *782:36 *804:14 0.000132096
24 *782:53 *2742:A1 0.000233786
25 *2729:A2 *782:32 4.66108e-05
26 *2730:B1 *782:53 0.000122331
27 *2731:B1 *782:53 4.82863e-05
28 *2732:A1 *782:25 3.26889e-05
29 *2732:A1 *782:32 7.46855e-05
30 *2732:S *782:32 8.65905e-05
31 *2741:A2 *782:53 0.000119756
32 *2741:B1 *2730:B2 2.05056e-05
33 *2742:A2 *2391:A 0.000272984
34 *2742:B1 *782:53 0.00019637
35 *2743:A1 *782:53 0.00019637
36 *2743:A2 *2391:A 3.09164e-05
37 *2743:A2 *782:36 0.00013994
38 *2743:A2 *782:53 0.00015896
39 *2747:B1 *2390:A 7.23533e-05
40 *3086:D *782:6 0.000238919
41 *3086:D *782:25 1.16578e-05
42 *3088:D *2392:A 0
43 *3088:D *782:6 6.05513e-05
44 *3088:D *782:25 5.41685e-05
45 *3088:D *782:32 0.000234674
46 *3147:A *2392:A 0
47 *718:19 *2391:A 1.47347e-05
48 *722:14 *782:53 1.46828e-05
49 *722:18 *782:53 3.51968e-05
*RES
1 *3086:Q *782:6 3.775 
2 *782:6 *2392:A 12.89 
3 *782:6 *782:25 2.1 
4 *782:25 *2732:A0 1.6 
5 *782:25 *782:32 2.865 
6 *782:32 *782:36 3.635 
7 *782:36 *2391:A 9.315 
8 *782:36 *782:53 8.315 
9 *782:53 *2390:A 7.34 
10 *782:53 *2730:B2 2.41 
11 *782:32 *2729:A1 1.6 
*END

*D_NET *783 0.00600156
*CONN
*I *2737:A1 I *D sky130_fd_sc_hd__a22o_1
*I *2392:B I *D sky130_fd_sc_hd__nor4_1
*I *2390:B I *D sky130_fd_sc_hd__nor2_1
*I *2391:B I *D sky130_fd_sc_hd__or3_1
*I *2677:A1 I *D sky130_fd_sc_hd__o31a_1
*I *3087:Q O *D sky130_fd_sc_hd__dfrtp_1
*CAP
1 *2737:A1 0.000176377
2 *2392:B 0
3 *2390:B 0.000346806
4 *2391:B 0
5 *2677:A1 0
6 *3087:Q 0
7 *783:37 0.000603208
8 *783:26 0.00059077
9 *783:12 0.000845026
10 *783:4 0.000687036
11 *2390:B *2726:A 8.53113e-06
12 *783:12 *2725:B 0
13 *783:12 *3086:RESET_B 0
14 *783:26 *2725:B 9.50342e-06
15 *783:26 *2829:D 3.67779e-05
16 *783:26 *3104:A 4.66108e-05
17 *783:26 *784:14 4.9968e-05
18 *783:26 *972:49 3.31282e-05
19 *783:37 *3104:A 5.20905e-05
20 *783:37 *801:14 0
21 *2390:A *2390:B 6.28765e-05
22 *2392:A *783:12 0.000558891
23 *2443:A *2390:B 3.86529e-05
24 *2443:A *783:37 0.000150755
25 *2731:B1 *2390:B 0.000114492
26 *2733:A1 *783:37 3.18137e-05
27 *2737:B1 *2737:A1 3.21081e-06
28 *2737:B2 *2737:A1 5.83121e-06
29 *2742:A2 *2390:B 6.38291e-05
30 *2742:A2 *783:37 8.53113e-06
31 *2747:A2 *783:12 0.000166346
32 *2747:B1 *2390:B 0.000330757
33 *2764:A *783:26 3.18137e-05
34 *2764:A *783:37 0.000311294
35 *2764:C *783:37 3.64998e-06
36 *3087:D *2737:A1 6.02035e-05
37 *3087:D *783:12 9.66106e-05
38 *3147:A *783:12 0
39 *3147:A *783:26 0
40 *483:8 *783:26 2.49909e-05
41 *483:8 *783:37 0.000270598
42 *718:47 *2390:B 7.06865e-05
43 *720:10 *2390:B 1.71207e-05
44 *771:10 *783:26 9.27764e-05
*RES
1 *3087:Q *783:4 1.6 
2 *783:4 *783:12 12.2 
3 *783:12 *783:26 11.475 
4 *783:26 *2677:A1 1.6 
5 *783:26 *783:37 8.9 
6 *783:37 *2391:B 3.6 
7 *783:37 *2390:B 13.99 
8 *783:12 *2392:B 3.6 
9 *783:4 *2737:A1 4.315 
*END

*D_NET *784 0.00330966
*CONN
*I *3240:A I *D sky130_fd_sc_hd__dlygate4sd3_1
*I *2391:C I *D sky130_fd_sc_hd__or3_1
*I *2677:A2 I *D sky130_fd_sc_hd__o31a_1
*I *2392:C I *D sky130_fd_sc_hd__nor4_1
*I *3088:Q O *D sky130_fd_sc_hd__dfrtp_1
*CAP
1 *3240:A 5.55394e-05
2 *2391:C 0.000124129
3 *2677:A2 0
4 *2392:C 8.60529e-05
5 *3088:Q 0.000368413
6 *784:32 0.000233209
7 *784:14 0.000206327
8 *784:8 0.000542228
9 *2392:C *3104:A 0.000234482
10 *2392:C *972:36 0.000140594
11 *3240:A *2725:B 2.34423e-05
12 *3240:A *804:14 7.21296e-06
13 *784:14 *2725:B 5.46798e-05
14 *784:14 *3104:A 4.66108e-05
15 *784:14 *804:10 0
16 *784:32 *2725:B 6.34101e-06
17 *784:32 *804:10 0
18 *784:32 *804:14 1.22676e-05
19 *2391:A *2391:C 0.000320817
20 *2733:A1 *2391:C 0.000157959
21 *2733:A2 *2391:C 4.36241e-05
22 *2742:A2 *2391:C 5.82176e-05
23 *2747:B1 *3240:A 0.00010596
24 *2747:B1 *784:8 0.000124007
25 *2747:B1 *784:32 5.23362e-05
26 *2764:A *784:14 1.52184e-05
27 *3088:D *784:8 4.9253e-06
28 *3089:D *784:8 1.70993e-05
29 *718:19 *2391:C 2.75145e-05
30 *722:26 *2391:C 4.82919e-05
31 *722:26 *3240:A 0.000134516
32 *722:26 *784:8 7.67415e-06
33 *783:26 *784:14 4.9968e-05
*RES
1 *3088:Q *784:8 7.845 
2 *784:8 *784:14 4.34 
3 *784:14 *2392:C 4.24 
4 *784:14 *2677:A2 1.6 
5 *784:8 *784:32 0.87 
6 *784:32 *2391:C 8.205 
7 *784:32 *3240:A 5.49 
*END

*D_NET *785 0.00154869
*CONN
*I *3237:A I *D sky130_fd_sc_hd__dlygate4sd3_1
*I *2677:A3 I *D sky130_fd_sc_hd__o31a_1
*I *2392:D I *D sky130_fd_sc_hd__nor4_1
*I *3089:Q O *D sky130_fd_sc_hd__dfrtp_1
*CAP
1 *3237:A 0
2 *2677:A3 4.26761e-05
3 *2392:D 0
4 *3089:Q 0.000131283
5 *785:14 0.000244065
6 *785:6 0.000332672
7 *2677:A3 *3104:A 8.5917e-05
8 *785:14 *3104:A 0.000159741
9 *2392:A *785:14 0.000315139
10 *3088:D *785:14 6.23375e-05
11 *3147:A *785:14 0
12 *483:8 *2677:A3 0.000124895
13 *483:8 *785:14 4.99619e-05
*RES
1 *3089:Q *785:6 3.43 
2 *785:6 *785:14 9.16 
3 *785:14 *2392:D 1.6 
4 *785:14 *2677:A3 3.1 
5 *785:6 *3237:A 1.6 
*END

*D_NET *786 0.00597699
*CONN
*I *2708:A I *D sky130_fd_sc_hd__nand2_1
*I *2667:A I *D sky130_fd_sc_hd__or2_1
*I *2693:D_N I *D sky130_fd_sc_hd__or4b_1
*I *2670:A I *D sky130_fd_sc_hd__or4_1
*I *2668:A I *D sky130_fd_sc_hd__or3_1
*I *2706:A0 I *D sky130_fd_sc_hd__mux2_1
*I *2704:B2 I *D sky130_fd_sc_hd__o2bb2a_1
*I *2787:Q O *D sky130_fd_sc_hd__dfrtp_1
*CAP
1 *2708:A 4.18305e-05
2 *2667:A 0.000168591
3 *2693:D_N 0.00024339
4 *2670:A 0
5 *2668:A 0
6 *2706:A0 0
7 *2704:B2 0.00020983
8 *2787:Q 0
9 *786:47 0.000430323
10 *786:41 0.000355523
11 *786:39 6.41542e-05
12 *786:32 8.56088e-05
13 *786:10 0.000401135
14 *786:4 0.00025459
15 *2667:A *2667:B 4.82863e-05
16 *2667:A *2718:A1 4.91927e-05
17 *2667:A *787:34 5.98004e-06
18 *2667:A *787:36 1.22762e-05
19 *2693:D_N *2668:C 7.57202e-05
20 *2693:D_N *2693:B 1.83847e-05
21 *2693:D_N *3238:A 0.000123225
22 *2693:D_N *788:42 0.00023468
23 *2693:D_N *956:70 0.000183551
24 *2704:B2 *2704:A1_N 6.20259e-05
25 *2704:B2 *2704:A2_N 4.82919e-05
26 *2704:B2 *2745:A1 3.02252e-05
27 *2704:B2 *883:6 3.45679e-05
28 *2704:B2 *883:10 8.75658e-05
29 *2704:B2 *883:32 6.28765e-05
30 *2704:B2 *1012:16 0.000116158
31 *786:10 *2705:A1 0.000120562
32 *786:10 *3364:A 8.71001e-05
33 *786:10 *883:32 2.23407e-05
34 *786:10 *1012:16 0.000203769
35 *786:32 *2668:C 0.000193806
36 *786:39 *2668:C 4.99619e-05
37 *786:47 *2668:C 0.000122331
38 *786:47 *2718:A1 1.44259e-05
39 *786:47 *2718:A2 4.01548e-05
40 *786:47 *3238:A 0.000120655
41 *786:47 *787:36 7.21296e-06
42 *2705:B1 *2704:B2 0.000235573
43 *2709:A2 *2667:A 9.56322e-05
44 *2711:S *2693:D_N 1.07797e-05
45 *2787:CLK *2708:A 3.57349e-05
46 *2787:CLK *786:10 0.000302562
47 *2787:CLK *786:32 0.000218666
48 *2787:CLK *786:39 7.49327e-05
49 *2789:CLK *2708:A 1.48813e-05
50 *3358:A *2704:B2 2.75145e-05
51 *674:18 *786:47 0.00012997
52 *701:60 *2693:D_N 0.000101317
53 *772:85 *786:47 0.000152498
54 *772:96 *786:47 0.000146623
*RES
1 *2787:Q *786:4 1.6 
2 *786:4 *786:10 7.955 
3 *786:10 *2704:B2 9.585 
4 *786:10 *2706:A0 3.6 
5 *786:4 *786:32 2.175 
6 *786:32 *2668:A 1.6 
7 *786:32 *786:39 0.795 
8 *786:39 *786:41 2 
9 *786:41 *786:47 7.07 
10 *786:47 *2670:A 1.6 
11 *786:47 *2693:D_N 12.005 
12 *786:41 *2667:A 6.735 
13 *786:39 *2708:A 2.4025 
*END

*D_NET *787 0.00444298
*CONN
*I *2708:B I *D sky130_fd_sc_hd__nand2_1
*I *2668:B I *D sky130_fd_sc_hd__or3_1
*I *2693:A I *D sky130_fd_sc_hd__or4b_1
*I *2670:B I *D sky130_fd_sc_hd__or4_1
*I *2667:B I *D sky130_fd_sc_hd__or2_1
*I *2711:A0 I *D sky130_fd_sc_hd__mux2_1
*I *2788:Q O *D sky130_fd_sc_hd__dfrtp_1
*CAP
1 *2708:B 0
2 *2668:B 0.000114142
3 *2693:A 0.000187137
4 *2670:B 0
5 *2667:B 7.64897e-05
6 *2711:A0 0
7 *2788:Q 0.00034075
8 *787:38 0.000357731
9 *787:36 0.000316455
10 *787:34 6.90982e-05
11 *787:23 0.000278919
12 *787:14 0.0005058
13 *2693:A *2693:C 0.00012617
14 *2693:A *789:8 3.05373e-05
15 *2693:A *789:38 3.50033e-05
16 *787:14 *2719:A0 0.000158965
17 *787:14 *997:20 0.000268005
18 *787:34 *1047:111 1.01152e-05
19 *787:38 *789:38 2.97204e-05
20 *787:38 *1047:111 6.33533e-05
21 *2667:A *2667:B 4.82863e-05
22 *2667:A *787:34 5.98004e-06
23 *2667:A *787:36 1.22762e-05
24 *2694:C *2693:A 3.78664e-05
25 *2709:A2 *2667:B 0.000124895
26 *2709:A2 *787:34 0.000117548
27 *2711:S *787:14 0.000147297
28 *2718:C1 *787:14 0.000195682
29 *2787:CLK *2668:B 8.40213e-05
30 *2788:D *787:23 4.66108e-05
31 *2788:D *787:34 0.000120186
32 *2788:D *787:36 7.47215e-05
33 *2788:D *787:38 0.000112892
34 *2789:CLK *2668:B 7.40446e-05
35 *674:18 *2693:A 5.39961e-05
36 *772:85 *2693:A 1.86688e-05
37 *772:85 *787:38 0.000110044
38 *772:96 *787:36 1.07797e-05
39 *772:96 *787:38 7.15815e-05
40 *786:47 *787:36 7.21296e-06
*RES
1 *2788:Q *787:14 12.77 
2 *787:14 *2711:A0 1.6 
3 *787:14 *787:23 2.535 
4 *787:23 *2667:B 3.085 
5 *787:23 *787:34 3.635 
6 *787:34 *787:36 0.87 
7 *787:36 *787:38 4.185 
8 *787:38 *2670:B 3.6 
9 *787:38 *2693:A 7.62 
10 *787:36 *2668:B 5.085 
11 *787:34 *2708:B 3.6 
*END

*D_NET *788 0.00552379
*CONN
*I *3239:A I *D sky130_fd_sc_hd__dlygate4sd3_1
*I *2670:C I *D sky130_fd_sc_hd__or4_1
*I *2668:C I *D sky130_fd_sc_hd__or3_1
*I *2716:A I *D sky130_fd_sc_hd__nand2_1
*I *2693:B I *D sky130_fd_sc_hd__or4b_1
*I *2789:Q O *D sky130_fd_sc_hd__dfrtp_1
*CAP
1 *3239:A 6.16808e-05
2 *2670:C 0
3 *2668:C 0.00037801
4 *2716:A 0
5 *2693:B 0.000241758
6 *2789:Q 3.49915e-05
7 *788:42 0.000619247
8 *788:16 0.000773356
9 *788:8 0.000387034
10 *2668:C *3238:A 2.30292e-05
11 *2668:C *868:20 0.000380635
12 *2668:C *1047:111 0.000112716
13 *2693:B *956:70 1.78574e-05
14 *2693:B *997:20 7.63204e-05
15 *3239:A *882:19 6.55328e-05
16 *788:8 *3090:RESET_B 4.82919e-05
17 *788:16 *882:19 7.74312e-05
18 *788:16 *882:25 2.19277e-05
19 *788:16 *891:110 3.09233e-05
20 *788:16 *891:127 0.000107341
21 *2693:D_N *2668:C 7.57202e-05
22 *2693:D_N *2693:B 1.83847e-05
23 *2693:D_N *788:42 0.00023468
24 *2710:B1 *3239:A 0
25 *2710:B1 *788:16 9.28909e-05
26 *2716:B *2668:C 0.000460679
27 *2716:B *788:42 0.000321508
28 *2717:A1 *2693:B 0
29 *2717:A1 *788:16 0.000115742
30 *2717:A2 *788:16 9.2908e-05
31 *2717:A2 *788:42 1.14169e-05
32 *2718:B2 *2668:C 0.000157595
33 *2723:A2 *2668:C 0.000118081
34 *786:32 *2668:C 0.000193806
35 *786:39 *2668:C 4.99619e-05
36 *786:47 *2668:C 0.000122331
*RES
1 *2789:Q *788:8 4.05 
2 *788:8 *788:16 8.975 
3 *788:16 *2693:B 9.065 
4 *788:16 *2716:A 1.6 
5 *788:16 *788:42 5.67 
6 *788:42 *2668:C 16.46 
7 *788:42 *2670:C 1.6 
8 *788:8 *3239:A 4.98 
*END

*D_NET *789 0.00205228
*CONN
*I *2670:D I *D sky130_fd_sc_hd__or4_1
*I *3238:A I *D sky130_fd_sc_hd__dlygate4sd3_1
*I *2693:C I *D sky130_fd_sc_hd__or4b_1
*I *2669:A I *D sky130_fd_sc_hd__nor2_1
*I *2790:Q O *D sky130_fd_sc_hd__dfrtp_1
*CAP
1 *2670:D 0
2 *3238:A 8.87402e-05
3 *2693:C 8.05854e-05
4 *2669:A 0.000132814
5 *2790:Q 0
6 *789:38 0.000164732
7 *789:8 0.000237662
8 *789:6 0.000100255
9 *2669:A *956:70 1.94805e-05
10 *2693:C *956:70 4.82919e-05
11 *3238:A *1047:111 0.000233786
12 *789:8 *956:70 2.96553e-05
13 *789:38 *956:70 5.85071e-05
14 *2668:C *3238:A 2.30292e-05
15 *2693:A *2693:C 0.00012617
16 *2693:A *789:8 3.05373e-05
17 *2693:A *789:38 3.50033e-05
18 *2693:D_N *3238:A 0.000123225
19 *2694:C *2693:C 5.78262e-05
20 *2720:A1 *2669:A 8.8266e-05
21 *674:18 *2669:A 6.05917e-05
22 *674:18 *789:8 5.98004e-06
23 *674:30 *2669:A 3.18641e-05
24 *701:60 *2669:A 0
25 *772:43 *2669:A 0.0001249
26 *786:47 *3238:A 0.000120655
27 *787:38 *789:38 2.97204e-05
*RES
1 *2790:Q *789:6 3.6 
2 *789:6 *789:8 0.87 
3 *789:8 *2669:A 6.63 
4 *789:8 *2693:C 5.91 
5 *789:6 *789:38 3.89 
6 *789:38 *3238:A 4.48 
7 *789:38 *2670:D 1.6 
*END

*D_NET *790 0.00481506
*CONN
*I *2643:A1 I *D sky130_fd_sc_hd__mux2_1
*I *3242:X O *D sky130_fd_sc_hd__clkbuf_1
*CAP
1 *2643:A1 0.000962681
2 *3242:X 0.000962681
3 *2643:A1 *2645:A1 3.00381e-05
4 *2643:A1 *2646:A0 0.000318091
5 *2643:A1 *2650:A0 0.000279787
6 *2643:A1 *2650:A1 7.00889e-06
7 *2643:A1 *2653:A0 3.00381e-05
8 *2643:A1 *2654:A1 0.000161204
9 *2643:A1 *2657:A0 0.000394699
10 *2643:A1 *3353:A 0.000883212
11 rdata[12] *2643:A1 3.45679e-05
12 *3247:A *2643:A1 0.000163204
13 *3253:A *2643:A1 4.82919e-05
14 *3264:A *2643:A1 4.82919e-05
15 *3282:A *2643:A1 0.0001249
16 *3283:A *2643:A1 4.82919e-05
17 *3287:A *2643:A1 4.82919e-05
18 *3290:A *2643:A1 4.82919e-05
19 *3291:A *2643:A1 4.82919e-05
20 *3295:A *2643:A1 4.82919e-05
21 *3303:A *2643:A1 0.0001249
*RES
1 *3242:X *2643:A1 30.575 
*END

*D_NET *791 0.00840443
*CONN
*I *2646:A1 I *D sky130_fd_sc_hd__mux2_1
*I *3243:X O *D sky130_fd_sc_hd__buf_1
*CAP
1 *2646:A1 0.000233506
2 *3243:X 0.00283685
3 *791:18 0.00307036
4 *2646:A1 *2475:A2 0
5 *2646:A1 *2646:A0 0
6 *2646:A1 *2650:A0 0
7 *2646:A1 *884:44 9.57611e-05
8 *791:18 *2651:A1 0.000872633
9 *791:18 *2802:GATE_N 5.05437e-05
10 *791:18 *3309:A 4.99619e-05
11 *791:18 *3352:A 6.61178e-05
12 rdata[15] *791:18 8.65961e-05
13 rdata[2] *791:18 8.65961e-05
14 rdata[6] *791:18 0.0001249
15 rdata[7] *791:18 8.65961e-05
16 rdata[8] *791:18 0.0001249
17 rdata[9] *791:18 8.65961e-05
18 *2476:C1 *2646:A1 7.23602e-05
19 *3247:A *2646:A1 0
20 *3248:A *791:18 0.000124895
21 *3288:A *791:18 0.000160641
22 *3294:A *791:18 5.02217e-05
23 *3295:A *2646:A1 6.28765e-05
24 *376:10 *2646:A1 6.15223e-05
*RES
1 *3243:X *791:18 49.315 
2 *791:18 *2646:A1 8.55 
*END

*D_NET *792 0.000732997
*CONN
*I *3309:A I *D sky130_fd_sc_hd__buf_2
*I *2793:Q O *D sky130_fd_sc_hd__dlxtn_1
*CAP
1 *3309:A 0.000242347
2 *2793:Q 0.000242347
3 *3309:A *2651:A1 4.82919e-05
4 *3309:A *3356:A 0
5 *3309:A *884:20 8.23431e-05
6 *521:18 *3309:A 6.77062e-05
7 *791:18 *3309:A 4.99619e-05
*RES
1 *2793:Q *3309:A 11.115 
*END

*D_NET *793 0.00275116
*CONN
*I *3310:A I *D sky130_fd_sc_hd__buf_2
*I *2794:Q O *D sky130_fd_sc_hd__dlxtn_1
*CAP
1 *3310:A 0.000803466
2 *2794:Q 0.000803466
3 *3310:A *3330:A 5.20968e-05
4 *3310:A *3331:A 0.000139238
5 *3310:A *3337:A 5.92269e-05
6 *3310:A *3344:A 7.61207e-05
7 *3310:A *3350:A 9.20926e-05
8 *3310:A *3351:A 0
9 *3310:A *3355:A 0
10 *3310:A *987:10 0.000174095
11 PWDATA[10] *3310:A 0
12 PWDATA[11] *3310:A 2.05571e-05
13 rdata[11] *3310:A 1.83756e-05
14 rdata[14] *3310:A 0.000332536
15 rdata[3] *3310:A 3.00381e-05
16 *3268:A *3310:A 3.85835e-05
17 *3297:A *3310:A 0.000111274
*RES
1 *2794:Q *3310:A 24.99 
*END

*D_NET *794 0.00654905
*CONN
*I *3311:A I *D sky130_fd_sc_hd__buf_2
*I *2795:Q O *D sky130_fd_sc_hd__dlxtn_1
*CAP
1 *3311:A 0.00162484
2 *2795:Q 0.00162484
3 *3311:A *2660:A1 1.8884e-05
4 *3311:A *2661:A1 1.4389e-05
5 *3311:A *2662:A0 0.000290488
6 *3311:A *2662:A1 0
7 *3311:A *2663:A0 0.000929522
8 *3311:A *3321:A 0.000265654
9 PADDR[0] *3311:A 0.000147016
10 PENABLE *3311:A 0.000129704
11 PSEL1 *3311:A 4.66108e-05
12 PSEL3 *3311:A 0.000312476
13 PWRITE *3311:A 6.63219e-06
14 rdata[4] *3311:A 3.00381e-05
15 *2433:A *3311:A 0.00011669
16 *2434:A1 *3311:A 0
17 *2434:A2 *3311:A 2.24336e-05
18 *2437:A *3311:A 0
19 *3252:A *3311:A 0.000122565
20 *3255:A *3311:A 0.00030413
21 *3256:A *3311:A 5.4003e-05
22 *3265:A *3311:A 5.08304e-06
23 *3266:A *3311:A 0.000175583
24 *3269:A *3311:A 0.000307465
*RES
1 *2795:Q *3311:A 48.39 
*END

*D_NET *795 0.00726473
*CONN
*I *3312:A I *D sky130_fd_sc_hd__buf_2
*I *2796:Q O *D sky130_fd_sc_hd__dlxtn_1
*CAP
1 *3312:A 0.00311214
2 *2796:Q 0.00311214
3 *3312:A *3348:A 0.000126199
4 *3312:A *3354:A 0
5 *3312:A *889:56 2.08086e-05
6 *3312:A *968:14 0.000159681
7 *3312:A *968:24 4.47094e-05
8 *2749:A4 *3312:A 0.000258182
9 *3278:A *3312:A 0.00043088
10 *509:8 *3312:A 0
*RES
1 *2796:Q *3312:A 16.9212 
*END

*D_NET *796 0.000765288
*CONN
*I *3313:A I *D sky130_fd_sc_hd__buf_2
*I *2797:Q O *D sky130_fd_sc_hd__dlxtn_1
*CAP
1 *3313:A 0.00026349
2 *2797:Q 0.00026349
3 *3313:A *2649:A0 3.32976e-05
4 *3313:A *3314:A 0
5 *3313:A *3315:A 0
6 *3313:A *880:38 1.01276e-05
7 *3313:A *880:54 8.49205e-05
8 *3313:A *880:62 0
9 *2798:D *3313:A 0.000109962
10 *3248:A *3313:A 0
*RES
1 *2797:Q *3313:A 11.67 
*END

*D_NET *797 0.000390221
*CONN
*I *3314:A I *D sky130_fd_sc_hd__buf_2
*I *2798:Q O *D sky130_fd_sc_hd__dlxtn_1
*CAP
1 *3314:A 0.000102362
2 *2798:Q 0.000102362
3 *3314:A *2802:GATE_N 0.000118513
4 *3314:A *880:62 4.82863e-05
5 rdata[3] *3314:A 1.01661e-05
6 *3248:A *3314:A 8.53113e-06
7 *3313:A *3314:A 0
*RES
1 *2798:Q *3314:A 9.285 
*END

*D_NET *798 0.00140948
*CONN
*I *3315:A I *D sky130_fd_sc_hd__buf_2
*I *2799:Q O *D sky130_fd_sc_hd__dlxtn_1
*CAP
1 *3315:A 0.000442801
2 *2799:Q 0.000442801
3 *3315:A *2649:A0 0
4 *3315:A *2658:A0 0.000410267
5 *3315:A *880:38 0
6 *3315:A *888:86 3.96653e-05
7 *2474:C1 *3315:A 4.99619e-05
8 *2642:B *3315:A 2.39856e-05
9 *3313:A *3315:A 0
*RES
1 *2799:Q *3315:A 14.745 
*END

*D_NET *799 0.000745367
*CONN
*I *3316:A I *D sky130_fd_sc_hd__buf_2
*I *2800:Q O *D sky130_fd_sc_hd__dlxtn_1
*CAP
1 *3316:A 0.00032512
2 *2800:Q 0.00032512
3 *3316:A *3356:A 0
4 *3316:A *874:20 8.53113e-06
5 *3316:A *880:23 8.65961e-05
6 *3157:A *3316:A 0
*RES
1 *2800:Q *3316:A 11.67 
*END

*D_NET *800 0.000980018
*CONN
*I *3317:A I *D sky130_fd_sc_hd__buf_2
*I *2443:X O *D sky130_fd_sc_hd__and2_1
*CAP
1 *3317:A 0.000232926
2 *2443:X 0.000232926
3 *3317:A *3347:A 0.000116544
4 *3317:A *957:18 0.000309341
5 *3317:A *957:31 4.82919e-05
6 *2736:C1 *3317:A 3.99879e-05
*RES
1 *2443:X *3317:A 12.36 
*END

*D_NET *801 0.00980293
*CONN
*I *2761:B2 I *D sky130_fd_sc_hd__a32o_1
*I *2443:B I *D sky130_fd_sc_hd__and2_1
*I *3318:A I *D sky130_fd_sc_hd__buf_2
*I *3098:A I *D sky130_fd_sc_hd__clkbuf_1
*I *2724:B I *D sky130_fd_sc_hd__nor2_4
*I *2442:Y O *D sky130_fd_sc_hd__inv_12
*CAP
1 *2761:B2 0.00032549
2 *2443:B 0.000314222
3 *3318:A 0.000153679
4 *3098:A 0.00123507
5 *2724:B 0
6 *2442:Y 0
7 *801:31 0.00180228
8 *801:25 0.000995044
9 *801:14 0.000725197
10 *801:4 0.0007834
11 *2443:B *2731:A1 1.79536e-05
12 *2761:B2 *931:34 2.76356e-05
13 *3098:A *2644:A0 8.57024e-05
14 *3318:A *2379:A 0.000136877
15 *3318:A *2725:B 7.23602e-05
16 *3318:A *3234:A 0.000178314
17 *3318:A *3320:A 0
18 *3318:A *804:14 0
19 *801:14 *2678:A 4.35432e-05
20 *801:14 *804:10 8.01465e-05
21 *801:14 *885:115 1.79483e-05
22 *801:25 *804:14 0
23 *801:31 *2725:B 4.01535e-05
24 *801:31 *3086:RESET_B 0
25 *801:31 *955:10 0
26 *2391:A *801:25 0
27 *2443:A *801:14 0
28 *2710:B2 *2443:B 2.55692e-05
29 *2733:A1 *801:14 3.09233e-05
30 *2733:A1 *801:25 0.000474775
31 *2736:A1 *801:25 6.7888e-05
32 *2736:C1 *2443:B 2.75145e-05
33 *2743:A2 *801:25 7.25036e-05
34 *2761:A3 *2761:B2 0.000157156
35 *2761:A3 *801:14 0.000111284
36 *2761:B1 *2761:B2 4.2709e-05
37 *2764:B *2761:B2 2.75229e-05
38 *2764:B *801:14 0.000177182
39 *2764:D *801:14 0
40 *3087:CLK *3098:A 0.000127485
41 *3087:D *3098:A 0.000282305
42 *3280:A *3318:A 0
43 *383:10 *3098:A 3.83895e-05
44 *475:38 *2761:B2 6.85735e-05
45 *510:38 *2761:B2 0.000301011
46 *510:38 *801:14 8.09021e-06
47 *672:84 *2761:B2 0.000133268
48 *719:8 *801:25 5.05716e-06
49 *719:10 *801:25 6.80247e-05
50 *751:16 *801:14 0.000520682
51 *783:37 *801:14 0
*RES
1 *2442:Y *801:4 1.6 
2 *801:4 *801:14 13.745 
3 *801:14 *2724:B 3.6 
4 *801:14 *801:25 7.1075 
5 *801:25 *801:31 1.66643 
6 *801:31 *3098:A 22.125 
7 *801:31 *3318:A 7.275 
8 *801:25 *2443:B 5.22837 
9 *801:4 *2761:B2 12.665 
*END

*D_NET *802 0.00299854
*CONN
*I *2647:A1 I *D sky130_fd_sc_hd__mux2_1
*I *3244:X O *D sky130_fd_sc_hd__clkbuf_1
*CAP
1 *2647:A1 0.000908584
2 *3244:X 0.000908584
3 *2647:A1 *2647:S 4.99619e-05
4 *2647:A1 *2656:A1 0.000935414
5 *2647:A1 *992:16 0.000142925
6 *3279:A *2647:A1 5.30673e-05
*RES
1 *3244:X *2647:A1 24.48 
*END

*D_NET *803 0.000709501
*CONN
*I *3319:A I *D sky130_fd_sc_hd__buf_2
*I *3098:X O *D sky130_fd_sc_hd__clkbuf_1
*CAP
1 *3319:A 0.000228941
2 *3098:X 0.000228941
3 *3319:A *2656:A1 0.000124895
4 *74:9 *3319:A 0.000126725
*RES
1 *3098:X *3319:A 12.015 
*END

*D_NET *804 0.00595956
*CONN
*I *2724:A I *D sky130_fd_sc_hd__nor2_4
*I *3320:A I *D sky130_fd_sc_hd__buf_2
*I *2725:A I *D sky130_fd_sc_hd__or2_1
*I *2384:Y O *D sky130_fd_sc_hd__inv_2
*CAP
1 *2724:A 0
2 *3320:A 0.000680671
3 *2725:A 0
4 *2384:Y 0.000465442
5 *804:14 0.00107799
6 *804:10 0.000862756
7 *3320:A *2379:A 0
8 *3320:A *2656:A0 0
9 *3320:A *2656:A1 0.000124895
10 *3320:A *3235:A 0.000136276
11 *3320:A *998:10 0.000543529
12 *804:10 *3104:A 0.000159747
13 *804:10 *931:10 1.4389e-05
14 *804:14 *2725:B 0
15 *2391:A *804:14 0.000179981
16 *2443:A *804:10 1.56428e-05
17 *2737:A2 *804:14 8.12462e-06
18 *2737:B2 *804:14 5.92191e-05
19 *2743:A2 *804:14 1.07797e-05
20 *2764:A *804:10 7.21296e-06
21 *3088:D *804:14 9.37731e-05
22 *3099:A *804:10 0.000595492
23 *3240:A *804:14 7.21296e-06
24 *3292:A *3320:A 3.09164e-05
25 *3307:A *804:10 4.66108e-05
26 *3318:A *3320:A 0
27 *3318:A *804:14 0
28 *672:70 *804:10 4.41506e-05
29 *680:10 *804:10 0.000268973
30 *719:8 *804:14 5.42825e-05
31 *719:10 *804:14 9.17716e-05
32 *722:26 *804:14 6.9117e-05
33 *722:42 *804:14 8.6099e-05
34 *782:36 *804:14 0.000132096
35 *784:14 *804:10 0
36 *784:32 *804:10 0
37 *784:32 *804:14 1.22676e-05
38 *801:14 *804:10 8.01465e-05
39 *801:25 *804:14 0
*RES
1 *2384:Y *804:10 14.94 
2 *804:10 *804:14 8.805 
3 *804:14 *2725:A 3.6 
4 *804:14 *3320:A 16.605 
5 *804:10 *2724:A 3.6 
*END

*D_NET *805 0.0257203
*CONN
*I *3072:GATE_N I *D sky130_fd_sc_hd__dlxtn_1
*I *3079:GATE_N I *D sky130_fd_sc_hd__dlxtn_1
*I *3082:GATE_N I *D sky130_fd_sc_hd__dlxtn_1
*I *3073:GATE_N I *D sky130_fd_sc_hd__dlxtn_1
*I *3078:GATE_N I *D sky130_fd_sc_hd__dlxtn_1
*I *3080:GATE_N I *D sky130_fd_sc_hd__dlxtn_1
*I *3081:GATE_N I *D sky130_fd_sc_hd__dlxtn_1
*I *3070:GATE_N I *D sky130_fd_sc_hd__dlxtn_1
*I *3077:GATE_N I *D sky130_fd_sc_hd__dlxtn_1
*I *3071:GATE_N I *D sky130_fd_sc_hd__dlxtn_1
*I *3106:X O *D sky130_fd_sc_hd__buf_2
*CAP
1 *3072:GATE_N 3.48587e-05
2 *3079:GATE_N 0.00030282
3 *3082:GATE_N 3.55506e-05
4 *3073:GATE_N 0
5 *3078:GATE_N 0.00023613
6 *3080:GATE_N 2.21004e-05
7 *3081:GATE_N 0
8 *3070:GATE_N 0.000697906
9 *3077:GATE_N 0
10 *3071:GATE_N 0.00104077
11 *3106:X 0
12 *805:148 0.00141536
13 *805:127 0.00144983
14 *805:78 0.00105013
15 *805:72 0.000616774
16 *805:42 0.00135127
17 *805:34 0.00126283
18 *805:18 0.00126364
19 *805:12 0.000776696
20 *805:4 0.000795656
21 *3070:GATE_N *2555:A2 0.000685481
22 *3070:GATE_N *2555:B1 3.96263e-05
23 *3070:GATE_N *2556:A2 3.82728e-05
24 *3070:GATE_N *2556:B1 6.5313e-05
25 *3070:GATE_N *2645:A0 0.000139245
26 *3070:GATE_N *2910:GATE_N 0
27 *3070:GATE_N *3081:D 9.3062e-06
28 *3070:GATE_N *811:60 0
29 *3070:GATE_N *873:50 0.000142211
30 *3070:GATE_N *877:38 0.000349592
31 *3070:GATE_N *906:26 0
32 *3071:GATE_N *2623:C1 0.000368195
33 *3071:GATE_N *2972:D 0
34 *3071:GATE_N *3007:D 3.95167e-05
35 *3071:GATE_N *3007:GATE_N 1.49911e-05
36 *3071:GATE_N *847:25 0
37 *3071:GATE_N *847:36 0
38 *3071:GATE_N *847:51 0.000202995
39 *3071:GATE_N *847:88 9.82856e-06
40 *3071:GATE_N *862:25 0.000111901
41 *3071:GATE_N *906:20 0.00122557
42 *3071:GATE_N *906:22 0.000653191
43 *3071:GATE_N *908:12 0.000118513
44 *3072:GATE_N *3063:GATE_N 6.97202e-05
45 *3078:GATE_N *807:22 0.000164359
46 *3079:GATE_N *2473:B1 4.82863e-05
47 *3079:GATE_N *2800:GATE_N 6.25794e-06
48 *3079:GATE_N *3031:GATE_N 0
49 *3079:GATE_N *838:105 0
50 *3079:GATE_N *874:20 1.37639e-05
51 *805:12 *2486:B1 0.000135533
52 *805:12 *3050:GATE_N 0.000149765
53 *805:12 *809:20 0.000155491
54 *805:12 *872:12 4.82919e-05
55 *805:12 *916:95 0.000439452
56 *805:18 *807:22 4.40725e-05
57 *805:18 *871:10 0.000213451
58 *805:18 *871:118 2.67275e-05
59 *805:34 *2531:B1 0.000149007
60 *805:34 *811:97 3.57349e-05
61 *805:34 *892:39 4.45301e-05
62 *805:34 *916:15 0.000108761
63 *805:42 *2489:B1 0.000157316
64 *805:42 *3034:GATE_N 8.49205e-05
65 *805:42 *811:97 4.66108e-05
66 *805:42 *921:26 0.000158976
67 *805:42 *923:26 0.000122331
68 *805:72 *2917:GATE_N 0.000401281
69 *805:72 *3029:D 1.07797e-05
70 *805:72 *811:97 0.000571175
71 *805:78 *2490:A2 0
72 *805:78 *3081:D 4.18603e-06
73 *805:78 *811:54 0
74 *805:78 *811:60 0
75 *805:78 *811:97 0
76 *805:78 *906:26 0
77 *805:127 *3050:GATE_N 8.65905e-05
78 *805:127 *3082:D 7.89269e-05
79 *805:127 *811:143 1.01152e-05
80 *805:127 *822:49 3.53512e-05
81 *805:127 *851:20 4.43682e-05
82 *805:148 *2550:A2 0.00039528
83 *805:148 *2562:A2 0.000608349
84 *805:148 *2842:D 0
85 *805:148 *3082:D 4.24744e-05
86 *805:148 *822:117 0.000226203
87 *805:148 *827:52 9.37731e-05
88 *805:148 *827:62 0.000270415
89 *805:148 *838:105 0
90 *805:148 *892:105 2.84703e-05
91 *805:148 *892:121 0
92 *805:148 *898:118 0.000393677
93 *805:148 *932:49 0
94 *2469:C1 *3071:GATE_N 0.000151353
95 *2484:B2 *805:12 4.77013e-05
96 *2485:C1 *805:12 8.40269e-05
97 *2490:A1 *805:78 0
98 *2491:B1 *805:78 3.32667e-05
99 *2492:A *805:72 1.4389e-05
100 *2492:A *805:78 5.73739e-05
101 *2492:B *805:72 0
102 *2492:C *805:78 8.65961e-05
103 *2493:B2 *805:72 3.83041e-05
104 *2493:B2 *805:78 4.99619e-05
105 *2530:A1 *805:34 4.82919e-05
106 *2531:B2 *805:34 5.16274e-05
107 *2536:A *805:34 4.82863e-05
108 *2536:A *805:42 0.000108357
109 *2555:B2 *3070:GATE_N 7.00054e-05
110 *2555:C1 *3070:GATE_N 0
111 *2556:A1 *3070:GATE_N 0.000132548
112 *2557:A1 *3070:GATE_N 6.83447e-05
113 *2557:B1 *3070:GATE_N 0
114 *2559:B2 *3079:GATE_N 0.000168494
115 *2560:B *3072:GATE_N 6.97202e-05
116 *2560:B *3079:GATE_N 0.000105266
117 *2573:C1 *805:148 0.000293025
118 *2584:C1 *805:148 3.25997e-05
119 *2586:A1 *3078:GATE_N 5.8842e-05
120 *2591:A *3071:GATE_N 0
121 *2609:B2 *3071:GATE_N 7.63204e-05
122 *2636:B *3079:GATE_N 0.000180301
123 *3157:A *3079:GATE_N 0.000151165
124 *3157:A *805:148 0.000130106
125 *3166:A *805:18 4.80285e-05
126 *3192:A *3071:GATE_N 0
127 *3202:A *3078:GATE_N 0.000352937
128 *3204:A *3078:GATE_N 9.58678e-06
129 *381:18 *3078:GATE_N 7.38214e-05
130 *381:18 *805:18 4.19967e-05
131 *590:24 *805:18 0.00044693
132 *590:24 *805:127 9.98747e-05
*RES
1 *3106:X *805:4 1.6 
2 *805:4 *805:12 13.33 
3 *805:12 *805:18 10.73 
4 *805:18 *805:34 13.235 
5 *805:34 *805:42 10.48 
6 *805:42 *3071:GATE_N 32.315 
7 *805:42 *3077:GATE_N 1.6 
8 *805:34 *805:72 11.44 
9 *805:72 *805:78 8.45 
10 *805:78 *3070:GATE_N 20.94 
11 *805:78 *3081:GATE_N 3.6 
12 *805:72 *3080:GATE_N 1.96 
13 *805:18 *3078:GATE_N 10.335 
14 *805:12 *3073:GATE_N 1.6 
15 *805:4 *805:127 9.13 
16 *805:127 *3082:GATE_N 2.215 
17 *805:127 *805:148 30.09 
18 *805:148 *3079:GATE_N 10.575 
19 *805:148 *3072:GATE_N 4.74 
*END

*D_NET *806 0.0203775
*CONN
*I *3075:GATE_N I *D sky130_fd_sc_hd__dlxtn_1
*I *3085:GATE_N I *D sky130_fd_sc_hd__dlxtn_1
*I *3076:GATE_N I *D sky130_fd_sc_hd__dlxtn_1
*I *3084:GATE_N I *D sky130_fd_sc_hd__dlxtn_1
*I *3074:GATE_N I *D sky130_fd_sc_hd__dlxtn_1
*I *3083:GATE_N I *D sky130_fd_sc_hd__dlxtn_1
*I *3107:X O *D sky130_fd_sc_hd__clkbuf_2
*CAP
1 *3075:GATE_N 0.000479802
2 *3085:GATE_N 0
3 *3076:GATE_N 0.000542489
4 *3084:GATE_N 0.000212533
5 *3074:GATE_N 4.41926e-05
6 *3083:GATE_N 0.00156558
7 *3107:X 9.04691e-06
8 *806:50 0.000946486
9 *806:48 0.000635397
10 *806:14 0.00195972
11 *806:12 0.000957797
12 *806:10 0.000652764
13 *3074:GATE_N *2496:A2 5.75434e-05
14 *3075:GATE_N *2648:A0 0
15 *3075:GATE_N *808:54 1.03115e-05
16 *3075:GATE_N *838:18 5.79179e-05
17 *3075:GATE_N *867:10 5.89912e-05
18 *3076:GATE_N *2507:A2 0
19 *3076:GATE_N *2606:B1 0.00015788
20 *3076:GATE_N *3044:GATE_N 0.000139231
21 *3083:GATE_N *2598:A2 4.66108e-05
22 *3083:GATE_N *2599:A2 2.68721e-05
23 *3083:GATE_N *2911:GATE_N 0.000174652
24 *3083:GATE_N *3083:D 4.66108e-05
25 *3083:GATE_N *840:29 0.00255475
26 *3083:GATE_N *849:87 0.000660723
27 *3083:GATE_N *893:12 0.000219046
28 *3083:GATE_N *893:37 0.00107029
29 *3083:GATE_N *905:10 3.38178e-05
30 *3083:GATE_N *909:26 6.47951e-05
31 *3083:GATE_N *929:83 0.000494502
32 *3084:GATE_N *2605:A2 0.000336626
33 *3084:GATE_N *2614:A2 0
34 *3084:GATE_N *811:26 0
35 *3084:GATE_N *830:71 8.7152e-06
36 *3084:GATE_N *830:90 0.000308028
37 *806:10 *808:20 1.88602e-05
38 *806:10 *917:73 6.15576e-06
39 *806:12 *2405:B 0.000382631
40 *806:12 *808:54 3.90388e-05
41 *806:14 *2405:B 0.000322163
42 *806:14 *808:54 1.05998e-05
43 *806:14 *840:29 0.000462087
44 *806:14 *893:59 2.35067e-05
45 *806:48 *2409:B 5.07545e-05
46 *806:48 *893:63 1.94811e-05
47 *806:48 *893:97 0.000218693
48 *806:48 *895:63 0.000154903
49 *806:48 *895:71 4.7878e-05
50 *806:50 *2619:B1 5.4003e-05
51 *806:50 *830:90 7.67465e-05
52 *806:50 *893:97 0.000296677
53 *2514:A *3083:GATE_N 1.58362e-05
54 *2514:A *806:14 2.85081e-06
55 *2515:B2 *3075:GATE_N 0
56 *2526:B2 *3076:GATE_N 0.000571824
57 *3106:A *806:48 2.05641e-05
58 *3108:A *806:48 0.000196398
59 *3108:A *806:50 0
60 *3109:A *806:48 4.38541e-05
61 *3127:A *806:14 3.92756e-05
62 *3192:A *3083:GATE_N 0.000319433
63 *3195:A *3083:GATE_N 0.000222112
64 *435:12 *3083:GATE_N 0.000174943
65 *445:8 *3083:GATE_N 4.66108e-05
66 *561:14 *3075:GATE_N 0.000408645
67 *561:14 *806:12 0.000298865
68 *561:14 *806:14 0.000239218
69 *651:26 *3083:GATE_N 0.00057819
70 *651:26 *806:14 0.000480948
*RES
1 *3107:X *806:10 4.3325 
2 *806:10 *806:12 0.795467 
3 *806:12 *806:14 1.4364 
4 *806:14 *3083:GATE_N 16.526 
5 *806:14 *3074:GATE_N 4.8425 
6 *806:12 *806:48 10.1075 
7 *806:48 *806:50 4.695 
8 *806:50 *3084:GATE_N 9.51 
9 *806:50 *3076:GATE_N 16.3 
10 *806:48 *3085:GATE_N 3.6 
11 *806:10 *3075:GATE_N 6.94757 
*END

*D_NET *807 0.0253602
*CONN
*I *3068:GATE_N I *D sky130_fd_sc_hd__dlxtn_1
*I *3062:GATE_N I *D sky130_fd_sc_hd__dlxtn_1
*I *3061:GATE_N I *D sky130_fd_sc_hd__dlxtn_1
*I *3064:GATE_N I *D sky130_fd_sc_hd__dlxtn_1
*I *3063:GATE_N I *D sky130_fd_sc_hd__dlxtn_1
*I *3066:GATE_N I *D sky130_fd_sc_hd__dlxtn_1
*I *3057:GATE_N I *D sky130_fd_sc_hd__dlxtn_1
*I *3065:GATE_N I *D sky130_fd_sc_hd__dlxtn_1
*I *3054:GATE_N I *D sky130_fd_sc_hd__dlxtn_1
*I *3056:GATE_N I *D sky130_fd_sc_hd__dlxtn_1
*I *3108:X O *D sky130_fd_sc_hd__buf_2
*CAP
1 *3068:GATE_N 0
2 *3062:GATE_N 0.000327629
3 *3061:GATE_N 0
4 *3064:GATE_N 2.42846e-05
5 *3063:GATE_N 0.000476847
6 *3066:GATE_N 0.000406212
7 *3057:GATE_N 0
8 *3065:GATE_N 0.000315876
9 *3054:GATE_N 0.000624842
10 *3056:GATE_N 7.34482e-05
11 *3108:X 0
12 *807:121 0.000867207
13 *807:119 0.000556941
14 *807:115 0.00143832
15 *807:99 0.00102254
16 *807:26 0.000785481
17 *807:24 0.000542862
18 *807:22 0.000809133
19 *807:18 0.00227729
20 *807:4 0.00130445
21 *3054:GATE_N *2928:D 0.000122325
22 *3054:GATE_N *825:43 3.18735e-05
23 *3054:GATE_N *858:15 0.000714671
24 *3054:GATE_N *894:69 5.85626e-05
25 *3054:GATE_N *916:50 0.00023434
26 *3056:GATE_N *858:19 4.82919e-05
27 *3062:GATE_N *2918:D 3.64998e-06
28 *3062:GATE_N *2918:GATE_N 0.000163837
29 *3062:GATE_N *2950:GATE_N 0.00011381
30 *3062:GATE_N *861:79 4.0415e-05
31 *3063:GATE_N *2474:A2 0
32 *3063:GATE_N *2944:GATE_N 6.22258e-05
33 *3063:GATE_N *858:6 4.82919e-05
34 *3064:GATE_N *3064:D 2.75229e-05
35 *3065:GATE_N *2921:D 0.000201502
36 *3065:GATE_N *3065:D 4.66108e-05
37 *3065:GATE_N *827:64 7.22753e-05
38 *3065:GATE_N *827:70 2.66586e-05
39 *3065:GATE_N *853:27 8.65905e-05
40 *3065:GATE_N *854:6 2.49909e-05
41 *3066:GATE_N *2886:GATE_N 3.95073e-05
42 *3066:GATE_N *829:41 1.03323e-05
43 *3066:GATE_N *851:20 1.88904e-05
44 *3066:GATE_N *851:33 8.40213e-05
45 *3066:GATE_N *892:33 0.000107333
46 *807:18 *2509:A2 2.02487e-05
47 *807:18 *2519:A2 6.27029e-05
48 *807:18 *2540:A2 0.000720099
49 *807:18 *2541:A2 7.23602e-05
50 *807:18 *848:8 8.40213e-05
51 *807:18 *881:57 7.06865e-05
52 *807:18 *898:10 5.54796e-05
53 *807:18 *914:118 5.6361e-05
54 *807:18 *918:124 5.35181e-06
55 *807:22 *2901:GATE_N 0.000116151
56 *807:22 *2938:D 0
57 *807:22 *3057:D 7.82855e-05
58 *807:22 *852:16 0
59 *807:22 *872:24 0.000113314
60 *807:22 *892:43 0
61 *807:22 *898:50 8.38703e-05
62 *807:99 *2608:A2 4.9968e-05
63 *807:99 *3068:D 4.41506e-05
64 *807:99 *822:39 2.59981e-05
65 *807:99 *848:8 0.000197269
66 *807:99 *919:55 8.53113e-06
67 *807:115 *2507:A2 0.00156842
68 *807:115 *2509:A2 0.000197683
69 *807:115 *2844:GATE_N 0.000696398
70 *807:115 *2918:GATE_N 0.000106307
71 *807:115 *822:39 0.000126653
72 *807:115 *822:49 2.10433e-05
73 *807:115 *825:18 0.000281815
74 *807:115 *848:10 6.62625e-05
75 *807:115 *848:16 1.90887e-05
76 *807:115 *914:151 3.25568e-05
77 *807:119 *3046:GATE_N 5.81149e-05
78 *807:119 *914:157 0.000484941
79 *807:121 *2474:A2 0
80 *807:121 *3046:GATE_N 7.04365e-05
81 *807:121 *809:111 3.86607e-05
82 *807:121 *809:115 5.93674e-05
83 *2476:A1 *3054:GATE_N 4.71333e-05
84 *2476:B2 *3054:GATE_N 7.49334e-05
85 *2541:A1 *807:18 3.1835e-05
86 *2574:B2 *3065:GATE_N 0.000341879
87 *2575:C1 *3054:GATE_N 5.05521e-05
88 *2575:C1 *807:24 4.94404e-05
89 *2575:C1 *807:26 0.000122877
90 *2585:A1 *807:18 0
91 *2586:A1 *807:18 0.000296734
92 *2586:A1 *807:22 8.53113e-06
93 *2586:B2 *807:18 2.98851e-05
94 *2586:C1 *807:18 3.91054e-05
95 *2591:A *3066:GATE_N 0.000426195
96 *2591:A *807:18 0.000226774
97 *2591:A *807:22 2.92496e-05
98 *2606:A1 *807:115 3.1562e-06
99 *2614:B2 *807:99 3.79854e-05
100 *3072:GATE_N *3063:GATE_N 6.97202e-05
101 *3078:GATE_N *807:22 0.000164359
102 *3108:A *807:99 8.65961e-05
103 *3110:A *807:99 2.49909e-05
104 *3110:A *807:115 5.23362e-05
105 *3151:A *3054:GATE_N 4.61256e-05
106 *3154:A *3063:GATE_N 0.000133757
107 *3157:A *3063:GATE_N 0.000514138
108 *3157:A *807:119 0.000627928
109 *3157:A *807:121 0.000862705
110 *3186:A *807:18 4.92971e-05
111 *3202:A *807:18 0
112 *3204:A *807:22 2.05641e-05
113 *377:12 *3056:GATE_N 0.000115046
114 *377:12 *807:24 0.000322604
115 *377:12 *807:26 0.000261136
116 *381:18 *3056:GATE_N 3.83368e-05
117 *381:18 *807:22 0
118 *381:18 *807:24 7.59233e-05
119 *381:18 *807:26 1.73877e-05
120 *551:40 *807:121 8.24121e-05
121 *805:18 *807:22 4.40725e-05
*RES
1 *3108:X *807:4 1.6 
2 *807:4 *807:18 25.035 
3 *807:18 *807:22 13.305 
4 *807:22 *807:24 3.93 
5 *807:24 *807:26 3.165 
6 *807:26 *3056:GATE_N 5.43 
7 *807:26 *3054:GATE_N 20.335 
8 *807:24 *3065:GATE_N 10.965 
9 *807:22 *3057:GATE_N 3.6 
10 *807:18 *3066:GATE_N 14.02 
11 *807:4 *807:99 7.135 
12 *807:99 *807:115 13.6537 
13 *807:115 *807:119 9.5 
14 *807:119 *807:121 10.305 
15 *807:121 *3063:GATE_N 13.5 
16 *807:121 *3064:GATE_N 4.05 
17 *807:119 *3061:GATE_N 3.6 
18 *807:115 *3062:GATE_N 11.12 
19 *807:99 *3068:GATE_N 1.6 
*END

*D_NET *808 0.0147208
*CONN
*I *3059:GATE_N I *D sky130_fd_sc_hd__dlxtn_1
*I *3058:GATE_N I *D sky130_fd_sc_hd__dlxtn_1
*I *3067:GATE_N I *D sky130_fd_sc_hd__dlxtn_1
*I *3055:GATE_N I *D sky130_fd_sc_hd__dlxtn_1
*I *3069:GATE_N I *D sky130_fd_sc_hd__dlxtn_1
*I *3060:GATE_N I *D sky130_fd_sc_hd__dlxtn_1
*I *3109:X O *D sky130_fd_sc_hd__dlymetal6s2s_1
*CAP
1 *3059:GATE_N 5.95798e-05
2 *3058:GATE_N 0
3 *3067:GATE_N 0
4 *3055:GATE_N 0.000169991
5 *3069:GATE_N 5.89529e-05
6 *3060:GATE_N 0.000250419
7 *3109:X 0.000657056
8 *808:80 0.00197415
9 *808:54 0.00228626
10 *808:22 0.000775194
11 *808:20 0.00126791
12 *808:14 0.00103662
13 *3055:GATE_N *2948:GATE_N 2.05191e-05
14 *3055:GATE_N *875:10 9.87459e-05
15 *3055:GATE_N *925:72 1.70935e-05
16 *3059:GATE_N *2507:B1 4.82919e-05
17 *3060:GATE_N *2606:B1 0.000203755
18 *3060:GATE_N *3044:GATE_N 0
19 *3069:GATE_N *2517:A2 5.07419e-05
20 *808:14 *2507:A2 2.84067e-05
21 *808:14 *2507:B1 0.000165202
22 *808:14 *3059:D 1.56428e-05
23 *808:14 *838:18 6.76684e-05
24 *808:14 *867:6 2.11084e-05
25 *808:20 *2506:B1 0.000250709
26 *808:20 *2507:B1 8.73389e-06
27 *808:20 *810:16 2.05583e-05
28 *808:20 *810:22 5.76869e-05
29 *808:20 *917:73 0
30 *808:20 *917:79 0
31 *808:22 *3044:GATE_N 3.17883e-05
32 *808:22 *810:22 0.000145702
33 *808:22 *828:70 0.000331689
34 *808:22 *917:79 0
35 *808:54 *2405:B 0.000119751
36 *808:54 *2423:A 0.00012624
37 *808:54 *2648:A0 0.000365055
38 *808:54 *893:59 0.000216512
39 *808:54 *895:63 1.77575e-05
40 *808:80 *2464:A2 0.000536862
41 *808:80 *2499:A2 7.06349e-05
42 *808:80 *2600:A2 1.7824e-05
43 *808:80 *2600:B1 7.67415e-06
44 *808:80 *2831:GATE_N 0.000198039
45 *808:80 *2948:GATE_N 2.24975e-05
46 *808:80 *3058:D 0.000196376
47 *808:80 *3067:D 3.03684e-05
48 *808:80 *3074:D 4.77757e-05
49 *808:80 *823:20 0.00030563
50 *808:80 *829:20 0.000196809
51 *808:80 *869:35 0.000364316
52 *808:80 *895:40 1.8498e-05
53 *808:80 *895:63 0.00010166
54 *808:80 *912:27 9.09288e-05
55 *808:80 *922:16 0.000163709
56 *2496:A1 *808:80 0.000156658
57 *2507:A1 *808:14 8.40269e-05
58 *2507:B2 *808:14 0
59 *2514:A *808:54 2.60489e-05
60 *2515:B2 *808:14 0
61 *2515:B2 *808:54 0.000101015
62 *2600:A1 *808:80 3.03775e-05
63 *2600:B2 *808:80 1.83756e-05
64 *2601:C1 *808:80 0.000341095
65 *3075:GATE_N *808:54 1.03115e-05
66 *3106:A *808:54 4.21127e-05
67 *3112:A *3059:GATE_N 9.02356e-07
68 *3124:A *3060:GATE_N 0
69 *3124:A *808:22 0
70 *3126:A *808:54 6.03517e-05
71 *3127:A *808:54 8.20629e-05
72 *3138:A *808:54 4.66108e-05
73 *3138:A *808:80 4.82863e-05
74 *3171:A *3055:GATE_N 0.000159582
75 *3171:A *808:80 7.3253e-05
76 *3209:A *808:80 3.61247e-05
77 *806:10 *808:20 1.88602e-05
78 *806:12 *808:54 3.90388e-05
79 *806:14 *808:54 1.05998e-05
*RES
1 *3109:X *808:14 14.09 
2 *808:14 *808:20 7.2725 
3 *808:20 *808:22 8.9025 
4 *808:22 *3060:GATE_N 8.235 
5 *808:22 *3069:GATE_N 4.74 
6 *808:20 *808:54 6.45217 
7 *808:54 *808:80 37.44 
8 *808:80 *3055:GATE_N 7.53 
9 *808:80 *3067:GATE_N 3.6 
10 *808:54 *3058:GATE_N 1.6 
11 *808:14 *3059:GATE_N 2.92 
*END

*D_NET *809 0.020366
*CONN
*I *3052:GATE_N I *D sky130_fd_sc_hd__dlxtn_1
*I *3050:GATE_N I *D sky130_fd_sc_hd__dlxtn_1
*I *3040:GATE_N I *D sky130_fd_sc_hd__dlxtn_1
*I *3046:GATE_N I *D sky130_fd_sc_hd__dlxtn_1
*I *3045:GATE_N I *D sky130_fd_sc_hd__dlxtn_1
*I *3041:GATE_N I *D sky130_fd_sc_hd__dlxtn_1
*I *3048:GATE_N I *D sky130_fd_sc_hd__dlxtn_1
*I *3049:GATE_N I *D sky130_fd_sc_hd__dlxtn_1
*I *3038:GATE_N I *D sky130_fd_sc_hd__dlxtn_1
*I *3047:GATE_N I *D sky130_fd_sc_hd__dlxtn_1
*I *3110:X O *D sky130_fd_sc_hd__buf_2
*CAP
1 *3052:GATE_N 2.43262e-05
2 *3050:GATE_N 6.53776e-05
3 *3040:GATE_N 0.000640753
4 *3046:GATE_N 0.000446517
5 *3045:GATE_N 1.65033e-05
6 *3041:GATE_N 3.55506e-05
7 *3048:GATE_N 0.000878847
8 *3049:GATE_N 1.30736e-05
9 *3038:GATE_N 3.55506e-05
10 *3047:GATE_N 0.000736156
11 *3110:X 0.000135674
12 *809:115 0.000521021
13 *809:111 0.00134439
14 *809:90 0.000913521
15 *809:44 0.00166506
16 *809:38 0.00110398
17 *809:32 0.00110573
18 *809:28 0.00051604
19 *809:20 0.000881209
20 *809:14 0.00072145
21 *3038:GATE_N *878:10 0
22 *3040:GATE_N *2474:A2 0.000361254
23 *3040:GATE_N *2547:A2 4.66108e-05
24 *3040:GATE_N *2562:A2 0
25 *3040:GATE_N *2562:B1 0.000142738
26 *3040:GATE_N *2912:D 0.00015938
27 *3040:GATE_N *2944:GATE_N 0
28 *3040:GATE_N *2949:D 0.000146408
29 *3040:GATE_N *2952:GATE_N 0.000306884
30 *3040:GATE_N *3040:D 7.66083e-05
31 *3040:GATE_N *838:44 0
32 *3040:GATE_N *874:44 0
33 *3040:GATE_N *874:53 4.82919e-05
34 *3040:GATE_N *916:111 2.92496e-05
35 *3040:GATE_N *916:115 3.32209e-05
36 *3045:GATE_N *3045:D 4.66108e-05
37 *3046:GATE_N *2561:B1 0.000328392
38 *3046:GATE_N *860:16 5.74791e-05
39 *3046:GATE_N *860:34 7.8936e-05
40 *3046:GATE_N *894:142 4.62396e-05
41 *3046:GATE_N *914:157 7.3664e-05
42 *3047:GATE_N *874:10 3.1562e-06
43 *3047:GATE_N *884:57 4.57347e-05
44 *3047:GATE_N *914:22 0
45 *3048:GATE_N *2904:GATE_N 4.21973e-05
46 *3048:GATE_N *3048:D 1.83756e-05
47 *3048:GATE_N *829:88 8.23457e-05
48 *3048:GATE_N *856:21 0.000229085
49 *3048:GATE_N *856:60 1.56428e-05
50 *3049:GATE_N *2945:GATE_N 1.83847e-05
51 *3049:GATE_N *854:42 4.82919e-05
52 *3050:GATE_N *916:95 0.000159313
53 *3052:GATE_N *2509:A2 8.49205e-05
54 *3052:GATE_N *2608:A2 3.1835e-05
55 *809:14 *822:39 9.87604e-05
56 *809:14 *848:8 4.82919e-05
57 *809:14 *848:10 9.63939e-05
58 *809:14 *848:16 7.9642e-06
59 *809:20 *2539:B1 0.000323504
60 *809:20 *822:39 3.63096e-05
61 *809:20 *822:49 5.93963e-05
62 *809:20 *848:16 0.000124014
63 *809:20 *851:20 4.34434e-05
64 *809:20 *892:88 7.20869e-05
65 *809:20 *898:93 0
66 *809:20 *898:95 0
67 *809:20 *898:118 0
68 *809:20 *916:95 8.247e-05
69 *809:28 *2833:GATE_N 2.47313e-05
70 *809:28 *822:49 0.000143912
71 *809:28 *829:69 7.81221e-05
72 *809:28 *829:73 4.03082e-05
73 *809:28 *851:20 0.000179028
74 *809:32 *822:49 7.06865e-05
75 *809:38 *2905:GATE_N 8.7373e-06
76 *809:38 *822:49 0.000301464
77 *809:38 *822:55 4.20983e-05
78 *809:38 *829:88 0.000106585
79 *809:38 *829:100 0.000142903
80 *809:44 *2942:GATE_N 0
81 *809:44 *3054:D 0
82 *809:44 *822:55 0.000103185
83 *809:44 *822:59 0
84 *809:44 *829:100 0
85 *809:44 *878:10 0.000136598
86 *809:44 *878:38 0
87 *809:44 *878:59 0
88 *809:90 *2833:GATE_N 9.39278e-05
89 *809:111 *2561:B1 3.23391e-05
90 *809:111 *2833:GATE_N 6.31208e-05
91 *809:111 *2949:D 4.82919e-05
92 *809:111 *822:117 0.000566582
93 *809:111 *822:134 0.000146408
94 *809:111 *838:105 0.000142133
95 *809:115 *2561:B1 0.000158297
96 *2451:A1 *809:44 4.69247e-05
97 *2452:A1 *809:44 0
98 *2452:B2 *809:44 0
99 *2452:C1 *809:44 0
100 *2460:B1 *809:44 3.49173e-05
101 *2485:A1 *809:28 9.50342e-06
102 *2485:A1 *809:32 1.95461e-05
103 *2485:A1 *809:38 7.21296e-06
104 *2493:B2 *3048:GATE_N 5.64159e-05
105 *2528:A1 *3045:GATE_N 2.49909e-05
106 *2537:B2 *3050:GATE_N 5.83121e-06
107 *2540:C1 *809:20 0.000157702
108 *2545:A *809:20 0
109 *2547:B2 *3046:GATE_N 0
110 *2548:B1 *809:20 3.16707e-06
111 *2552:A1 *3047:GATE_N 0
112 *2560:B *3040:GATE_N 0.00012657
113 *2562:B2 *3040:GATE_N 8.82193e-05
114 *3151:A *3047:GATE_N 7.2513e-05
115 *3169:A *3047:GATE_N 0.000194949
116 *3173:A *3047:GATE_N 2.18002e-05
117 *3173:A *809:44 1.10767e-05
118 *551:40 *3048:GATE_N 5.83121e-06
119 *551:40 *809:111 0.000676356
120 *805:12 *3050:GATE_N 0.000149765
121 *805:12 *809:20 0.000155491
122 *805:127 *3050:GATE_N 8.65905e-05
123 *807:119 *3046:GATE_N 5.81149e-05
124 *807:121 *3046:GATE_N 7.04365e-05
125 *807:121 *809:111 3.86607e-05
126 *807:121 *809:115 5.93674e-05
*RES
1 *3110:X *809:14 6.24 
2 *809:14 *809:20 13.79 
3 *809:20 *809:28 9.49 
4 *809:28 *809:32 2.87 
5 *809:32 *809:38 5.505 
6 *809:38 *809:44 15.095 
7 *809:44 *3047:GATE_N 14.795 
8 *809:44 *3038:GATE_N 2.215 
9 *809:38 *3049:GATE_N 4.05 
10 *809:32 *3048:GATE_N 14.325 
11 *809:28 *809:90 2.865 
12 *809:90 *3041:GATE_N 2.215 
13 *809:90 *809:111 17.965 
14 *809:111 *809:115 3.89 
15 *809:115 *3045:GATE_N 4.05 
16 *809:115 *3046:GATE_N 12.75 
17 *809:111 *3040:GATE_N 21.77 
18 *809:20 *3050:GATE_N 4.12 
19 *809:14 *3052:GATE_N 4.395 
*END

*D_NET *810 0.0157719
*CONN
*I *3042:GATE_N I *D sky130_fd_sc_hd__dlxtn_1
*I *3051:GATE_N I *D sky130_fd_sc_hd__dlxtn_1
*I *3043:GATE_N I *D sky130_fd_sc_hd__dlxtn_1
*I *3053:GATE_N I *D sky130_fd_sc_hd__dlxtn_1
*I *3039:GATE_N I *D sky130_fd_sc_hd__dlxtn_1
*I *3044:GATE_N I *D sky130_fd_sc_hd__dlxtn_1
*I *3111:X O *D sky130_fd_sc_hd__clkbuf_2
*CAP
1 *3042:GATE_N 1.0455e-05
2 *3051:GATE_N 0.000609663
3 *3043:GATE_N 0
4 *3053:GATE_N 0
5 *3039:GATE_N 0.000992369
6 *3044:GATE_N 0.00033109
7 *3111:X 0.000218805
8 *810:84 0.0013542
9 *810:41 0.00173168
10 *810:22 0.00147347
11 *810:16 0.000453033
12 *810:14 0.00100285
13 *3039:GATE_N *2792:GATE_N 3.45679e-05
14 *3039:GATE_N *3053:D 4.29107e-05
15 *3039:GATE_N *826:26 9.10586e-05
16 *3039:GATE_N *830:31 5.53548e-05
17 *3039:GATE_N *911:25 3.84431e-05
18 *3044:GATE_N *2507:A2 0
19 *3044:GATE_N *2606:B1 3.47668e-05
20 *3044:GATE_N *2916:GATE_N 0.000282308
21 *3044:GATE_N *865:47 0.000313852
22 *3044:GATE_N *933:39 0.000124753
23 *3051:GATE_N *2496:A2 4.66108e-05
24 *3051:GATE_N *2504:A2 4.82863e-05
25 *3051:GATE_N *2843:D 4.82919e-05
26 *3051:GATE_N *829:20 7.17811e-05
27 *3051:GATE_N *839:16 6.71882e-05
28 *3051:GATE_N *839:50 4.85206e-05
29 *3051:GATE_N *866:35 0.000381847
30 *3051:GATE_N *869:33 0.000197066
31 *3051:GATE_N *893:59 0.000325995
32 *810:14 *2506:B1 0.000286164
33 *810:14 *3059:D 0.000151777
34 *810:14 *866:19 2.25119e-05
35 *810:16 *2506:B1 9.04308e-05
36 *810:16 *866:8 1.89685e-05
37 *810:16 *866:19 5.55605e-05
38 *810:22 *2506:A2 0
39 *810:22 *2916:GATE_N 7.34763e-05
40 *810:22 *828:70 0.000323492
41 *810:22 *839:75 0
42 *810:22 *866:8 6.55328e-05
43 *810:22 *867:28 7.62792e-05
44 *810:22 *895:81 0
45 *810:22 *962:10 3.86607e-05
46 *810:41 *2916:GATE_N 1.34503e-05
47 *810:41 *3053:D 0.000223434
48 *810:41 *828:70 2.11084e-05
49 *810:41 *845:31 0.000116912
50 *810:41 *845:33 2.67275e-05
51 *810:84 *3042:D 0.000115204
52 *810:84 *839:75 0.000569146
53 *810:84 *866:35 0.000110743
54 *810:84 *893:59 7.14699e-05
55 *2472:B *3039:GATE_N 0.000268616
56 *2472:B *810:41 0.000102151
57 *2503:C *3051:GATE_N 6.33103e-05
58 *2503:D *3051:GATE_N 0.00101943
59 *2504:B1 *3051:GATE_N 4.82919e-05
60 *2504:B2 *3051:GATE_N 4.66108e-05
61 *2506:B2 *810:14 6.81237e-05
62 *2602:A *3051:GATE_N 7.36562e-05
63 *2603:B2 *3051:GATE_N 0.000196046
64 *2616:B2 *810:22 0.000116158
65 *2618:B2 *3039:GATE_N 8.65905e-05
66 *2619:B2 *810:41 6.33103e-05
67 *3060:GATE_N *3044:GATE_N 0
68 *3076:GATE_N *3044:GATE_N 0.000139231
69 *3111:A *810:14 1.01661e-05
70 *3129:A *3051:GATE_N 0.000195399
71 *3205:A *3051:GATE_N 3.1835e-05
72 *498:16 *3051:GATE_N 8.49205e-05
73 *808:20 *810:16 2.05583e-05
74 *808:20 *810:22 5.76869e-05
75 *808:22 *3044:GATE_N 3.17883e-05
76 *808:22 *810:22 0.000145702
*RES
1 *3111:X *810:14 9.045 
2 *810:14 *810:16 1.635 
3 *810:16 *810:22 9.33 
4 *810:22 *3044:GATE_N 12.18 
5 *810:22 *810:41 12.485 
6 *810:41 *3039:GATE_N 20.015 
7 *810:41 *3053:GATE_N 1.6 
8 *810:16 *3043:GATE_N 3.6 
9 *810:14 *810:84 12.23 
10 *810:84 *3051:GATE_N 29.85 
11 *810:84 *3042:GATE_N 1.96 
*END

*D_NET *811 0.0288947
*CONN
*I *3027:GATE_N I *D sky130_fd_sc_hd__dlxtn_1
*I *3031:GATE_N I *D sky130_fd_sc_hd__dlxtn_1
*I *3033:GATE_N I *D sky130_fd_sc_hd__dlxtn_1
*I *3030:GATE_N I *D sky130_fd_sc_hd__dlxtn_1
*I *3025:GATE_N I *D sky130_fd_sc_hd__dlxtn_1
*I *3029:GATE_N I *D sky130_fd_sc_hd__dlxtn_1
*I *3034:GATE_N I *D sky130_fd_sc_hd__dlxtn_1
*I *3032:GATE_N I *D sky130_fd_sc_hd__dlxtn_1
*I *3022:GATE_N I *D sky130_fd_sc_hd__dlxtn_1
*I *3024:GATE_N I *D sky130_fd_sc_hd__dlxtn_1
*I *3112:X O *D sky130_fd_sc_hd__buf_2
*CAP
1 *3027:GATE_N 0
2 *3031:GATE_N 0.000983573
3 *3033:GATE_N 3.57271e-05
4 *3030:GATE_N 0.00017055
5 *3025:GATE_N 4.3765e-05
6 *3029:GATE_N 0
7 *3034:GATE_N 0.000385291
8 *3032:GATE_N 6.85082e-05
9 *3022:GATE_N 0
10 *3024:GATE_N 0.000427391
11 *3112:X 0.000217579
12 *811:143 0.00178377
13 *811:97 0.00077184
14 *811:60 0.00127224
15 *811:54 0.000944525
16 *811:52 0.00128367
17 *811:36 0.00106568
18 *811:32 0.00139533
19 *811:26 0.00350062
20 *811:10 0.00188492
21 *3024:GATE_N *2645:A1 0
22 *3024:GATE_N *2657:A1 8.63479e-05
23 *3024:GATE_N *873:50 0.000224737
24 *3024:GATE_N *877:18 0.000152123
25 *3024:GATE_N *877:38 2.11921e-05
26 *3025:GATE_N *872:55 3.95698e-05
27 *3030:GATE_N *2486:B1 0
28 *3030:GATE_N *852:16 1.83847e-05
29 *3030:GATE_N *894:29 0
30 *3030:GATE_N *916:19 1.79483e-05
31 *3030:GATE_N *918:25 0
32 *3031:GATE_N *3031:D 0.000134091
33 *3031:GATE_N *3064:D 9.10587e-05
34 *3031:GATE_N *3174:A 0.000154809
35 *3031:GATE_N *827:62 3.67779e-05
36 *3031:GATE_N *838:105 0.000748114
37 *3031:GATE_N *854:79 1.07341e-05
38 *3031:GATE_N *859:67 0.000490935
39 *3031:GATE_N *859:69 0.000229203
40 *3031:GATE_N *896:50 2.67306e-05
41 *3032:GATE_N *855:10 0.000113237
42 *3032:GATE_N *855:20 4.82919e-05
43 *3034:GATE_N *2917:GATE_N 8.33567e-05
44 *3034:GATE_N *3158:A 0
45 *3034:GATE_N *3198:A 0
46 *3034:GATE_N *831:28 0
47 *3034:GATE_N *851:53 1.23107e-05
48 *3034:GATE_N *862:8 0
49 *3034:GATE_N *923:26 0
50 *811:10 *2507:B1 1.99941e-05
51 *811:10 *915:48 3.1922e-05
52 *811:10 *917:73 2.76356e-05
53 *811:26 *2529:A2 0.000160439
54 *811:26 *2529:B1 0.000161529
55 *811:26 *2614:A2 9.49203e-05
56 *811:26 *2619:B1 0
57 *811:26 *2899:GATE_N 9.7011e-05
58 *811:26 *2922:D 4.91204e-05
59 *811:26 *2922:GATE_N 2.75145e-05
60 *811:26 *822:49 0
61 *811:26 *825:130 0.000479952
62 *811:26 *845:29 1.7635e-05
63 *811:26 *852:6 1.47347e-05
64 *811:26 *852:16 4.80182e-05
65 *811:26 *852:40 4.55801e-05
66 *811:26 *860:34 0.00013521
67 *811:26 *863:38 0.00102051
68 *811:26 *893:97 0
69 *811:26 *894:127 0.000114506
70 *811:26 *896:44 0
71 *811:26 *896:48 0
72 *811:26 *915:48 0.000395242
73 *811:36 *872:12 0.000106476
74 *811:36 *894:29 0
75 *811:36 *916:19 0.00035996
76 *811:52 *3064:D 7.68414e-06
77 *811:52 *855:8 0.00039046
78 *811:52 *855:10 0.000237249
79 *811:52 *855:20 4.66108e-05
80 *811:52 *871:10 1.26626e-05
81 *811:52 *872:18 0.000191232
82 *811:52 *872:55 0.000108098
83 *811:52 *914:16 0.000263269
84 *811:54 *3080:D 2.92496e-05
85 *811:60 *2555:A2 0
86 *811:60 *2645:S 4.80182e-05
87 *811:60 *2910:D 0
88 *811:60 *2910:GATE_N 0.000218863
89 *811:60 *2937:GATE_N 0
90 *811:60 *3065:D 2.24336e-05
91 *811:60 *3081:D 0
92 *811:60 *827:70 4.40725e-05
93 *811:60 *827:100 0
94 *811:60 *853:12 3.38982e-05
95 *811:97 *3029:D 8.53113e-06
96 *811:97 *3080:D 0.00013598
97 *811:97 *827:100 0
98 *811:97 *831:28 0
99 *811:143 *2905:D 0.000139238
100 *811:143 *3041:D 0.000134509
101 *811:143 *822:49 0
102 *811:143 *854:51 1.4389e-05
103 *811:143 *854:79 8.02539e-05
104 *811:143 *911:72 0
105 *2453:A1 *811:60 0
106 *2454:B2 *3024:GATE_N 0.000198051
107 *2486:A1 *811:52 0.000288387
108 *2487:C1 *811:36 5.16418e-05
109 *2493:A1 *811:143 0
110 *2536:A *3034:GATE_N 2.75145e-05
111 *2558:A *811:60 0
112 *2558:C *811:60 0.000138273
113 *2564:A1 *811:52 0.00012657
114 *2564:B2 *811:97 0
115 *2572:A1 *3031:GATE_N 0.000155491
116 *2572:B2 *3031:GATE_N 9.46859e-06
117 *2592:B2 *811:32 0.000379915
118 *2606:C1 *811:26 2.43028e-05
119 *2611:B2 *3034:GATE_N 6.28765e-05
120 *2639:B *3031:GATE_N 0.000185549
121 *3070:GATE_N *811:60 0
122 *3079:GATE_N *3031:GATE_N 0
123 *3084:GATE_N *811:26 0
124 *3106:A *811:26 1.88602e-05
125 *3106:A *811:32 6.32198e-05
126 *3112:A *811:10 1.41559e-05
127 *3124:A *811:10 0.000111049
128 *3124:A *811:26 0.000999349
129 *3149:A *811:26 4.82919e-05
130 *3149:A *811:143 0
131 *3152:A *811:52 6.25157e-05
132 *3153:A *811:52 0.000282369
133 *3157:A *3031:GATE_N 0
134 *3159:A *3030:GATE_N 4.82919e-05
135 *3167:A *3030:GATE_N 0
136 *379:10 *811:143 0
137 *381:18 *3024:GATE_N 0.000164874
138 *384:14 *811:60 2.10433e-05
139 *590:24 *811:143 0.000114492
140 *805:34 *811:97 3.57349e-05
141 *805:42 *3034:GATE_N 8.49205e-05
142 *805:42 *811:97 4.66108e-05
143 *805:72 *811:97 0.000571175
144 *805:78 *811:54 0
145 *805:78 *811:60 0
146 *805:78 *811:97 0
147 *805:127 *811:143 1.01152e-05
*RES
1 *3112:X *811:10 6.81 
2 *811:10 *811:26 45.2725 
3 *811:26 *811:32 3.01907 
4 *811:32 *811:36 6.3125 
5 *811:36 *811:52 22.605 
6 *811:52 *811:54 0.615 
7 *811:54 *811:60 17.525 
8 *811:60 *3024:GATE_N 15.395 
9 *811:60 *3022:GATE_N 1.6 
10 *811:54 *3032:GATE_N 5.085 
11 *811:52 *811:97 10.805 
12 *811:97 *3034:GATE_N 12.62 
13 *811:97 *3029:GATE_N 1.6 
14 *811:36 *3025:GATE_N 2.41 
15 *811:32 *3030:GATE_N 6.3225 
16 *811:26 *811:143 14.3825 
17 *811:143 *3033:GATE_N 2.215 
18 *811:143 *3031:GATE_N 27.23 
19 *811:10 *3027:GATE_N 3.6 
*END

*D_NET *812 0.021226
*CONN
*I *3026:GATE_N I *D sky130_fd_sc_hd__dlxtn_1
*I *3037:GATE_N I *D sky130_fd_sc_hd__dlxtn_1
*I *3035:GATE_N I *D sky130_fd_sc_hd__dlxtn_1
*I *3023:GATE_N I *D sky130_fd_sc_hd__dlxtn_1
*I *3028:GATE_N I *D sky130_fd_sc_hd__dlxtn_1
*I *3036:GATE_N I *D sky130_fd_sc_hd__dlxtn_1
*I *3113:X O *D sky130_fd_sc_hd__clkbuf_2
*CAP
1 *3026:GATE_N 0
2 *3037:GATE_N 0.000210869
3 *3035:GATE_N 0.000716574
4 *3023:GATE_N 0.000128046
5 *3028:GATE_N 0
6 *3036:GATE_N 0.000389971
7 *3113:X 0.00055652
8 *812:76 0.00186342
9 *812:55 0.00225411
10 *812:36 0.00207353
11 *812:28 0.00201345
12 *812:10 0.00191085
13 *3023:GATE_N *876:10 4.35999e-05
14 *3035:GATE_N *2418:D 4.66108e-05
15 *3035:GATE_N *2891:D 0.000141218
16 *3035:GATE_N *3067:D 0.00019712
17 *3035:GATE_N *850:31 4.66826e-05
18 *3035:GATE_N *875:10 0.000177382
19 *3035:GATE_N *892:33 0.000195279
20 *3035:GATE_N *939:38 2.07184e-05
21 *3035:GATE_N *939:40 0.00010596
22 *3035:GATE_N *939:46 0.000109411
23 *3035:GATE_N *941:21 1.91597e-05
24 *3035:GATE_N *944:12 4.0247e-05
25 *3035:GATE_N *944:16 9.17274e-05
26 *3035:GATE_N *948:20 0.000157602
27 *3036:GATE_N *2509:A2 0
28 *3036:GATE_N *2605:B1 6.63219e-06
29 *3036:GATE_N *825:18 1.83847e-05
30 *3036:GATE_N *848:27 0.000122331
31 *3036:GATE_N *896:12 0.000448967
32 *3036:GATE_N *914:151 0
33 *3037:GATE_N *2628:A 0.000269904
34 *3037:GATE_N *915:54 0.000349189
35 *3037:GATE_N *962:16 0.000116607
36 *812:10 *3058:D 0.000111285
37 *812:10 *919:29 0.000426195
38 *812:28 *826:12 0.000167607
39 *812:28 *826:16 0.000200648
40 *812:28 *881:120 2.68717e-05
41 *812:28 *919:29 0
42 *812:28 *933:24 0.000199293
43 *812:36 *2463:B1 0.000157631
44 *812:36 *2605:B1 0
45 *812:36 *826:16 9.54399e-05
46 *812:36 *933:24 5.6951e-05
47 *812:55 *2519:B1 1.17114e-05
48 *812:55 *2541:A2 0.000629801
49 *812:55 *861:14 0
50 *812:76 *2519:B1 0.000784156
51 *812:76 *2831:GATE_N 0
52 *812:76 *2907:GATE_N 0.000781981
53 *812:76 *2932:GATE_N 0.000116835
54 *812:76 *826:47 9.65328e-05
55 *812:76 *829:37 0
56 *812:76 *876:10 3.64998e-06
57 *812:76 *876:21 2.39856e-05
58 *2470:B *812:76 4.66108e-05
59 *2514:A *812:28 0.000344801
60 *2515:B2 *812:28 0.000337613
61 *2607:A1 *3036:GATE_N 4.9253e-06
62 *2613:A *3036:GATE_N 1.34298e-05
63 *2618:A1 *3037:GATE_N 0.000194694
64 *2618:A1 *812:36 0.000203623
65 *2618:B2 *812:36 0.000128768
66 *2624:A *812:55 0
67 *3122:A *812:36 0
68 *3126:A *3036:GATE_N 0
69 *3128:A *812:10 4.55864e-06
70 *3128:A *812:28 9.58678e-06
71 *3171:A *3035:GATE_N 1.7994e-05
72 *3214:A *812:28 0.000737112
73 *383:10 *3035:GATE_N 0.000192717
74 *485:12 *812:10 9.11989e-05
75 *499:18 *3035:GATE_N 0.000165704
*RES
1 *3113:X *812:10 12.135 
2 *812:10 *812:28 9.30887 
3 *812:28 *812:36 9.1425 
4 *812:36 *3036:GATE_N 10.5825 
5 *812:36 *812:55 3.5429 
6 *812:55 *3028:GATE_N 3.6 
7 *812:55 *812:76 22.145 
8 *812:76 *3023:GATE_N 3.355 
9 *812:76 *3035:GATE_N 23 
10 *812:28 *3037:GATE_N 10.035 
11 *812:10 *3026:GATE_N 3.6 
*END

*D_NET *813 0.0139157
*CONN
*I *2648:A1 I *D sky130_fd_sc_hd__mux2_1
*I *3245:X O *D sky130_fd_sc_hd__buf_1
*CAP
1 *2648:A1 0.00523559
2 *3245:X 0.00523559
3 *2648:A1 *2648:A0 6.11552e-05
4 *2648:A1 *2657:A1 0.00135609
5 *2648:A1 *2658:A0 0.000165334
6 *2648:A1 *3350:A 4.61701e-06
7 *2648:A1 *884:20 0.000212659
8 *2648:A1 *889:26 0.00123358
9 PWDATA[2] *2648:A1 0.00010223
10 rdata[14] *2648:A1 1.88602e-05
11 *2482:B2 *2648:A1 0
12 *2515:B2 *2648:A1 1.76842e-05
13 *2642:B *2648:A1 0.000251715
14 *3162:A *2648:A1 2.05571e-05
15 *561:14 *2648:A1 0
16 *671:26 *2648:A1 0
*RES
1 *3245:X *2648:A1 20.4038 
*END

*D_NET *814 0.0223613
*CONN
*I *3020:GATE_N I *D sky130_fd_sc_hd__dlxtn_1
*I *3009:GATE_N I *D sky130_fd_sc_hd__dlxtn_1
*I *3017:GATE_N I *D sky130_fd_sc_hd__dlxtn_1
*I *3015:GATE_N I *D sky130_fd_sc_hd__dlxtn_1
*I *3008:GATE_N I *D sky130_fd_sc_hd__dlxtn_1
*I *3006:GATE_N I *D sky130_fd_sc_hd__dlxtn_1
*I *3013:GATE_N I *D sky130_fd_sc_hd__dlxtn_1
*I *3016:GATE_N I *D sky130_fd_sc_hd__dlxtn_1
*I *3018:GATE_N I *D sky130_fd_sc_hd__dlxtn_1
*I *3014:GATE_N I *D sky130_fd_sc_hd__dlxtn_1
*I *3114:X O *D sky130_fd_sc_hd__buf_2
*CAP
1 *3020:GATE_N 0.000247646
2 *3009:GATE_N 0.000120336
3 *3017:GATE_N 0
4 *3015:GATE_N 0.00076752
5 *3008:GATE_N 0
6 *3006:GATE_N 0.00089317
7 *3013:GATE_N 0.000376034
8 *3016:GATE_N 0.000296433
9 *3018:GATE_N 0.000319535
10 *3014:GATE_N 0
11 *3114:X 0.000188556
12 *814:120 0.00116719
13 *814:116 0.00138594
14 *814:110 0.000378584
15 *814:80 0.00149835
16 *814:72 0.00144001
17 *814:66 0.000926277
18 *814:45 0.000872527
19 *814:37 0.000896684
20 *814:12 0.000510604
21 *3006:GATE_N *2455:A2 0.000133284
22 *3006:GATE_N *2846:GATE_N 2.86975e-05
23 *3006:GATE_N *3006:D 0.000109353
24 *3006:GATE_N *873:50 0
25 *3006:GATE_N *877:40 5.66338e-05
26 *3009:GATE_N *2491:A2 0.000181104
27 *3009:GATE_N *2491:C1 0.00035048
28 *3009:GATE_N *928:47 4.21973e-05
29 *3013:GATE_N *833:69 0.000200648
30 *3013:GATE_N *833:80 0.000339886
31 *3013:GATE_N *855:32 0
32 *3013:GATE_N *862:45 0.00011964
33 *3015:GATE_N *2855:GATE_N 9.77532e-05
34 *3015:GATE_N *3015:D 4.91292e-05
35 *3015:GATE_N *923:50 0.000437864
36 *3018:GATE_N *851:59 0.000123225
37 *3018:GATE_N *904:22 2.16389e-05
38 *3018:GATE_N *908:34 0.000136182
39 *3020:GATE_N *816:18 0.000386221
40 *3020:GATE_N *934:12 1.08758e-05
41 *814:12 *2966:D 5.12772e-05
42 *814:12 *861:16 1.37635e-05
43 *814:12 *861:47 1.31646e-05
44 *814:12 *904:16 0
45 *814:37 *2544:A2 4.82919e-05
46 *814:37 *2982:D 3.1835e-05
47 *814:37 *816:18 0.000101576
48 *814:37 *861:18 0.000112143
49 *814:37 *904:22 2.75707e-05
50 *814:37 *906:93 0.00030767
51 *814:37 *908:34 7.47145e-05
52 *814:45 *2544:A2 1.8901e-05
53 *814:45 *851:53 5.55344e-05
54 *814:45 *851:57 0.00018476
55 *814:45 *904:22 0
56 *814:45 *928:39 0.000205461
57 *814:66 *904:22 1.77621e-05
58 *814:66 *904:24 0.000112526
59 *814:66 *904:28 0.000151786
60 *814:66 *904:38 0
61 *814:66 *928:39 2.14532e-05
62 *814:66 *928:47 0.000549495
63 *814:72 *2565:B1 8.73389e-06
64 *814:72 *2568:C1 1.03833e-05
65 *814:72 *2576:B1 0.000173136
66 *814:72 *2977:GATE_N 0
67 *814:72 *900:71 4.61857e-05
68 *814:72 *904:38 0
69 *814:72 *928:47 5.10477e-05
70 *814:72 *934:30 3.56638e-05
71 *814:72 *934:51 4.62396e-05
72 *814:80 *2565:B1 0.00102703
73 *814:80 *2888:GATE_N 7.89767e-05
74 *814:80 *3000:GATE_N 0.000194267
75 *814:80 *833:69 0.000296088
76 *814:80 *855:32 0
77 *814:110 *900:52 7.47145e-05
78 *814:110 *904:53 6.45236e-05
79 *814:116 *2456:A2 4.01535e-05
80 *814:116 *2479:A2 0.000104671
81 *814:116 *2480:C1 0.000133535
82 *814:116 *900:52 3.09233e-05
83 *814:116 *904:53 0.000802921
84 *814:116 *904:61 2.3531e-05
85 *814:116 *908:83 0.000300407
86 *814:116 *934:70 0.000151432
87 *814:120 *873:50 1.56428e-05
88 *814:120 *873:54 3.86133e-05
89 *2456:A1 *3006:GATE_N 4.19603e-05
90 *2479:A1 *814:120 6.3124e-06
91 *2479:B2 *3006:GATE_N 5.21892e-05
92 *2480:A1 *3015:GATE_N 2.77283e-05
93 *2480:B1 *814:116 4.72388e-05
94 *2525:A *814:12 5.05521e-05
95 *2536:B *3018:GATE_N 7.38427e-05
96 *2543:A1 *3020:GATE_N 7.68414e-06
97 *2543:A1 *814:37 1.61831e-05
98 *2543:B2 *814:37 8.65905e-05
99 *2544:C1 *3020:GATE_N 6.83659e-05
100 *2545:C *814:37 0.00015896
101 *2545:C *814:45 7.9642e-06
102 *2565:B2 *814:80 0
103 *2567:B2 *3013:GATE_N 4.43871e-06
104 *2567:B2 *814:80 5.20968e-05
105 *2578:A1 *3015:GATE_N 1.4389e-05
106 *2589:A1 *3018:GATE_N 0.000198945
107 *2591:B *3018:GATE_N 7.10578e-05
108 *3120:A *814:12 0
109 *3132:A *814:45 6.68323e-05
110 *3134:A *814:12 0.000312405
111 *3134:A *814:37 3.68805e-05
*RES
1 *3114:X *814:12 10.07 
2 *814:12 *3014:GATE_N 1.6 
3 *814:12 *814:37 16.1 
4 *814:37 *814:45 9.8 
5 *814:45 *3018:GATE_N 13.345 
6 *814:45 *814:66 6.99 
7 *814:66 *814:72 10.355 
8 *814:72 *814:80 18.65 
9 *814:80 *3016:GATE_N 7.62 
10 *814:80 *3013:GATE_N 12.015 
11 *814:72 *814:110 2.87 
12 *814:110 *814:116 14.03 
13 *814:116 *814:120 3.39 
14 *814:120 *3006:GATE_N 17.945 
15 *814:120 *3008:GATE_N 1.6 
16 *814:116 *3015:GATE_N 15.85 
17 *814:110 *3017:GATE_N 3.6 
18 *814:66 *3009:GATE_N 7.845 
19 *814:37 *3020:GATE_N 6.895 
*END

*D_NET *815 0.0148963
*CONN
*I *3019:GATE_N I *D sky130_fd_sc_hd__dlxtn_1
*I *3010:GATE_N I *D sky130_fd_sc_hd__dlxtn_1
*I *3011:GATE_N I *D sky130_fd_sc_hd__dlxtn_1
*I *3012:GATE_N I *D sky130_fd_sc_hd__dlxtn_1
*I *3007:GATE_N I *D sky130_fd_sc_hd__dlxtn_1
*I *3021:GATE_N I *D sky130_fd_sc_hd__dlxtn_1
*I *3115:X O *D sky130_fd_sc_hd__dlymetal6s2s_1
*CAP
1 *3019:GATE_N 0.000131873
2 *3010:GATE_N 0
3 *3011:GATE_N 0
4 *3012:GATE_N 0
5 *3007:GATE_N 0.00121446
6 *3021:GATE_N 0.000240425
7 *3115:X 0
8 *815:38 0.00221434
9 *815:28 0.00114259
10 *815:22 0.00171014
11 *815:12 0.00155846
12 *815:4 0.00036333
13 *3007:GATE_N *2401:A 8.247e-05
14 *3007:GATE_N *2462:B1 3.59784e-05
15 *3007:GATE_N *2973:D 3.30017e-05
16 *3007:GATE_N *3007:D 2.33941e-05
17 *3007:GATE_N *821:16 1.48096e-05
18 *3007:GATE_N *834:44 7.10077e-05
19 *3007:GATE_N *837:31 0.000605893
20 *3007:GATE_N *844:45 2.51154e-05
21 *3007:GATE_N *875:34 0.000126196
22 *3007:GATE_N *903:24 7.20129e-05
23 *3019:GATE_N *2399:A 0
24 *3019:GATE_N *2399:B 5.4003e-05
25 *3019:GATE_N *3211:A 3.00381e-05
26 *3019:GATE_N *870:24 1.34594e-05
27 *3019:GATE_N *904:10 6.35048e-05
28 *3019:GATE_N *925:33 5.05521e-05
29 *3021:GATE_N *2524:A2 0.000181615
30 *3021:GATE_N *834:8 9.30717e-05
31 *3021:GATE_N *864:47 0.00015258
32 *815:12 *2962:D 0
33 *815:12 *2994:D 0.000273872
34 *815:12 *904:10 0.000387985
35 *815:12 *929:10 0
36 *815:22 *2978:D 3.03684e-05
37 *815:22 *2978:GATE_N 3.72754e-05
38 *815:22 *2979:D 0
39 *815:22 *2979:GATE_N 0.000364632
40 *815:22 *817:28 2.58733e-05
41 *815:22 *870:43 0.0002658
42 *815:28 *2979:GATE_N 0.000226082
43 *815:28 *818:14 0.000500483
44 *815:28 *821:22 5.83121e-06
45 *815:38 *2523:B1 0.000572708
46 *815:38 *3012:D 3.72916e-05
47 *815:38 *821:16 1.47347e-05
48 *815:38 *821:18 5.78094e-05
49 *815:38 *821:22 0.00018291
50 *2468:B2 *3007:GATE_N 0.000158066
51 *2500:B2 *815:12 4.94404e-05
52 *2501:B2 *815:22 5.30673e-05
53 *2521:B2 *815:38 0.000421675
54 *3071:GATE_N *3007:GATE_N 1.49911e-05
55 *3118:A *3007:GATE_N 3.74359e-05
56 *3120:A *3007:GATE_N 6.40697e-05
57 *3130:A *3007:GATE_N 0.000334045
58 *3131:A *3007:GATE_N 8.4792e-05
59 *3134:A *3021:GATE_N 0.000290684
60 *3194:A *3019:GATE_N 1.61831e-05
61 *3194:A *815:12 6.13904e-05
62 *3213:A *3019:GATE_N 2.25161e-05
*RES
1 *3115:X *815:4 1.6 
2 *815:4 *815:12 10.3 
3 *815:12 *815:22 21.965 
4 *815:22 *815:28 11.06 
5 *815:28 *815:38 14.31 
6 *815:38 *3021:GATE_N 12.23 
7 *815:38 *3007:GATE_N 27.3612 
8 *815:28 *3012:GATE_N 1.6 
9 *815:22 *3011:GATE_N 3.6 
10 *815:12 *3010:GATE_N 1.6 
11 *815:4 *3019:GATE_N 8.735 
*END

*D_NET *816 0.0162548
*CONN
*I *3004:GATE_N I *D sky130_fd_sc_hd__dlxtn_1
*I *2993:GATE_N I *D sky130_fd_sc_hd__dlxtn_1
*I *2998:GATE_N I *D sky130_fd_sc_hd__dlxtn_1
*I *3002:GATE_N I *D sky130_fd_sc_hd__dlxtn_1
*I *2997:GATE_N I *D sky130_fd_sc_hd__dlxtn_1
*I *3000:GATE_N I *D sky130_fd_sc_hd__dlxtn_1
*I *2992:GATE_N I *D sky130_fd_sc_hd__dlxtn_1
*I *2990:GATE_N I *D sky130_fd_sc_hd__dlxtn_1
*I *2999:GATE_N I *D sky130_fd_sc_hd__dlxtn_1
*I *3001:GATE_N I *D sky130_fd_sc_hd__dlxtn_1
*I *3116:X O *D sky130_fd_sc_hd__buf_2
*CAP
1 *3004:GATE_N 1.71066e-05
2 *2993:GATE_N 0.000893039
3 *2998:GATE_N 0
4 *3002:GATE_N 6.21932e-05
5 *2997:GATE_N 0
6 *3000:GATE_N 0.000194391
7 *2992:GATE_N 0
8 *2990:GATE_N 0
9 *2999:GATE_N 0.00026421
10 *3001:GATE_N 4.1945e-05
11 *3116:X 0.000223729
12 *816:54 0.00105015
13 *816:44 0.000852744
14 *816:38 0.000624681
15 *816:30 0.00109692
16 *816:24 0.00048622
17 *816:20 0.00052175
18 *816:18 0.00118678
19 *816:10 0.0019208
20 *816:8 0.000441749
21 *2993:GATE_N *2887:GATE_N 0.000135915
22 *2993:GATE_N *2961:D 0.000159964
23 *2993:GATE_N *2961:GATE_N 0
24 *2993:GATE_N *833:12 0
25 *2993:GATE_N *833:14 0
26 *2993:GATE_N *908:12 0
27 *2993:GATE_N *921:109 0
28 *2993:GATE_N *923:36 0
29 *2993:GATE_N *928:39 0
30 *2993:GATE_N *928:51 0.000136877
31 *2993:GATE_N *934:22 0.000148975
32 *2999:GATE_N *3001:D 5.05437e-05
33 *2999:GATE_N *873:50 0.000136915
34 *2999:GATE_N *877:38 0.000241483
35 *3000:GATE_N *906:114 4.22574e-05
36 *3000:GATE_N *921:46 4.05127e-05
37 *3001:GATE_N *2479:A2 0
38 *3001:GATE_N *3001:D 0
39 *3002:GATE_N *2533:B1 4.80182e-05
40 *3004:GATE_N *2543:C1 8.65961e-05
41 *3004:GATE_N *928:33 5.05521e-05
42 *816:8 *847:57 0
43 *816:8 *928:33 0
44 *816:10 *2543:C1 0
45 *816:10 *928:33 0
46 *816:10 *928:39 0
47 *816:18 *2854:D 3.45588e-05
48 *816:18 *2998:D 0
49 *816:18 *836:10 0.000108322
50 *816:18 *836:152 5.05521e-05
51 *816:18 *906:93 4.6608e-05
52 *816:20 *2533:A2 0
53 *816:20 *2566:A2 0
54 *816:20 *2998:D 0
55 *816:20 *820:20 0
56 *816:20 *836:10 0.000339893
57 *816:20 *862:79 5.36001e-05
58 *816:20 *900:48 0
59 *816:20 *908:34 0
60 *816:24 *2566:A2 0
61 *816:24 *862:79 7.24866e-05
62 *816:24 *862:81 2.97004e-06
63 *816:30 *2588:A2 5.4003e-05
64 *816:30 *836:38 0
65 *816:30 *836:57 0.000239723
66 *816:30 *921:34 0.000246232
67 *816:30 *921:42 7.06865e-05
68 *816:30 *921:46 7.08727e-05
69 *816:30 *923:71 0.000156887
70 *816:30 *923:80 0.000110315
71 *816:38 *2455:A2 3.50152e-06
72 *816:38 *2455:B1 0.000160121
73 *816:38 *820:24 0
74 *816:38 *836:57 0.000273695
75 *816:38 *836:67 0.00060656
76 *816:38 *923:71 0.000223425
77 *816:44 *2455:A2 0.000120919
78 *816:44 *2455:B1 4.21579e-05
79 *816:44 *836:67 1.49348e-05
80 *816:44 *877:68 8.24254e-05
81 *816:54 *2455:A2 1.94284e-05
82 *816:54 *2846:GATE_N 9.22294e-06
83 *816:54 *2873:GATE_N 4.05129e-06
84 *816:54 *3001:D 0
85 *816:54 *877:38 0.000432776
86 *816:54 *877:68 1.01661e-05
87 *816:54 *904:91 0
88 *816:54 *928:63 0.000105027
89 *2456:C1 *816:38 4.25479e-05
90 *2457:B2 *816:38 4.9968e-05
91 *2458:B1 *816:38 0
92 *2480:B1 *816:54 0
93 *2488:B2 *2993:GATE_N 0
94 *2544:C1 *816:10 0
95 *2545:C *816:18 0.000160635
96 *2566:A1 *816:30 0.000139245
97 *2567:A1 *816:30 0.000164679
98 *2590:A1 *2993:GATE_N 0
99 *2591:A *2993:GATE_N 0
100 *2591:C *2993:GATE_N 7.63125e-05
101 *2592:B2 *2993:GATE_N 0
102 *3020:GATE_N *816:18 0.000386221
103 *3132:A *816:8 0
104 *3134:A *816:18 1.61831e-05
105 *3192:A *816:8 0
106 *3192:A *816:10 0
107 *814:37 *816:18 0.000101576
108 *814:80 *3000:GATE_N 0.000194267
*RES
1 *3116:X *816:8 7.02 
2 *816:8 *816:10 2.91 
3 *816:10 *816:18 15.49 
4 *816:18 *816:20 6.48 
5 *816:20 *816:24 4.145 
6 *816:24 *816:30 13.4 
7 *816:30 *816:38 14.405 
8 *816:38 *816:44 4.94 
9 *816:44 *816:54 4.40947 
10 *816:54 *3001:GATE_N 4.215 
11 *816:54 *2999:GATE_N 8.91 
12 *816:44 *2990:GATE_N 3.6 
13 *816:38 *2992:GATE_N 1.6 
14 *816:30 *3000:GATE_N 10.81 
15 *816:24 *2997:GATE_N 1.6 
16 *816:20 *3002:GATE_N 4.74 
17 *816:18 *2998:GATE_N 3.6 
18 *816:10 *2993:GATE_N 19.965 
19 *816:8 *3004:GATE_N 4.395 
*END

*D_NET *817 0.0125947
*CONN
*I *3003:GATE_N I *D sky130_fd_sc_hd__dlxtn_1
*I *2991:GATE_N I *D sky130_fd_sc_hd__dlxtn_1
*I *2994:GATE_N I *D sky130_fd_sc_hd__dlxtn_1
*I *3005:GATE_N I *D sky130_fd_sc_hd__dlxtn_1
*I *2996:GATE_N I *D sky130_fd_sc_hd__dlxtn_1
*I *2995:GATE_N I *D sky130_fd_sc_hd__dlxtn_1
*I *3117:X O *D sky130_fd_sc_hd__dlymetal6s2s_1
*CAP
1 *3003:GATE_N 2.66232e-05
2 *2991:GATE_N 0.000297047
3 *2994:GATE_N 0.000242324
4 *3005:GATE_N 0.000341262
5 *2996:GATE_N 0.00036871
6 *2995:GATE_N 0.000457847
7 *3117:X 0.000388913
8 *817:84 0.000345397
9 *817:51 0.001089
10 *817:30 0.00133395
11 *817:28 0.00179615
12 *817:24 0.00146739
13 *2991:GATE_N *2399:A 0.00034835
14 *2991:GATE_N *2500:A2 0.000323285
15 *2991:GATE_N *840:103 0.000180675
16 *2991:GATE_N *850:61 8.53113e-06
17 *2991:GATE_N *903:18 0
18 *2991:GATE_N *909:28 0.00016979
19 *2991:GATE_N *909:30 0.000137578
20 *2991:GATE_N *929:58 0.000105664
21 *2991:GATE_N *936:49 0.00027042
22 *2995:GATE_N *2963:D 0
23 *2995:GATE_N *3011:D 4.38278e-05
24 *2996:GATE_N *2523:B1 0
25 *2996:GATE_N *2962:GATE_N 0
26 *2996:GATE_N *2980:GATE_N 0
27 *2996:GATE_N *3012:D 0
28 *3003:GATE_N *2500:A2 3.73413e-05
29 *3003:GATE_N *925:33 8.40213e-05
30 *817:24 *2599:A2 0.000119163
31 *817:24 *819:23 9.14049e-05
32 *817:24 *850:57 2.42043e-05
33 *817:24 *925:33 0.000357349
34 *817:28 *2500:A2 2.0514e-05
35 *817:28 *2978:D 1.91597e-05
36 *817:28 *2978:GATE_N 0.000161893
37 *817:28 *870:43 0.00013566
38 *817:28 *925:33 0.00015896
39 *817:30 *2883:D 4.4123e-05
40 *817:30 *2962:GATE_N 0
41 *817:30 *2963:D 0
42 *817:30 *2978:GATE_N 0
43 *817:30 *2979:D 0
44 *817:30 *866:53 0
45 *817:30 *866:100 0.00012904
46 *817:51 *2883:D 0.000173163
47 *817:51 *2962:GATE_N 0
48 *817:51 *2963:D 0
49 *817:84 *2399:A 1.44259e-05
50 *817:84 *850:61 4.9968e-05
51 *2500:A1 *817:28 8.40269e-05
52 *2500:B2 *817:28 0.000536968
53 *2502:B1 *817:28 1.53483e-05
54 *2512:B2 *2995:GATE_N 3.07433e-05
55 *2512:B2 *817:30 0.000126407
56 *2523:A1 *2996:GATE_N 0.000205435
57 *3117:A *817:24 7.75271e-05
58 *3118:A *2991:GATE_N 9.61052e-05
59 *3119:A *817:24 3.31204e-05
60 *815:22 *817:28 2.58733e-05
*RES
1 *3117:X *817:24 12.455 
2 *817:24 *817:28 15.905 
3 *817:28 *817:30 9.1575 
4 *817:30 *2995:GATE_N 9.3975 
5 *817:30 *817:51 6.6525 
6 *817:51 *2996:GATE_N 9.825 
7 *817:51 *3005:GATE_N 8.19 
8 *817:28 *2994:GATE_N 7.155 
9 *817:24 *817:84 2.615 
10 *817:84 *2991:GATE_N 14.385 
11 *817:84 *3003:GATE_N 4.395 
*END

*D_NET *818 0.0169506
*CONN
*I *2979:GATE_N I *D sky130_fd_sc_hd__dlxtn_1
*I *2982:GATE_N I *D sky130_fd_sc_hd__dlxtn_1
*I *2986:GATE_N I *D sky130_fd_sc_hd__dlxtn_1
*I *2981:GATE_N I *D sky130_fd_sc_hd__dlxtn_1
*I *2984:GATE_N I *D sky130_fd_sc_hd__dlxtn_1
*I *2977:GATE_N I *D sky130_fd_sc_hd__dlxtn_1
*I *2985:GATE_N I *D sky130_fd_sc_hd__dlxtn_1
*I *2983:GATE_N I *D sky130_fd_sc_hd__dlxtn_1
*I *2974:GATE_N I *D sky130_fd_sc_hd__dlxtn_1
*I *2976:GATE_N I *D sky130_fd_sc_hd__dlxtn_1
*I *3118:X O *D sky130_fd_sc_hd__buf_2
*CAP
1 *2979:GATE_N 0.000295466
2 *2982:GATE_N 0.000580615
3 *2986:GATE_N 0
4 *2981:GATE_N 3.37454e-05
5 *2984:GATE_N 0.000120872
6 *2977:GATE_N 0.000349745
7 *2985:GATE_N 0
8 *2983:GATE_N 0.000319483
9 *2974:GATE_N 0
10 *2976:GATE_N 8.41027e-05
11 *3118:X 0.000180331
12 *818:56 0.00035404
13 *818:54 0.00154941
14 *818:43 0.00145825
15 *818:30 0.000905617
16 *818:26 0.000876377
17 *818:24 0.000736477
18 *818:18 0.000722011
19 *818:14 0.00151018
20 *818:8 0.00115896
21 *2977:GATE_N *2568:C1 0.000276441
22 *2977:GATE_N *853:63 0
23 *2977:GATE_N *855:20 0.000163175
24 *2977:GATE_N *900:79 0.000156098
25 *2977:GATE_N *908:83 0
26 *2977:GATE_N *934:51 0
27 *2979:GATE_N *2867:GATE_N 0.000226943
28 *2979:GATE_N *2979:D 0
29 *2983:GATE_N *2557:C1 0.000116372
30 *2983:GATE_N *833:52 0.000424525
31 *2983:GATE_N *853:65 0
32 *2983:GATE_N *900:79 8.89829e-05
33 *2983:GATE_N *934:70 0.000159843
34 *2984:GATE_N *2984:D 4.82863e-05
35 *818:14 *2867:GATE_N 7.34286e-05
36 *818:14 *2884:D 0
37 *818:14 *2890:GATE_N 4.59493e-05
38 *818:14 *2963:GATE_N 0.000313685
39 *818:14 *2964:GATE_N 0.000405088
40 *818:14 *832:47 0
41 *818:14 *864:67 0
42 *818:18 *2874:D 0
43 *818:18 *2874:GATE_N 0.000202727
44 *818:18 *2890:GATE_N 0.000191932
45 *818:18 *2986:D 0
46 *818:24 *2869:D 6.44134e-05
47 *818:24 *2874:GATE_N 0
48 *818:24 *833:80 0
49 *818:26 *833:80 0
50 *818:30 *2968:GATE_N 0.000323652
51 *818:30 *2976:D 1.71013e-05
52 *818:30 *3016:D 0.000162318
53 *818:30 *833:69 0
54 *818:30 *833:80 0
55 *818:43 *2976:D 4.82863e-05
56 *818:54 *2456:B1 3.83194e-05
57 *818:54 *923:63 3.0807e-05
58 *818:56 *853:63 0
59 *818:56 *853:65 0
60 *818:56 *900:79 3.84331e-05
61 *2457:B2 *818:54 3.26223e-06
62 *2477:B2 *818:43 8.40213e-05
63 *2478:A1 *818:54 0.000134018
64 *2478:B2 *818:54 5.5489e-05
65 *2478:C1 *818:54 1.19928e-05
66 *2481:B *818:54 0.000718129
67 *2576:A1 *2977:GATE_N 0
68 *814:72 *2977:GATE_N 0
69 *815:22 *2979:GATE_N 0.000364632
70 *815:28 *2979:GATE_N 0.000226082
71 *815:28 *818:14 0.000500483
*RES
1 *3118:X *818:8 5.43 
2 *818:8 *818:14 16.815 
3 *818:14 *818:18 8.225 
4 *818:18 *818:24 9.395 
5 *818:24 *818:26 3.675 
6 *818:26 *818:30 13.07 
7 *818:30 *2976:GATE_N 2.755 
8 *818:30 *818:43 4.515 
9 *818:43 *2974:GATE_N 1.6 
10 *818:43 *818:54 16.865 
11 *818:54 *818:56 0.87 
12 *818:56 *2983:GATE_N 11.805 
13 *818:56 *2985:GATE_N 3.6 
14 *818:54 *2977:GATE_N 11.58 
15 *818:26 *2984:GATE_N 5.445 
16 *818:24 *2981:GATE_N 4.05 
17 *818:18 *2986:GATE_N 1.6 
18 *818:14 *2982:GATE_N 11.985 
19 *818:8 *2979:GATE_N 11.475 
*END

*D_NET *819 0.0140097
*CONN
*I *2975:GATE_N I *D sky130_fd_sc_hd__dlxtn_1
*I *2988:GATE_N I *D sky130_fd_sc_hd__dlxtn_1
*I *2989:GATE_N I *D sky130_fd_sc_hd__dlxtn_1
*I *2978:GATE_N I *D sky130_fd_sc_hd__dlxtn_1
*I *2980:GATE_N I *D sky130_fd_sc_hd__dlxtn_1
*I *2987:GATE_N I *D sky130_fd_sc_hd__dlxtn_1
*I *3119:X O *D sky130_fd_sc_hd__dlymetal6s2s_1
*CAP
1 *2975:GATE_N 0
2 *2988:GATE_N 0.000268183
3 *2989:GATE_N 0
4 *2978:GATE_N 0.000532017
5 *2980:GATE_N 0.000587671
6 *2987:GATE_N 0.000187059
7 *3119:X 0
8 *819:39 0.00132
9 *819:35 0.000863247
10 *819:27 0.000991472
11 *819:23 0.000505402
12 *819:4 0.000632106
13 *2978:GATE_N *2501:C1 0
14 *2978:GATE_N *2512:A2 7.89767e-05
15 *2978:GATE_N *2521:A2 0
16 *2978:GATE_N *2522:A2 0.000145265
17 *2978:GATE_N *2962:D 0.000208477
18 *2978:GATE_N *2962:GATE_N 0.000466902
19 *2978:GATE_N *2978:D 4.82863e-05
20 *2980:GATE_N *2522:A2 0.000549765
21 *2980:GATE_N *2523:A2 1.06624e-05
22 *2980:GATE_N *2523:B1 0
23 *2980:GATE_N *2852:GATE_N 7.9148e-05
24 *2980:GATE_N *2962:GATE_N 0.000126734
25 *2987:GATE_N *2987:D 0.000161529
26 *2987:GATE_N *938:26 0
27 *2988:GATE_N *821:10 0.00015829
28 *2988:GATE_N *821:16 0.000132842
29 *2988:GATE_N *837:83 2.49909e-05
30 *2988:GATE_N *864:47 1.83756e-05
31 *819:23 *2599:A2 5.34356e-05
32 *819:23 *3083:D 0.000158297
33 *819:23 *832:33 0.00057057
34 *819:23 *850:31 0.000146703
35 *819:23 *850:33 0.000193557
36 *819:23 *903:28 0.000158982
37 *819:27 *2469:A2 0.000108886
38 *819:27 *905:20 4.23703e-05
39 *819:27 *905:94 0
40 *819:35 *2469:A2 0.000235568
41 *819:35 *2989:D 8.73389e-06
42 *819:35 *905:20 0.000381498
43 *819:35 *905:33 1.48096e-05
44 *2510:A1 *819:35 4.40325e-06
45 *2510:A1 *819:39 0.000144557
46 *2511:B2 *2978:GATE_N 0.000309722
47 *2513:B1 *2978:GATE_N 9.42224e-05
48 *2521:B2 *2980:GATE_N 0.000136877
49 *2522:B2 *2980:GATE_N 0.000195658
50 *2523:A1 *2980:GATE_N 6.60042e-05
51 *2523:B2 *2980:GATE_N 0.000307607
52 *2620:B2 *819:35 0.000107045
53 *2621:C1 *819:35 4.82919e-05
54 *2622:A1 *2988:GATE_N 5.11148e-06
55 *2622:B2 *2988:GATE_N 0.000163439
56 *2996:GATE_N *2980:GATE_N 0
57 *3115:A *2987:GATE_N 6.20192e-05
58 *3116:A *2988:GATE_N 0.000648035
59 *3116:A *819:23 0.000329315
60 *3117:A *819:23 0.000143435
61 *3119:A *819:23 3.81581e-05
62 *3132:A *2988:GATE_N 0
63 *3194:A *2987:GATE_N 0.000542495
64 *3213:A *2987:GATE_N 0.000201916
65 *815:22 *2978:GATE_N 3.72754e-05
66 *817:24 *819:23 9.14049e-05
67 *817:28 *2978:GATE_N 0.000161893
68 *817:30 *2978:GATE_N 0
*RES
1 *3119:X *819:4 1.6 
2 *819:4 *2987:GATE_N 8.05 
3 *819:4 *819:23 18.385 
4 *819:23 *819:27 1.5 
5 *819:27 *819:35 10.155 
6 *819:35 *819:39 5.555 
7 *819:39 *2980:GATE_N 17.445 
8 *819:39 *2978:GATE_N 18.855 
9 *819:35 *2989:GATE_N 1.6 
10 *819:27 *2988:GATE_N 13.805 
11 *819:23 *2975:GATE_N 1.6 
*END

*D_NET *820 0.0197502
*CONN
*I *2966:GATE_N I *D sky130_fd_sc_hd__dlxtn_1
*I *2970:GATE_N I *D sky130_fd_sc_hd__dlxtn_1
*I *2972:GATE_N I *D sky130_fd_sc_hd__dlxtn_1
*I *2961:GATE_N I *D sky130_fd_sc_hd__dlxtn_1
*I *2965:GATE_N I *D sky130_fd_sc_hd__dlxtn_1
*I *2969:GATE_N I *D sky130_fd_sc_hd__dlxtn_1
*I *2967:GATE_N I *D sky130_fd_sc_hd__dlxtn_1
*I *2958:GATE_N I *D sky130_fd_sc_hd__dlxtn_1
*I *2968:GATE_N I *D sky130_fd_sc_hd__dlxtn_1
*I *2960:GATE_N I *D sky130_fd_sc_hd__dlxtn_1
*I *3120:X O *D sky130_fd_sc_hd__buf_2
*CAP
1 *2966:GATE_N 9.6968e-05
2 *2970:GATE_N 0.00078231
3 *2972:GATE_N 7.63251e-05
4 *2961:GATE_N 0.000274426
5 *2965:GATE_N 0
6 *2969:GATE_N 0
7 *2967:GATE_N 0.000655777
8 *2958:GATE_N 6.61071e-05
9 *2968:GATE_N 0.000512889
10 *2960:GATE_N 1.57589e-05
11 *3120:X 0
12 *820:104 0.00136392
13 *820:73 0.000958984
14 *820:38 0.00155395
15 *820:30 0.00119001
16 *820:24 0.00100946
17 *820:20 0.00101964
18 *820:12 0.00152032
19 *820:10 0.00144033
20 *820:4 0.000659829
21 *2958:GATE_N *836:67 4.74897e-05
22 *2958:GATE_N *877:79 4.44946e-05
23 *2961:GATE_N *833:12 0.000158539
24 *2966:GATE_N *2860:GATE_N 5.83121e-06
25 *2967:GATE_N *2554:A2 2.56373e-05
26 *2967:GATE_N *2557:A2 0.000151541
27 *2967:GATE_N *858:40 3.6229e-05
28 *2967:GATE_N *858:42 4.18603e-06
29 *2967:GATE_N *908:125 0.000601497
30 *2968:GATE_N *2976:D 0
31 *2968:GATE_N *873:84 0
32 *2970:GATE_N *2588:A2 1.2818e-05
33 *2970:GATE_N *2970:D 0.000502809
34 *2970:GATE_N *851:102 0.000283532
35 *2970:GATE_N *851:104 3.68999e-05
36 *2972:GATE_N *900:38 0.000200615
37 *2972:GATE_N *900:42 9.53428e-06
38 *820:10 *2587:A2 0.000219005
39 *820:10 *2860:GATE_N 0
40 *820:10 *836:10 0
41 *820:12 *2587:A2 0.000201335
42 *820:12 *836:10 0
43 *820:20 *2533:A2 7.67168e-05
44 *820:20 *2533:B1 9.30787e-05
45 *820:20 *2566:A2 0.000206789
46 *820:20 *2587:A2 0.000131754
47 *820:20 *831:53 0
48 *820:20 *836:10 0
49 *820:20 *923:71 5.53249e-06
50 *820:20 *923:80 0.000335468
51 *820:24 *2456:B1 0
52 *820:24 *2457:B1 7.09921e-05
53 *820:24 *831:53 0
54 *820:24 *831:63 0
55 *820:24 *923:71 0.000229007
56 *820:30 *2477:A2 0.000234234
57 *820:30 *831:63 0.000310768
58 *820:38 *836:67 6.63219e-06
59 *820:38 *877:79 6.63219e-06
60 *820:73 *2477:A2 0.000195928
61 *820:73 *831:63 0.000276883
62 *820:73 *908:85 0.000245556
63 *820:73 *908:125 0.000155707
64 *820:104 *900:38 9.80032e-06
65 *820:104 *900:42 0.000203231
66 *820:104 *900:48 0.000223194
67 *2457:A1 *820:24 9.30787e-05
68 *2458:B1 *820:24 0.000147093
69 *2543:B2 *820:10 0
70 *2568:B1 *820:24 0
71 *2588:A1 *2970:GATE_N 5.83576e-05
72 *2588:B2 *2970:GATE_N 0.000207226
73 *2590:A1 *2961:GATE_N 3.86529e-05
74 *2591:C *2972:GATE_N 9.52646e-05
75 *2993:GATE_N *2961:GATE_N 0
76 *3120:A *2966:GATE_N 3.00381e-05
77 *816:20 *820:20 0
78 *816:38 *820:24 0
79 *818:30 *2968:GATE_N 0.000323652
*RES
1 *3120:X *820:4 1.6 
2 *820:4 *820:10 10.49 
3 *820:10 *820:12 2.4 
4 *820:12 *820:20 10.8 
5 *820:20 *820:24 13.835 
6 *820:24 *820:30 5.315 
7 *820:30 *820:38 2.90197 
8 *820:38 *2960:GATE_N 3.8325 
9 *820:38 *2968:GATE_N 13.5225 
10 *820:30 *2958:GATE_N 5.235 
11 *820:24 *820:73 7.485 
12 *820:73 *2967:GATE_N 14.945 
13 *820:73 *2969:GATE_N 1.6 
14 *820:20 *2965:GATE_N 3.6 
15 *820:12 *820:104 13.835 
16 *820:104 *2961:GATE_N 11.06 
17 *820:104 *2972:GATE_N 4.045 
18 *820:10 *2970:GATE_N 17.07 
19 *820:4 *2966:GATE_N 3.355 
*END

*D_NET *821 0.0121237
*CONN
*I *2971:GATE_N I *D sky130_fd_sc_hd__dlxtn_1
*I *2959:GATE_N I *D sky130_fd_sc_hd__dlxtn_1
*I *2973:GATE_N I *D sky130_fd_sc_hd__dlxtn_1
*I *2962:GATE_N I *D sky130_fd_sc_hd__dlxtn_1
*I *2963:GATE_N I *D sky130_fd_sc_hd__dlxtn_1
*I *2964:GATE_N I *D sky130_fd_sc_hd__dlxtn_1
*I *3121:X O *D sky130_fd_sc_hd__dlymetal6s2s_1
*CAP
1 *2971:GATE_N 2.57851e-05
2 *2959:GATE_N 7.52257e-05
3 *2973:GATE_N 2.08101e-05
4 *2962:GATE_N 0.000591543
5 *2963:GATE_N 0.000143161
6 *2964:GATE_N 0.000129287
7 *3121:X 8.28116e-05
8 *821:22 0.000452754
9 *821:18 0.000911152
10 *821:16 0.00052685
11 *821:10 0.000938747
12 *821:6 0.000605382
13 *2959:GATE_N *925:72 8.25481e-05
14 *2962:GATE_N *2883:D 0
15 *2962:GATE_N *2883:GATE_N 0.000302052
16 *2963:GATE_N *2867:GATE_N 0.000288938
17 *2963:GATE_N *2868:GATE_N 3.09233e-05
18 *2963:GATE_N *2963:D 4.99619e-05
19 *2964:GATE_N *2868:GATE_N 0.00040106
20 *821:6 *903:91 0.000194694
21 *821:6 *907:12 0.000230429
22 *821:10 *2621:B1 0
23 *821:10 *903:24 0.000372434
24 *821:10 *907:12 2.92496e-05
25 *821:10 *909:30 0
26 *821:16 *2621:B1 0
27 *821:16 *2973:D 8.41307e-05
28 *821:16 *834:14 8.49205e-05
29 *821:16 *834:44 0.000382997
30 *821:16 *844:45 0.00029933
31 *821:18 *2523:B1 0.000258374
32 *821:18 *834:14 0.000605785
33 *821:22 *2523:B1 7.1528e-05
34 *821:22 *3012:D 8.8266e-05
35 *821:22 *834:14 0.000724032
36 *2503:D *2971:GATE_N 1.91597e-05
37 *2503:D *821:6 2.05056e-05
38 *2621:B2 *821:16 0.000160641
39 *2622:A1 *821:16 0.000100139
40 *2622:B2 *821:16 4.82919e-05
41 *2978:GATE_N *2962:GATE_N 0.000466902
42 *2980:GATE_N *2962:GATE_N 0.000126734
43 *2988:GATE_N *821:10 0.00015829
44 *2988:GATE_N *821:16 0.000132842
45 *2996:GATE_N *2962:GATE_N 0
46 *3007:GATE_N *821:16 1.48096e-05
47 *3116:A *821:10 0.000355455
48 *3119:A *821:10 0.000225175
49 *3130:A *2959:GATE_N 0.000229541
50 *815:28 *821:22 5.83121e-06
51 *815:38 *821:16 1.47347e-05
52 *815:38 *821:18 5.78094e-05
53 *815:38 *821:22 0.00018291
54 *817:30 *2962:GATE_N 0
55 *817:51 *2962:GATE_N 0
56 *818:14 *2963:GATE_N 0.000313685
57 *818:14 *2964:GATE_N 0.000405088
*RES
1 *3121:X *821:6 4.12 
2 *821:6 *821:10 14.345 
3 *821:10 *821:16 11.33 
4 *821:16 *821:18 5.625 
5 *821:18 *821:22 9.005 
6 *821:22 *2964:GATE_N 8.295 
7 *821:22 *2963:GATE_N 8.415 
8 *821:18 *2962:GATE_N 19.475 
9 *821:16 *2973:GATE_N 1.96 
10 *821:10 *2959:GATE_N 5.775 
11 *821:6 *2971:GATE_N 2.05 
*END

*D_NET *822 0.0274505
*CONN
*I *2956:GATE_N I *D sky130_fd_sc_hd__dlxtn_1
*I *2945:GATE_N I *D sky130_fd_sc_hd__dlxtn_1
*I *2953:GATE_N I *D sky130_fd_sc_hd__dlxtn_1
*I *2951:GATE_N I *D sky130_fd_sc_hd__dlxtn_1
*I *2949:GATE_N I *D sky130_fd_sc_hd__dlxtn_1
*I *2952:GATE_N I *D sky130_fd_sc_hd__dlxtn_1
*I *2954:GATE_N I *D sky130_fd_sc_hd__dlxtn_1
*I *2944:GATE_N I *D sky130_fd_sc_hd__dlxtn_1
*I *2942:GATE_N I *D sky130_fd_sc_hd__dlxtn_1
*I *2943:GATE_N I *D sky130_fd_sc_hd__dlxtn_1
*I *3122:X O *D sky130_fd_sc_hd__buf_2
*CAP
1 *2956:GATE_N 0
2 *2945:GATE_N 0.00172071
3 *2953:GATE_N 0
4 *2951:GATE_N 0
5 *2949:GATE_N 0
6 *2952:GATE_N 0.000379729
7 *2954:GATE_N 0.000259449
8 *2944:GATE_N 0.000598879
9 *2942:GATE_N 0.000608033
10 *2943:GATE_N 0.00160854
11 *3122:X 0.000161591
12 *822:134 0.000440928
13 *822:117 0.000792947
14 *822:90 0.00110836
15 *822:86 0.000423129
16 *822:59 0.0011291
17 *822:55 0.000323436
18 *822:49 0.00292392
19 *822:39 0.00142504
20 *822:6 0.00218028
21 *2942:GATE_N *2476:A2 7.93076e-08
22 *2942:GATE_N *2573:A2 6.9114e-05
23 *2942:GATE_N *911:92 0
24 *2942:GATE_N *918:55 0.00019171
25 *2943:GATE_N *2520:B1 6.95739e-05
26 *2943:GATE_N *837:83 1.01851e-05
27 *2943:GATE_N *864:10 0.0001947
28 *2943:GATE_N *865:59 0.000327774
29 *2943:GATE_N *876:41 0.000107415
30 *2944:GATE_N *2474:A2 0
31 *2944:GATE_N *2550:A2 3.17398e-05
32 *2944:GATE_N *2912:GATE_N 4.11393e-05
33 *2944:GATE_N *827:62 0.000104599
34 *2944:GATE_N *859:56 8.67698e-06
35 *2944:GATE_N *859:67 0.000128788
36 *2944:GATE_N *874:44 0.000100734
37 *2944:GATE_N *892:121 7.70828e-05
38 *2945:GATE_N *827:100 0
39 *2945:GATE_N *829:100 0.000276441
40 *2945:GATE_N *853:6 6.66464e-05
41 *2945:GATE_N *854:42 0.00086204
42 *2945:GATE_N *892:49 0
43 *2952:GATE_N *2474:A2 0.000176715
44 *2952:GATE_N *2547:A2 3.64998e-06
45 *2952:GATE_N *2949:D 4.01778e-05
46 *2952:GATE_N *856:74 0.00015896
47 *2952:GATE_N *916:115 0.000136418
48 *2954:GATE_N *827:48 0.000333496
49 *2954:GATE_N *863:77 3.96284e-05
50 *2954:GATE_N *932:49 3.59784e-05
51 *822:6 *865:59 1.9415e-05
52 *822:39 *2509:A2 0.00015639
53 *822:39 *2608:A2 2.16389e-05
54 *822:39 *3068:D 1.14559e-05
55 *822:39 *848:10 8.08153e-06
56 *822:39 *848:16 8.53307e-05
57 *822:39 *881:57 0
58 *822:39 *919:55 4.70999e-05
59 *822:49 *851:20 0
60 *822:49 *852:40 0
61 *822:49 *860:34 0.000119631
62 *822:49 *894:112 0
63 *822:55 *2905:D 0
64 *822:55 *2953:D 0
65 *822:55 *827:62 7.35729e-05
66 *822:59 *911:78 0
67 *822:86 *859:14 0
68 *822:86 *859:24 0.00030504
69 *822:86 *859:56 0.0001022
70 *822:117 *2550:A2 4.50153e-05
71 *822:117 *2949:D 0.000122325
72 *822:117 *838:105 0.000170734
73 *822:117 *892:121 0.0006627
74 *822:134 *2949:D 0.000230435
75 *2451:A1 *2942:GATE_N 0.00015847
76 *2452:C1 *2942:GATE_N 0
77 *2466:A1 *2943:GATE_N 6.83488e-05
78 *2493:A1 *822:49 0.000395278
79 *2519:B2 *2943:GATE_N 8.37346e-05
80 *2520:A1 *2943:GATE_N 0.000157602
81 *2525:A *2943:GATE_N 5.13155e-05
82 *2537:B2 *2954:GATE_N 0.000411679
83 *2545:A *822:39 0
84 *2548:B1 *822:39 8.7152e-06
85 *2551:A1 *2944:GATE_N 0.000193801
86 *2564:A1 *2945:GATE_N 6.0717e-05
87 *2573:C1 *822:117 0.000293025
88 *2574:A1 *2945:GATE_N 9.49333e-05
89 *2581:B1 *2942:GATE_N 0
90 *2581:B1 *822:59 0
91 *2607:B2 *822:49 3.98712e-05
92 *3040:GATE_N *2944:GATE_N 0
93 *3040:GATE_N *2952:GATE_N 0.000306884
94 *3049:GATE_N *2945:GATE_N 1.83847e-05
95 *3063:GATE_N *2944:GATE_N 6.22258e-05
96 *3106:A *822:49 8.66107e-06
97 *3108:A *822:6 0.000161529
98 *3108:A *822:39 0.000106884
99 *3157:A *2944:GATE_N 7.23324e-05
100 *3157:A *2954:GATE_N 0.000333496
101 *3186:A *2943:GATE_N 2.0644e-05
102 *3188:A *822:39 0.000115872
103 *551:40 *822:117 0.000138277
104 *551:40 *822:134 2.05056e-05
105 *580:16 *2943:GATE_N 0.000119762
106 *590:24 *822:49 0
107 *641:10 *2954:GATE_N 8.49205e-05
108 *805:127 *822:49 3.53512e-05
109 *805:148 *822:117 0.000226203
110 *807:99 *822:39 2.59981e-05
111 *807:115 *822:39 0.000126653
112 *807:115 *822:49 2.10433e-05
113 *809:14 *822:39 9.87604e-05
114 *809:20 *822:39 3.63096e-05
115 *809:20 *822:49 5.93963e-05
116 *809:28 *822:49 0.000143912
117 *809:32 *822:49 7.06865e-05
118 *809:38 *822:49 0.000301464
119 *809:38 *822:55 4.20983e-05
120 *809:44 *2942:GATE_N 0
121 *809:44 *822:55 0.000103185
122 *809:44 *822:59 0
123 *809:111 *822:117 0.000566582
124 *809:111 *822:134 0.000146408
125 *811:26 *822:49 0
126 *811:143 *822:49 0
*RES
1 *3122:X *822:6 3.775 
2 *822:6 *2943:GATE_N 27.995 
3 *822:6 *822:39 14.58 
4 *822:39 *822:49 23.635 
5 *822:49 *822:55 6.05 
6 *822:55 *822:59 4.145 
7 *822:59 *2942:GATE_N 13.845 
8 *822:59 *822:86 9.02 
9 *822:86 *822:90 2.45 
10 *822:90 *2944:GATE_N 19.27 
11 *822:90 *822:117 17.33 
12 *822:117 *2954:GATE_N 13.79 
13 *822:117 *822:134 2.175 
14 *822:134 *2952:GATE_N 12.86 
15 *822:134 *2949:GATE_N 1.6 
16 *822:86 *2951:GATE_N 1.6 
17 *822:55 *2953:GATE_N 1.6 
18 *822:49 *2945:GATE_N 30.79 
19 *822:39 *2956:GATE_N 3.6 
*END

*D_NET *823 0.0163754
*CONN
*I *2957:GATE_N I *D sky130_fd_sc_hd__dlxtn_1
*I *2950:GATE_N I *D sky130_fd_sc_hd__dlxtn_1
*I *2947:GATE_N I *D sky130_fd_sc_hd__dlxtn_1
*I *2946:GATE_N I *D sky130_fd_sc_hd__dlxtn_1
*I *2955:GATE_N I *D sky130_fd_sc_hd__dlxtn_1
*I *2948:GATE_N I *D sky130_fd_sc_hd__dlxtn_1
*I *3123:X O *D sky130_fd_sc_hd__clkbuf_2
*CAP
1 *2957:GATE_N 2.18567e-05
2 *2950:GATE_N 0.000464333
3 *2947:GATE_N 0
4 *2946:GATE_N 3.7107e-05
5 *2955:GATE_N 0
6 *2948:GATE_N 0.000711862
7 *3123:X 0
8 *823:68 0.000897311
9 *823:51 0.000501057
10 *823:20 0.00179816
11 *823:8 0.00303697
12 *823:4 0.00200351
13 *2948:GATE_N *2911:D 0.000196361
14 *2948:GATE_N *3216:A 0.00100058
15 *2948:GATE_N *831:18 0
16 *2948:GATE_N *831:22 0
17 *2948:GATE_N *864:47 5.42473e-05
18 *2948:GATE_N *875:81 0.000152127
19 *2948:GATE_N *892:33 0
20 *2948:GATE_N *922:47 0
21 *2948:GATE_N *925:72 2.42236e-05
22 *2950:GATE_N *2507:A2 0
23 *2950:GATE_N *2517:A2 0.000662497
24 *2950:GATE_N *2517:B1 0.000877065
25 *2950:GATE_N *838:28 4.19894e-05
26 *2950:GATE_N *860:97 9.87526e-05
27 *2950:GATE_N *861:79 0
28 *2957:GATE_N *2957:D 8.49205e-05
29 *2957:GATE_N *839:75 4.80285e-05
30 *823:8 *2409:A 0.000229025
31 *823:8 *2423:A 7.73773e-05
32 *823:8 *2499:A2 9.46525e-06
33 *823:8 *2509:A2 5.41776e-05
34 *823:8 *895:71 7.26176e-06
35 *823:8 *897:45 0.000120655
36 *823:8 *912:27 0.000158445
37 *823:8 *933:18 0.000498768
38 *823:20 *2859:GATE_N 2.75229e-05
39 *823:20 *2882:GATE_N 0.000155836
40 *823:20 *2939:GATE_N 7.06865e-05
41 *823:20 *849:37 0.000149259
42 *823:20 *849:41 1.56428e-05
43 *823:20 *912:27 2.20732e-05
44 *823:51 *867:28 0.000120655
45 *823:51 *895:71 2.8185e-05
46 *823:68 *2507:A2 2.9576e-05
47 *823:68 *2517:B1 0.000145349
48 *823:68 *2915:D 0.00015017
49 *823:68 *838:28 0.000117358
50 *823:68 *867:18 1.56428e-05
51 *823:68 *867:28 3.59784e-05
52 *823:68 *895:81 0.000155928
53 *2462:A1 *2948:GATE_N 0.000158004
54 *2499:B2 *823:8 1.56428e-05
55 *2503:C *823:8 1.3582e-05
56 *2601:B2 *823:20 1.6408e-05
57 *2601:C1 *823:20 7.06865e-05
58 *2617:B2 *2950:GATE_N 5.50357e-05
59 *2617:B2 *823:68 8.92657e-05
60 *3055:GATE_N *2948:GATE_N 2.05191e-05
61 *3062:GATE_N *2950:GATE_N 0.00011381
62 *3105:A *823:68 0.000216654
63 *3123:A *823:8 0.000142183
64 *3170:A *2948:GATE_N 2.75145e-05
65 *3171:A *2948:GATE_N 0
66 *808:80 *2948:GATE_N 2.24975e-05
67 *808:80 *823:20 0.00030563
*RES
1 *3123:X *823:4 1.6 
2 *823:4 *823:8 23.835 
3 *823:8 *823:20 17.77 
4 *823:20 *2948:GATE_N 22.46 
5 *823:20 *2955:GATE_N 1.6 
6 *823:8 *2946:GATE_N 2.215 
7 *823:4 *823:51 1.83 
8 *823:51 *2947:GATE_N 1.6 
9 *823:51 *823:68 11.645 
10 *823:68 *2950:GATE_N 17.73 
11 *823:68 *2957:GATE_N 4.395 
*END

*D_NET *824 0.00207202
*CONN
*I *2649:A1 I *D sky130_fd_sc_hd__mux2_1
*I *3246:X O *D sky130_fd_sc_hd__clkbuf_1
*CAP
1 *2649:A1 0.000862079
2 *3246:X 0.000862079
3 *2649:A1 *2633:A 4.00541e-06
4 *2649:A1 *2649:S 4.82863e-05
5 *2649:A1 *3341:A 2.11084e-05
6 *2649:A1 *842:18 0
7 *2649:A1 *987:10 5.08588e-05
8 PWDATA[6] *2649:A1 8.53113e-06
9 *2797:D *2649:A1 4.66108e-05
10 *2813:D *2649:A1 0.000134641
11 *3246:A *2649:A1 3.38178e-05
*RES
1 *3246:X *2649:A1 18.36 
*END

*D_NET *825 0.0195553
*CONN
*I *2933:GATE_N I *D sky130_fd_sc_hd__dlxtn_1
*I *2936:GATE_N I *D sky130_fd_sc_hd__dlxtn_1
*I *2940:GATE_N I *D sky130_fd_sc_hd__dlxtn_1
*I *2934:GATE_N I *D sky130_fd_sc_hd__dlxtn_1
*I *2929:GATE_N I *D sky130_fd_sc_hd__dlxtn_1
*I *2928:GATE_N I *D sky130_fd_sc_hd__dlxtn_1
*I *2926:GATE_N I *D sky130_fd_sc_hd__dlxtn_1
*I *2935:GATE_N I *D sky130_fd_sc_hd__dlxtn_1
*I *2937:GATE_N I *D sky130_fd_sc_hd__dlxtn_1
*I *2938:GATE_N I *D sky130_fd_sc_hd__dlxtn_1
*I *3124:X O *D sky130_fd_sc_hd__buf_2
*CAP
1 *2933:GATE_N 0
2 *2936:GATE_N 0.000329685
3 *2940:GATE_N 3.77548e-05
4 *2934:GATE_N 3.07065e-05
5 *2929:GATE_N 0.000234704
6 *2928:GATE_N 3.91004e-05
7 *2926:GATE_N 0
8 *2935:GATE_N 0
9 *2937:GATE_N 0.000499334
10 *2938:GATE_N 0.000506012
11 *3124:X 9.29231e-05
12 *825:130 0.000740388
13 *825:61 0.000678996
14 *825:51 0.000511839
15 *825:43 0.000793721
16 *825:41 0.000997565
17 *825:20 0.00112026
18 *825:18 0.00117258
19 *825:8 0.0012592
20 *825:6 0.000857026
21 *2928:GATE_N *2928:D 0.0001249
22 *2929:GATE_N *2929:D 1.56428e-05
23 *2934:GATE_N *881:57 2.53191e-06
24 *2934:GATE_N *911:25 0
25 *2936:GATE_N *2655:A1 0.000119762
26 *2936:GATE_N *2655:S 2.88598e-05
27 *2936:GATE_N *2949:D 6.65066e-05
28 *2936:GATE_N *3064:D 3.00381e-05
29 *2936:GATE_N *827:48 0
30 *2936:GATE_N *838:105 0.00023912
31 *2936:GATE_N *856:60 6.59214e-05
32 *2936:GATE_N *863:40 1.01661e-05
33 *2936:GATE_N *896:48 6.12267e-05
34 *2937:GATE_N *2453:A2 0.000131334
35 *2937:GATE_N *2453:B1 4.82863e-05
36 *2937:GATE_N *2921:D 0.000180682
37 *2937:GATE_N *827:100 0
38 *2937:GATE_N *853:12 8.65961e-05
39 *2937:GATE_N *892:49 0
40 *2938:GATE_N *2585:B1 1.03592e-05
41 *2938:GATE_N *2938:D 0.000201503
42 *2938:GATE_N *847:131 3.24154e-05
43 *2938:GATE_N *851:20 5.50624e-05
44 *2938:GATE_N *892:33 0
45 *2938:GATE_N *898:20 0.000132099
46 *825:8 *2940:D 3.99879e-05
47 *825:8 *847:135 4.05674e-06
48 *825:18 *2507:A2 0.000111777
49 *825:18 *847:135 1.17409e-05
50 *825:18 *848:27 2.67503e-05
51 *825:18 *848:36 0.000125583
52 *825:18 *851:20 0.000302463
53 *825:18 *896:12 6.06649e-05
54 *825:18 *898:89 2.7693e-05
55 *825:20 *851:20 0.000402281
56 *825:41 *3206:A 4.13769e-05
57 *825:41 *894:29 0.000894135
58 *825:41 *914:10 0.000546324
59 *825:41 *914:16 0.000126679
60 *825:41 *918:10 9.05649e-05
61 *825:41 *918:109 8.73125e-05
62 *825:43 *2919:GATE_N 6.28687e-05
63 *825:43 *894:37 0.000399726
64 *825:43 *914:16 0.000338739
65 *825:43 *914:18 0.000146779
66 *825:43 *916:32 0
67 *825:51 *2453:B1 0.000316477
68 *825:51 *2454:A2 1.2818e-05
69 *825:51 *2552:A2 7.00889e-06
70 *825:51 *2926:D 0.000176268
71 *825:51 *914:18 4.21008e-05
72 *825:51 *914:22 1.02346e-05
73 *825:61 *2453:A2 4.99619e-05
74 *825:61 *2453:B1 0
75 *825:61 *2454:B1 0
76 *825:61 *858:34 2.30292e-05
77 *825:130 *2546:A2 1.82563e-05
78 *825:130 *2918:GATE_N 0
79 *825:130 *827:44 0
80 *825:130 *827:48 0
81 *825:130 *863:40 6.2768e-05
82 *825:130 *896:48 0
83 *825:130 *932:30 1.88602e-05
84 *2453:A1 *2937:GATE_N 2.99518e-06
85 *2453:A1 *825:61 0
86 *2454:B2 *825:51 2.49708e-05
87 *2454:C1 *2937:GATE_N 1.47347e-05
88 *2454:C1 *825:61 0.000143914
89 *2476:B2 *2928:GATE_N 3.00381e-05
90 *2487:A1 *825:41 0.000136884
91 *2487:A1 *825:43 8.53113e-06
92 *2493:B2 *2929:GATE_N 4.82748e-05
93 *2539:B2 *2934:GATE_N 5.30242e-05
94 *2541:A1 *2934:GATE_N 1.81461e-05
95 *2545:C *2938:GATE_N 0.000335228
96 *2545:C *825:18 9.83311e-05
97 *2545:C *825:20 0.000405401
98 *2546:A1 *825:130 5.13155e-05
99 *2552:B2 *825:51 0.000232111
100 *2558:A *2937:GATE_N 0
101 *2574:B2 *825:43 6.28843e-05
102 *2575:B2 *2937:GATE_N 0
103 *2584:A1 *825:130 0
104 *2592:A1 *825:130 5.98004e-06
105 *2592:B2 *825:18 0
106 *2592:B2 *825:130 7.83172e-05
107 *2606:A1 *825:6 1.54878e-05
108 *2606:A1 *825:8 9.60582e-07
109 *2608:C1 *825:18 2.89319e-05
110 *2639:B *2936:GATE_N 0.000134245
111 *3036:GATE_N *825:18 1.83847e-05
112 *3054:GATE_N *825:43 3.18735e-05
113 *3144:A *2938:GATE_N 0.000515582
114 *3151:A *825:43 0
115 *3151:A *825:51 0
116 *641:10 *2936:GATE_N 8.53255e-05
117 *641:10 *825:130 8.1552e-05
118 *807:115 *825:18 0.000281815
119 *811:26 *825:130 0.000479952
120 *811:60 *2937:GATE_N 0
*RES
1 *3124:X *825:6 2.74 
2 *825:6 *825:8 3.9 
3 *825:8 *825:18 9.38543 
4 *825:18 *825:20 1.0868 
5 *825:20 *2938:GATE_N 10.0578 
6 *825:20 *825:41 12.9725 
7 *825:41 *825:43 11.07 
8 *825:43 *825:51 10.31 
9 *825:51 *825:61 7.39 
10 *825:61 *2937:GATE_N 13.955 
11 *825:61 *2935:GATE_N 1.6 
12 *825:51 *2926:GATE_N 1.6 
13 *825:43 *2928:GATE_N 4.74 
14 *825:41 *2929:GATE_N 6.39 
15 *825:18 *2934:GATE_N 4.8425 
16 *825:8 *2940:GATE_N 2.215 
17 *825:6 *825:130 11.54 
18 *825:130 *2936:GATE_N 15.865 
19 *825:130 *2933:GATE_N 3.6 
*END

*D_NET *826 0.016583
*CONN
*I *2930:GATE_N I *D sky130_fd_sc_hd__dlxtn_1
*I *2931:GATE_N I *D sky130_fd_sc_hd__dlxtn_1
*I *2941:GATE_N I *D sky130_fd_sc_hd__dlxtn_1
*I *2927:GATE_N I *D sky130_fd_sc_hd__dlxtn_1
*I *2932:GATE_N I *D sky130_fd_sc_hd__dlxtn_1
*I *2939:GATE_N I *D sky130_fd_sc_hd__dlxtn_1
*I *3125:X O *D sky130_fd_sc_hd__clkbuf_2
*CAP
1 *2930:GATE_N 7.35673e-05
2 *2931:GATE_N 0
3 *2941:GATE_N 0.000611877
4 *2927:GATE_N 0
5 *2932:GATE_N 0.000797691
6 *2939:GATE_N 0.000758778
7 *3125:X 0.000260618
8 *826:47 0.000920575
9 *826:26 0.00161501
10 *826:16 0.00148947
11 *826:12 0.000631991
12 *826:10 0.000821933
13 *2930:GATE_N *869:66 0.000197264
14 *2930:GATE_N *869:106 8.31152e-05
15 *2930:GATE_N *897:29 4.08514e-05
16 *2932:GATE_N *2520:A2 0.000598435
17 *2932:GATE_N *2879:D 3.64998e-06
18 *2932:GATE_N *2900:GATE_N 0.000175585
19 *2932:GATE_N *829:20 0
20 *2932:GATE_N *829:37 0
21 *2932:GATE_N *837:83 0.000103811
22 *2932:GATE_N *864:10 0
23 *2932:GATE_N *892:33 0.000285668
24 *2939:GATE_N *2465:B1 0.00015639
25 *2939:GATE_N *2519:B1 0.000461468
26 *2939:GATE_N *3206:A 0.000195764
27 *2939:GATE_N *875:122 0.000157551
28 *2939:GATE_N *899:29 0.000120345
29 *2939:GATE_N *912:10 6.11203e-05
30 *2939:GATE_N *912:12 0.000193748
31 *2941:GATE_N *2899:GATE_N 7.23533e-05
32 *2941:GATE_N *893:97 7.23533e-05
33 *826:10 *2419:B 6.66464e-05
34 *826:10 *2898:D 0
35 *826:10 *3058:D 0.000295558
36 *826:10 *829:10 0.000143053
37 *826:10 *829:20 2.06578e-05
38 *826:12 *2496:A2 0
39 *826:12 *2504:A2 8.89968e-05
40 *826:12 *3058:D 0.00050766
41 *826:12 *828:8 5.24801e-05
42 *826:12 *828:18 5.76869e-05
43 *826:12 *933:24 1.48335e-05
44 *826:26 *2465:B1 0.000614071
45 *826:26 *875:122 0.000222134
46 *826:26 *911:25 3.9389e-05
47 *826:47 *2831:GATE_N 2.62107e-05
48 *826:47 *829:20 0
49 *2466:A1 *2932:GATE_N 1.33293e-05
50 *2472:B *2941:GATE_N 0.000808529
51 *2472:B *826:26 0.000684173
52 *2503:B *2930:GATE_N 5.63701e-05
53 *2504:A1 *826:12 0
54 *2601:C1 *2939:GATE_N 5.04904e-05
55 *2614:B2 *2932:GATE_N 8.40213e-05
56 *3039:GATE_N *826:26 9.10586e-05
57 *3122:A *826:12 0
58 *3122:A *826:16 0
59 *3127:A *2930:GATE_N 1.91597e-05
60 *3128:A *826:10 8.65961e-05
61 *3129:A *826:12 0
62 *3138:A *826:10 8.66976e-06
63 *3138:A *826:12 0
64 *3190:A *2939:GATE_N 0.000294661
65 *561:14 *826:12 4.1977e-05
66 *580:16 *2932:GATE_N 0.000485819
67 *812:28 *826:12 0.000167607
68 *812:28 *826:16 0.000200648
69 *812:36 *826:16 9.54399e-05
70 *812:76 *2932:GATE_N 0.000116835
71 *812:76 *826:47 9.65328e-05
72 *823:20 *2939:GATE_N 7.06865e-05
*RES
1 *3125:X *826:10 9.795 
2 *826:10 *826:12 10.56 
3 *826:12 *826:16 5.42 
4 *826:16 *826:26 14.055 
5 *826:26 *2939:GATE_N 23.555 
6 *826:26 *826:47 4.4 
7 *826:47 *2932:GATE_N 24.01 
8 *826:47 *2927:GATE_N 3.6 
9 *826:16 *2941:GATE_N 14.165 
10 *826:12 *2931:GATE_N 3.6 
11 *826:10 *2930:GATE_N 6.12 
*END

*D_NET *827 0.0235318
*CONN
*I *2918:GATE_N I *D sky130_fd_sc_hd__dlxtn_1
*I *2920:GATE_N I *D sky130_fd_sc_hd__dlxtn_1
*I *2912:GATE_N I *D sky130_fd_sc_hd__dlxtn_1
*I *2919:GATE_N I *D sky130_fd_sc_hd__dlxtn_1
*I *2913:GATE_N I *D sky130_fd_sc_hd__dlxtn_1
*I *2917:GATE_N I *D sky130_fd_sc_hd__dlxtn_1
*I *2921:GATE_N I *D sky130_fd_sc_hd__dlxtn_1
*I *2910:GATE_N I *D sky130_fd_sc_hd__dlxtn_1
*I *2924:GATE_N I *D sky130_fd_sc_hd__dlxtn_1
*I *2922:GATE_N I *D sky130_fd_sc_hd__dlxtn_1
*I *3126:X O *D sky130_fd_sc_hd__buf_2
*CAP
1 *2918:GATE_N 0.000174998
2 *2920:GATE_N 4.61528e-05
3 *2912:GATE_N 0.000288711
4 *2919:GATE_N 5.08751e-05
5 *2913:GATE_N 0.00012344
6 *2917:GATE_N 0.00032661
7 *2921:GATE_N 0
8 *2910:GATE_N 0.000630226
9 *2924:GATE_N 0.000269231
10 *2922:GATE_N 0.000262287
11 *3126:X 0
12 *827:100 0.000982589
13 *827:70 0.000913305
14 *827:64 0.0016159
15 *827:62 0.00307499
16 *827:52 0.00271569
17 *827:48 0.000859607
18 *827:44 0.00141842
19 *827:8 0.000589295
20 *827:4 0.000690879
21 *2910:GATE_N *2555:A2 0
22 *2910:GATE_N *2556:A2 0
23 *2910:GATE_N *2557:C1 7.71199e-05
24 *2910:GATE_N *884:65 3.07961e-05
25 *2913:GATE_N *2564:A2 3.08098e-05
26 *2913:GATE_N *831:28 5.05521e-05
27 *2913:GATE_N *871:33 0.000490263
28 *2917:GATE_N *3029:D 4.70804e-05
29 *2917:GATE_N *831:28 0.000132406
30 *2917:GATE_N *871:33 0.000234674
31 *2918:GATE_N *861:79 5.07419e-05
32 *2920:GATE_N *856:67 8.23457e-05
33 *2922:GATE_N *2922:D 2.49909e-05
34 *2922:GATE_N *852:40 0
35 *2922:GATE_N *896:12 0
36 *2922:GATE_N *896:33 0
37 *2922:GATE_N *911:54 0.000132089
38 *2922:GATE_N *911:72 0.000162325
39 *2924:GATE_N *2924:D 9.9881e-05
40 *2924:GATE_N *896:12 0
41 *827:8 *896:33 8.60799e-05
42 *827:44 *2844:D 1.83847e-05
43 *827:44 *860:34 0.000173586
44 *827:44 *894:127 2.19562e-06
45 *827:44 *896:33 0.000109603
46 *827:48 *2546:A2 7.36562e-05
47 *827:48 *2949:D 8.78813e-05
48 *827:48 *838:105 0
49 *827:48 *863:38 6.22258e-05
50 *827:48 *863:40 4.70466e-05
51 *827:52 *838:105 0
52 *827:62 *2562:A2 3.38425e-05
53 *827:62 *859:67 1.83756e-05
54 *827:62 *896:50 3.86529e-05
55 *827:62 *911:131 7.79847e-05
56 *827:64 *2921:D 0.000204034
57 *827:64 *3065:D 3.64998e-06
58 *827:64 *854:6 2.05056e-05
59 *827:70 *2555:A2 0
60 *827:70 *3065:D 1.83756e-05
61 *827:70 *853:27 1.71076e-05
62 *827:100 *3065:D 4.9968e-05
63 *827:100 *3080:D 5.65354e-05
64 *827:100 *853:12 9.14049e-05
65 *2453:A1 *2910:GATE_N 0.000163199
66 *2459:A *2910:GATE_N 0.00041326
67 *2489:A1 *2917:GATE_N 0
68 *2492:B *2917:GATE_N 0
69 *2536:A *2917:GATE_N 1.79536e-05
70 *2546:B2 *827:44 0.000206798
71 *2557:B1 *2910:GATE_N 0.000113416
72 *2561:B2 *827:48 0.00011456
73 *2564:A1 *827:100 0
74 *2564:B2 *2913:GATE_N 0.000116893
75 *2564:B2 *827:100 0
76 *2564:C1 *2913:GATE_N 2.75145e-05
77 *2574:B2 *827:64 2.86265e-06
78 *2581:B1 *827:62 0.000158072
79 *2592:B1 *827:48 0.000135526
80 *2592:B2 *827:48 2.97206e-06
81 *2606:A1 *2918:GATE_N 2.8185e-05
82 *2607:A1 *2922:GATE_N 0
83 *2608:B2 *2924:GATE_N 4.34171e-05
84 *2608:C1 *2922:GATE_N 8.53113e-06
85 *2608:C1 *2924:GATE_N 0.000265426
86 *2614:A1 *827:44 0.000123492
87 *2936:GATE_N *827:48 0
88 *2937:GATE_N *827:100 0
89 *2944:GATE_N *2912:GATE_N 4.11393e-05
90 *2944:GATE_N *827:62 0.000104599
91 *2945:GATE_N *827:100 0
92 *2954:GATE_N *827:48 0.000333496
93 *3031:GATE_N *827:62 3.67779e-05
94 *3034:GATE_N *2917:GATE_N 8.33567e-05
95 *3062:GATE_N *2918:GATE_N 0.000163837
96 *3065:GATE_N *827:64 7.22753e-05
97 *3065:GATE_N *827:70 2.66586e-05
98 *3070:GATE_N *2910:GATE_N 0
99 *3126:A *2922:GATE_N 0
100 *3126:A *2924:GATE_N 0
101 *3151:A *2919:GATE_N 4.40725e-05
102 *3151:A *827:62 7.10578e-05
103 *3151:A *827:64 0.000242354
104 *3157:A *2918:GATE_N 0.000195972
105 *3157:A *827:48 0.000433067
106 *3157:A *827:52 0.000471989
107 *805:72 *2917:GATE_N 0.000401281
108 *805:148 *827:52 9.37731e-05
109 *805:148 *827:62 0.000270415
110 *807:115 *2918:GATE_N 0.000106307
111 *811:26 *2922:GATE_N 2.75145e-05
112 *811:60 *2910:GATE_N 0.000218863
113 *811:60 *827:70 4.40725e-05
114 *811:60 *827:100 0
115 *811:97 *827:100 0
116 *822:55 *827:62 7.35729e-05
117 *825:43 *2919:GATE_N 6.28687e-05
118 *825:130 *2918:GATE_N 0
119 *825:130 *827:44 0
120 *825:130 *827:48 0
*RES
1 *3126:X *827:4 1.6 
2 *827:4 *827:8 2.795 
3 *827:8 *2922:GATE_N 8.745 
4 *827:8 *2924:GATE_N 9.06 
5 *827:4 *827:44 11.9075 
6 *827:44 *827:48 15.2175 
7 *827:48 *827:52 7.46 
8 *827:52 *827:62 29.92 
9 *827:62 *827:64 10.11 
10 *827:64 *827:70 5.9 
11 *827:70 *2910:GATE_N 16.695 
12 *827:70 *2921:GATE_N 3.6 
13 *827:64 *827:100 12.775 
14 *827:100 *2917:GATE_N 14 
15 *827:100 *2913:GATE_N 6.19 
16 *827:62 *2919:GATE_N 6.98 
17 *827:52 *2912:GATE_N 5.53 
18 *827:48 *2920:GATE_N 4.395 
19 *827:44 *2918:GATE_N 8.5725 
*END

*D_NET *828 0.0190432
*CONN
*I *2914:GATE_N I *D sky130_fd_sc_hd__dlxtn_1
*I *2915:GATE_N I *D sky130_fd_sc_hd__dlxtn_1
*I *2916:GATE_N I *D sky130_fd_sc_hd__dlxtn_1
*I *2925:GATE_N I *D sky130_fd_sc_hd__dlxtn_1
*I *2923:GATE_N I *D sky130_fd_sc_hd__dlxtn_1
*I *2911:GATE_N I *D sky130_fd_sc_hd__dlxtn_1
*I *3127:X O *D sky130_fd_sc_hd__clkbuf_2
*CAP
1 *2914:GATE_N 0.000207103
2 *2915:GATE_N 1.27578e-05
3 *2916:GATE_N 0.000228049
4 *2925:GATE_N 0
5 *2923:GATE_N 0
6 *2911:GATE_N 0.0011755
7 *3127:X 5.85844e-05
8 *828:70 0.000439504
9 *828:60 0.00179259
10 *828:48 0.00181909
11 *828:18 0.00192809
12 *828:8 0.000854796
13 *2911:GATE_N *3198:A 0.000517452
14 *2911:GATE_N *3212:A 0
15 *2911:GATE_N *849:87 0.000576329
16 *2911:GATE_N *893:37 0.000655403
17 *2911:GATE_N *899:29 9.58678e-06
18 *2914:GATE_N *3042:D 1.8424e-05
19 *2914:GATE_N *869:74 1.07797e-05
20 *2914:GATE_N *893:59 0
21 *2915:GATE_N *895:81 2.05056e-05
22 *2916:GATE_N *2507:A2 0
23 *2916:GATE_N *2518:B1 0.000163204
24 *2916:GATE_N *844:10 2.28346e-05
25 *2916:GATE_N *844:101 8.13808e-05
26 *828:18 *839:16 0.000624983
27 *828:18 *889:56 0
28 *828:18 *899:29 6.11658e-05
29 *828:18 *919:35 0.000153093
30 *828:48 *839:50 4.06436e-05
31 *828:48 *869:74 4.76453e-05
32 *828:48 *917:62 0.00015639
33 *828:60 *2506:A2 0.000686357
34 *828:60 *2507:A2 0.000122234
35 *828:60 *2898:D 9.21178e-05
36 *828:60 *839:75 0.000493506
37 *828:60 *841:15 9.0318e-05
38 *828:60 *869:68 4.76263e-05
39 *828:60 *869:74 0.000130106
40 *828:60 *881:120 3.64998e-06
41 *828:60 *895:81 0.0001305
42 *828:60 *897:29 0
43 *828:70 *867:28 0.000122331
44 *828:70 *895:81 2.75229e-05
45 *2469:B1 *2911:GATE_N 9.26619e-05
46 *2472:B *2916:GATE_N 8.40213e-05
47 *2472:B *828:70 4.82919e-05
48 *2498:A1 *828:60 0.000344454
49 *2504:A1 *828:18 7.96104e-06
50 *2506:A1 *828:60 9.30717e-05
51 *2506:B2 *828:60 2.42236e-05
52 *2509:C1 *828:70 3.77036e-05
53 *2526:B2 *2916:GATE_N 7.09832e-05
54 *2602:C *2911:GATE_N 1.88656e-05
55 *2602:C *828:18 0.000123112
56 *3044:GATE_N *2916:GATE_N 0.000282308
57 *3083:GATE_N *2911:GATE_N 0.000174652
58 *3105:A *2915:GATE_N 4.66108e-05
59 *3105:A *828:60 0
60 *3105:A *828:70 4.66108e-05
61 *3111:A *2914:GATE_N 2.10433e-05
62 *3112:A *828:60 0
63 *3124:A *828:60 7.81829e-05
64 *3127:A *828:60 3.80929e-05
65 *3136:A *828:18 0.000540614
66 *3138:A *2914:GATE_N 9.17861e-06
67 *3138:A *828:8 5.61375e-05
68 *3138:A *828:18 3.67085e-05
69 *3208:A *2911:GATE_N 0.000293033
70 *435:12 *2911:GATE_N 0.00077146
71 *435:12 *828:18 0.000980446
72 *441:10 *828:60 1.47347e-05
73 *488:14 *2911:GATE_N 0.000212458
74 *509:8 *828:60 0
75 *651:26 *2914:GATE_N 0
76 *808:22 *828:70 0.000331689
77 *810:22 *2916:GATE_N 7.34763e-05
78 *810:22 *828:70 0.000323492
79 *810:41 *2916:GATE_N 1.34503e-05
80 *810:41 *828:70 2.11084e-05
81 *826:12 *828:8 5.24801e-05
82 *826:12 *828:18 5.76869e-05
*RES
1 *3127:X *828:8 4.98 
2 *828:8 *828:18 6.0704 
3 *828:18 *2911:GATE_N 19.2219 
4 *828:18 *2923:GATE_N 3.6 
5 *828:8 *828:48 5.485 
6 *828:48 *828:60 32.835 
7 *828:60 *828:70 10.555 
8 *828:70 *2925:GATE_N 1.6 
9 *828:70 *2916:GATE_N 12.065 
10 *828:60 *2915:GATE_N 2.05 
11 *828:48 *2914:GATE_N 6.93 
*END

*D_NET *829 0.0216886
*CONN
*I *2898:GATE_N I *D sky130_fd_sc_hd__dlxtn_1
*I *2897:GATE_N I *D sky130_fd_sc_hd__dlxtn_1
*I *2905:GATE_N I *D sky130_fd_sc_hd__dlxtn_1
*I *2896:GATE_N I *D sky130_fd_sc_hd__dlxtn_1
*I *2903:GATE_N I *D sky130_fd_sc_hd__dlxtn_1
*I *2894:GATE_N I *D sky130_fd_sc_hd__dlxtn_1
*I *2904:GATE_N I *D sky130_fd_sc_hd__dlxtn_1
*I *2901:GATE_N I *D sky130_fd_sc_hd__dlxtn_1
*I *2906:GATE_N I *D sky130_fd_sc_hd__dlxtn_1
*I *2895:GATE_N I *D sky130_fd_sc_hd__dlxtn_1
*I *3128:X O *D sky130_fd_sc_hd__buf_2
*CAP
1 *2898:GATE_N 0
2 *2897:GATE_N 0
3 *2905:GATE_N 7.98043e-05
4 *2896:GATE_N 3.43559e-05
5 *2903:GATE_N 0.000222123
6 *2894:GATE_N 0
7 *2904:GATE_N 4.7725e-05
8 *2901:GATE_N 6.54291e-05
9 *2906:GATE_N 0.000231674
10 *2895:GATE_N 4.31928e-05
11 *3128:X 0.000128522
12 *829:113 0.000857651
13 *829:100 0.00149243
14 *829:88 0.0010974
15 *829:73 0.000218067
16 *829:69 0.00102617
17 *829:41 0.000758665
18 *829:37 0.00218982
19 *829:20 0.00251393
20 *829:10 0.00185317
21 *2895:GATE_N *2520:A2 8.8266e-05
22 *2905:GATE_N *3064:D 9.51192e-05
23 *2905:GATE_N *856:60 0.00023635
24 *2906:GATE_N *898:20 3.72916e-05
25 *829:10 *2898:D 2.99518e-06
26 *829:20 *2831:GATE_N 0.000548572
27 *829:20 *2895:D 0.000173409
28 *829:20 *2898:D 1.34363e-05
29 *829:20 *2946:D 0
30 *829:20 *3051:D 0.000148092
31 *829:20 *830:31 0
32 *829:20 *849:98 0.000196729
33 *829:20 *881:31 0.00037832
34 *829:20 *881:120 0.00056888
35 *829:20 *889:56 0.000677827
36 *829:37 *2519:B1 0
37 *829:37 *2540:A2 9.05757e-05
38 *829:37 *2870:GATE_N 0.000118513
39 *829:37 *2895:D 4.43871e-06
40 *829:37 *2900:GATE_N 8.99797e-05
41 *829:37 *2902:D 0.000197233
42 *829:37 *2902:GATE_N 5.12803e-05
43 *829:37 *3030:D 3.24046e-05
44 *829:37 *860:65 7.94337e-05
45 *829:37 *911:25 0
46 *829:37 *914:95 0
47 *829:69 *2485:B1 0.000104287
48 *829:69 *2539:B1 0.000335988
49 *829:69 *851:20 0.000480718
50 *829:69 *892:88 0.000284587
51 *829:73 *2485:B1 0.000163985
52 *829:100 *3054:D 0.00019175
53 *829:100 *854:42 0.000278117
54 *829:100 *878:16 0.000179599
55 *829:100 *878:38 0.000104306
56 *829:100 *878:59 4.27167e-05
57 *829:100 *881:57 0
58 *829:113 *2896:D 0.000474183
59 *829:113 *874:20 8.71212e-05
60 *829:113 *881:79 0.000201503
61 *2454:A1 *2903:GATE_N 0
62 *2471:A1 *829:20 0
63 *2485:A1 *829:73 9.30787e-05
64 *2485:A1 *829:88 0.000190274
65 *2493:B2 *2904:GATE_N 3.95073e-05
66 *2493:B2 *829:88 1.74678e-05
67 *2531:C1 *2901:GATE_N 0
68 *2539:B2 *829:69 2.11084e-05
69 *2540:A1 *829:69 1.17437e-05
70 *2586:A1 *829:41 2.6078e-05
71 *2591:A *2906:GATE_N 5.64059e-05
72 *2591:A *829:41 4.9253e-06
73 *2595:C1 *829:20 0
74 *2602:A *829:20 0
75 *2932:GATE_N *829:20 0
76 *2932:GATE_N *829:37 0
77 *2945:GATE_N *829:100 0.000276441
78 *3048:GATE_N *2904:GATE_N 4.21973e-05
79 *3048:GATE_N *829:88 8.23457e-05
80 *3051:GATE_N *829:20 7.17811e-05
81 *3066:GATE_N *829:41 1.03323e-05
82 *3159:A *829:100 0
83 *3168:A *2903:GATE_N 1.83756e-05
84 *3172:A *2903:GATE_N 4.41363e-05
85 *3172:A *829:113 4.79239e-05
86 *377:12 *2903:GATE_N 1.22762e-05
87 *381:18 *2903:GATE_N 0.000113416
88 *580:16 *2895:GATE_N 3.72916e-05
89 *807:22 *2901:GATE_N 0.000116151
90 *808:80 *829:20 0.000196809
91 *809:28 *829:69 7.81221e-05
92 *809:28 *829:73 4.03082e-05
93 *809:38 *2905:GATE_N 8.7373e-06
94 *809:38 *829:88 0.000106585
95 *809:38 *829:100 0.000142903
96 *809:44 *829:100 0
97 *812:76 *829:37 0
98 *826:10 *829:10 0.000143053
99 *826:10 *829:20 2.06578e-05
100 *826:47 *829:20 0
*RES
1 *3128:X *829:10 5.775 
2 *829:10 *829:20 23.6873 
3 *829:20 *2895:GATE_N 4.845 
4 *829:20 *829:37 15.305 
5 *829:37 *829:41 6.33 
6 *829:41 *2906:GATE_N 4.735 
7 *829:41 *2901:GATE_N 6.98 
8 *829:37 *829:69 18.245 
9 *829:69 *829:73 3.89 
10 *829:73 *2904:GATE_N 2.755 
11 *829:73 *829:88 5.195 
12 *829:88 *829:100 23.01 
13 *829:100 *2894:GATE_N 1.6 
14 *829:100 *829:113 10.935 
15 *829:113 *2903:GATE_N 8.81 
16 *829:113 *2896:GATE_N 2.215 
17 *829:88 *2905:GATE_N 6.225 
18 *829:69 *2897:GATE_N 3.6 
19 *829:10 *2898:GATE_N 3.6 
*END

*D_NET *830 0.0203751
*CONN
*I *2899:GATE_N I *D sky130_fd_sc_hd__dlxtn_1
*I *2909:GATE_N I *D sky130_fd_sc_hd__dlxtn_1
*I *2908:GATE_N I *D sky130_fd_sc_hd__dlxtn_1
*I *2900:GATE_N I *D sky130_fd_sc_hd__dlxtn_1
*I *2902:GATE_N I *D sky130_fd_sc_hd__dlxtn_1
*I *2907:GATE_N I *D sky130_fd_sc_hd__dlxtn_1
*I *3129:X O *D sky130_fd_sc_hd__clkbuf_2
*CAP
1 *2899:GATE_N 0.000290127
2 *2909:GATE_N 0
3 *2908:GATE_N 0
4 *2900:GATE_N 0.000955548
5 *2902:GATE_N 8.2212e-05
6 *2907:GATE_N 0.00110182
7 *3129:X 0.000385935
8 *830:90 0.000626555
9 *830:71 0.000905144
10 *830:35 0.0012212
11 *830:31 0.00156046
12 *830:6 0.00229606
13 *2899:GATE_N *2517:A2 0.000107415
14 *2899:GATE_N *845:29 9.82856e-06
15 *2899:GATE_N *893:97 0.000348827
16 *2899:GATE_N *915:48 0.000231564
17 *2900:GATE_N *2519:A2 0.00028182
18 *2900:GATE_N *2932:D 8.67159e-05
19 *2900:GATE_N *864:10 9.3062e-06
20 *2900:GATE_N *892:33 3.95269e-05
21 *2900:GATE_N *914:95 0
22 *2902:GATE_N *914:95 0
23 *2907:GATE_N *2907:D 4.82863e-05
24 *2907:GATE_N *3220:A 4.82919e-05
25 *2907:GATE_N *3226:A 0.000325294
26 *2907:GATE_N *834:72 0.000317343
27 *2907:GATE_N *893:37 5.8023e-05
28 *2907:GATE_N *899:29 0.000488389
29 *2907:GATE_N *925:43 0.000743817
30 *2907:GATE_N *939:79 4.36573e-06
31 *2907:GATE_N *940:14 0.000118081
32 *2907:GATE_N *948:33 3.51884e-05
33 *830:6 *912:43 0.000165471
34 *830:31 *2464:A2 5.99222e-05
35 *830:31 *2465:B1 9.1566e-05
36 *830:31 *2471:A2 0.00013994
37 *830:31 *2541:A2 0.000293864
38 *830:31 *2895:D 0
39 *830:31 *3357:A 1.00941e-05
40 *830:31 *881:57 0.000105443
41 *830:31 *911:25 0
42 *830:35 *898:89 0.000270771
43 *830:71 *2507:A2 0.00136426
44 *830:71 *2605:A2 5.14158e-05
45 *830:71 *3084:D 3.93223e-05
46 *830:71 *898:89 0.000212849
47 *830:71 *914:151 3.82072e-05
48 *830:90 *2517:A2 3.70572e-05
49 *830:90 *897:45 0
50 *830:90 *914:151 4.2021e-05
51 *2463:B2 *830:31 5.80204e-05
52 *2467:A1 *2907:GATE_N 4.43682e-05
53 *2467:B2 *2907:GATE_N 0.000151579
54 *2471:A1 *830:31 0
55 *2520:C1 *2900:GATE_N 0.000200099
56 *2541:A1 *830:31 2.77052e-05
57 *2548:B1 *830:71 0.00128443
58 *2605:A1 *830:90 9.54399e-05
59 *2605:B2 *830:90 0
60 *2613:A *830:35 0.000472225
61 *2613:A *830:71 0.000207939
62 *2614:B2 *2900:GATE_N 8.92483e-05
63 *2932:GATE_N *2900:GATE_N 0.000175585
64 *2941:GATE_N *2899:GATE_N 7.23533e-05
65 *3039:GATE_N *830:31 5.53548e-05
66 *3084:GATE_N *830:71 8.7152e-06
67 *3084:GATE_N *830:90 0.000308028
68 *3108:A *830:90 0.00028733
69 *3110:A *830:90 0
70 *3129:A *830:6 7.12099e-05
71 *3145:A *2900:GATE_N 0
72 *490:14 *2907:GATE_N 1.91597e-05
73 *806:50 *830:90 7.67465e-05
74 *811:26 *2899:GATE_N 9.7011e-05
75 *812:76 *2907:GATE_N 0.000781981
76 *829:20 *830:31 0
77 *829:37 *2900:GATE_N 8.99797e-05
78 *829:37 *2902:GATE_N 5.12803e-05
*RES
1 *3129:X *830:6 8.26 
2 *830:6 *2907:GATE_N 33.2 
3 *830:6 *830:31 17.5225 
4 *830:31 *830:35 1.2372 
5 *830:35 *2902:GATE_N 4.8525 
6 *830:35 *2900:GATE_N 22.2025 
7 *830:31 *830:71 4.59657 
8 *830:71 *2908:GATE_N 3.6 
9 *830:71 *830:90 11.12 
10 *830:90 *2909:GATE_N 1.6 
11 *830:90 *2899:GATE_N 13.655 
*END

*D_NET *831 0.0258457
*CONN
*I *2882:GATE_N I *D sky130_fd_sc_hd__dlxtn_1
*I *2879:GATE_N I *D sky130_fd_sc_hd__dlxtn_1
*I *2886:GATE_N I *D sky130_fd_sc_hd__dlxtn_1
*I *2881:GATE_N I *D sky130_fd_sc_hd__dlxtn_1
*I *2887:GATE_N I *D sky130_fd_sc_hd__dlxtn_1
*I *2889:GATE_N I *D sky130_fd_sc_hd__dlxtn_1
*I *2878:GATE_N I *D sky130_fd_sc_hd__dlxtn_1
*I *2888:GATE_N I *D sky130_fd_sc_hd__dlxtn_1
*I *2880:GATE_N I *D sky130_fd_sc_hd__dlxtn_1
*I *2885:GATE_N I *D sky130_fd_sc_hd__dlxtn_1
*I *3130:X O *D sky130_fd_sc_hd__buf_2
*CAP
1 *2882:GATE_N 0.000697911
2 *2879:GATE_N 3.84988e-05
3 *2886:GATE_N 0.000863395
4 *2881:GATE_N 1.75394e-05
5 *2887:GATE_N 0.000658926
6 *2889:GATE_N 0
7 *2878:GATE_N 1.80463e-05
8 *2888:GATE_N 0.000371911
9 *2880:GATE_N 0.00030668
10 *2885:GATE_N 6.78057e-05
11 *3130:X 0
12 *831:69 0.000892009
13 *831:63 0.00105073
14 *831:53 0.0011829
15 *831:40 0.00102952
16 *831:30 0.00133647
17 *831:28 0.0011326
18 *831:22 0.00238858
19 *831:18 0.00107491
20 *831:4 0.00124475
21 *2878:GATE_N *2477:B1 3.21081e-06
22 *2879:GATE_N *837:83 8.40213e-05
23 *2880:GATE_N *833:56 8.65961e-05
24 *2881:GATE_N *871:51 2.74997e-05
25 *2881:GATE_N *921:109 2.42236e-05
26 *2881:GATE_N *923:36 8.08153e-06
27 *2882:GATE_N *2464:A2 9.81685e-05
28 *2882:GATE_N *929:83 1.2818e-05
29 *2885:GATE_N *2885:D 4.82863e-05
30 *2886:GATE_N *2870:GATE_N 0.000119968
31 *2886:GATE_N *3078:D 0.000250164
32 *2886:GATE_N *847:131 0
33 *2886:GATE_N *851:33 5.57114e-05
34 *2887:GATE_N *2557:A2 3.00381e-05
35 *2887:GATE_N *2849:D 0.000206817
36 *2887:GATE_N *858:38 0
37 *2887:GATE_N *871:75 0.000196055
38 *2887:GATE_N *871:77 0.000146286
39 *2887:GATE_N *921:109 2.15594e-05
40 *2887:GATE_N *923:36 0
41 *2887:GATE_N *928:51 0.000462537
42 *2887:GATE_N *928:59 0.000155376
43 *2888:GATE_N *2974:D 0
44 *2888:GATE_N *833:69 0.000218303
45 *831:18 *2465:A2 1.50624e-05
46 *831:18 *2859:GATE_N 0.000220013
47 *831:18 *2879:D 0
48 *831:18 *834:72 0
49 *831:18 *837:83 0.000374569
50 *831:18 *864:10 4.40773e-05
51 *831:18 *876:21 0
52 *831:18 *892:33 4.90031e-05
53 *831:18 *925:43 0.000128893
54 *831:22 *3216:A 0
55 *831:22 *847:131 8.24798e-05
56 *831:22 *864:47 0
57 *831:22 *892:33 0.000287415
58 *831:22 *922:47 0
59 *831:28 *2564:A2 0
60 *831:28 *3029:D 0
61 *831:28 *3158:A 2.60431e-05
62 *831:28 *847:131 7.9642e-06
63 *831:28 *851:53 0
64 *831:28 *871:33 0.000664725
65 *831:28 *871:51 4.66108e-05
66 *831:28 *892:33 0.000103228
67 *831:28 *892:39 0.000317485
68 *831:28 *898:31 0
69 *831:30 *871:51 5.74829e-05
70 *831:30 *871:53 3.57349e-05
71 *831:40 *2534:A2 4.99619e-05
72 *831:40 *2865:D 8.65905e-05
73 *831:40 *2865:GATE_N 4.66826e-05
74 *831:40 *2885:D 3.57349e-05
75 *831:40 *871:53 0.000120655
76 *831:53 *2566:A2 0
77 *831:53 *2965:D 0.000209179
78 *831:53 *862:81 2.07184e-05
79 *831:53 *900:52 5.12017e-06
80 *831:53 *904:53 0.00038133
81 *831:63 *2456:B1 0.000315146
82 *831:63 *2477:A2 1.7592e-05
83 *831:63 *2477:B1 3.24984e-05
84 *831:63 *904:53 0.000489651
85 *831:69 *2477:B1 0.00022866
86 *831:69 *2864:GATE_N 6.53335e-05
87 *831:69 *833:69 1.0183e-05
88 *2466:B2 *831:18 0.000134272
89 *2466:C1 *831:18 2.7881e-05
90 *2470:B *2882:GATE_N 7.06865e-05
91 *2470:C *2882:GATE_N 0.000221235
92 *2470:C *831:18 4.66108e-05
93 *2477:A1 *831:69 3.99879e-05
94 *2477:B2 *2888:GATE_N 9.30717e-05
95 *2477:B2 *831:69 0.000184444
96 *2478:C1 *831:63 1.16578e-05
97 *2478:C1 *831:69 0.000124473
98 *2488:A1 *831:28 0.000160641
99 *2488:A1 *831:30 4.82863e-05
100 *2530:A1 *831:28 6.00919e-05
101 *2530:B2 *831:28 0.000141599
102 *2534:A1 *831:40 9.14035e-05
103 *2535:B1 *831:40 2.06762e-05
104 *2539:B2 *2886:GATE_N 3.00381e-05
105 *2564:B2 *831:28 2.97004e-06
106 *2565:A1 *2888:GATE_N 0
107 *2565:B2 *2888:GATE_N 0
108 *2568:B1 *831:53 4.40812e-05
109 *2569:A *831:28 2.10034e-05
110 *2569:A *831:30 1.17409e-05
111 *2569:A *831:40 0.000296398
112 *2569:B *2885:GATE_N 0.000163199
113 *2569:B *831:40 0.000132648
114 *2569:C *831:53 5.84378e-05
115 *2580:B *2887:GATE_N 0
116 *2580:C *2887:GATE_N 2.75229e-05
117 *2585:B2 *831:22 0.000290659
118 *2586:B2 *2886:GATE_N 4.99619e-05
119 *2601:A1 *2882:GATE_N 3.5848e-05
120 *2601:B2 *2882:GATE_N 0.00021134
121 *2613:C *831:22 0
122 *2614:B2 *831:22 0
123 *2913:GATE_N *831:28 5.05521e-05
124 *2917:GATE_N *831:28 0.000132406
125 *2948:GATE_N *831:18 0
126 *2948:GATE_N *831:22 0
127 *2993:GATE_N *2887:GATE_N 0.000135915
128 *3034:GATE_N *831:28 0
129 *3066:GATE_N *2886:GATE_N 3.95073e-05
130 *3186:A *2882:GATE_N 0.000471303
131 *3202:A *2882:GATE_N 0.000135957
132 *811:97 *831:28 0
133 *814:80 *2888:GATE_N 7.89767e-05
134 *820:20 *831:53 0
135 *820:24 *831:53 0
136 *820:24 *831:63 0
137 *820:30 *831:63 0.000310768
138 *820:73 *831:63 0.000276883
139 *823:20 *2882:GATE_N 0.000155836
*RES
1 *3130:X *831:4 1.6 
2 *831:4 *831:18 16.155 
3 *831:18 *831:22 10.5 
4 *831:22 *831:28 22.415 
5 *831:28 *831:30 1.485 
6 *831:30 *831:40 11.895 
7 *831:40 *2885:GATE_N 3.445 
8 *831:40 *831:53 10.52 
9 *831:53 *831:63 16.22 
10 *831:63 *831:69 7.7 
11 *831:69 *2880:GATE_N 7.965 
12 *831:69 *2888:GATE_N 11.355 
13 *831:63 *2878:GATE_N 1.96 
14 *831:53 *2889:GATE_N 3.6 
15 *831:30 *2887:GATE_N 21.245 
16 *831:28 *2881:GATE_N 6.215 
17 *831:22 *2886:GATE_N 16.515 
18 *831:18 *2879:GATE_N 4.395 
19 *831:4 *2882:GATE_N 19.58 
*END

*D_NET *832 0.0167225
*CONN
*I *2891:GATE_N I *D sky130_fd_sc_hd__dlxtn_1
*I *2893:GATE_N I *D sky130_fd_sc_hd__dlxtn_1
*I *2892:GATE_N I *D sky130_fd_sc_hd__dlxtn_1
*I *2884:GATE_N I *D sky130_fd_sc_hd__dlxtn_1
*I *2890:GATE_N I *D sky130_fd_sc_hd__dlxtn_1
*I *2883:GATE_N I *D sky130_fd_sc_hd__dlxtn_1
*I *3131:X O *D sky130_fd_sc_hd__dlymetal6s2s_1
*CAP
1 *2891:GATE_N 0.000264781
2 *2893:GATE_N 0
3 *2892:GATE_N 1.63035e-05
4 *2884:GATE_N 0
5 *2890:GATE_N 0.000277245
6 *2883:GATE_N 0.000599809
7 *3131:X 0
8 *832:47 0.00138582
9 *832:37 0.00132031
10 *832:33 0.000706664
11 *832:25 0.00113409
12 *832:4 0.000957889
13 *2883:GATE_N *2883:D 0
14 *2883:GATE_N *866:41 0.000122714
15 *2890:GATE_N *2587:B1 0
16 *2890:GATE_N *2874:D 2.54692e-05
17 *2890:GATE_N *2884:D 4.18603e-06
18 *2890:GATE_N *2970:D 4.99619e-05
19 *2891:GATE_N *840:44 0.00107232
20 *2891:GATE_N *866:41 0.00119811
21 *2891:GATE_N *892:33 4.43682e-05
22 *832:25 *2411:A 8.23457e-05
23 *832:25 *2415:B 0.000302893
24 *832:25 *840:44 0.000452563
25 *832:25 *840:46 0.000118081
26 *832:25 *866:41 0.00141609
27 *832:25 *909:60 2.59835e-05
28 *832:25 *909:66 8.82557e-05
29 *832:33 *2521:B1 0.000110153
30 *832:33 *2599:A2 4.92128e-05
31 *832:33 *2991:D 0.000190909
32 *832:33 *844:20 8.66107e-06
33 *832:33 *875:24 7.7615e-05
34 *832:33 *875:30 0.000158295
35 *832:33 *903:28 0.000170469
36 *832:33 *905:10 5.84456e-05
37 *832:37 *2521:B1 7.47215e-05
38 *832:37 *2988:D 0
39 *832:37 *844:20 1.43521e-05
40 *832:47 *2522:B1 0.0010616
41 *832:47 *2852:D 8.52883e-05
42 *832:47 *2852:GATE_N 4.47217e-05
43 *832:47 *2884:D 4.70256e-05
44 *2511:B2 *2883:GATE_N 5.58206e-05
45 *2521:A1 *832:47 1.07285e-05
46 *2522:B2 *832:47 1.53053e-05
47 *2522:C1 *832:47 3.41969e-05
48 *2525:A *2892:GATE_N 4.60584e-05
49 *2525:A *832:47 0.000630959
50 *2587:B2 *2890:GATE_N 0.000169122
51 *2962:GATE_N *2883:GATE_N 0.000302052
52 *3114:A *832:47 0.000234669
53 *3116:A *832:37 0.000150785
54 *3118:A *2883:GATE_N 3.81472e-05
55 *3131:A *832:25 4.71333e-05
56 *3192:A *832:33 0
57 *3192:A *832:37 0
58 *580:16 *2892:GATE_N 5.05521e-05
59 *580:16 *832:47 0.000310826
60 *818:14 *2890:GATE_N 4.59493e-05
61 *818:14 *832:47 0
62 *818:18 *2890:GATE_N 0.000191932
63 *819:23 *832:33 0.00057057
*RES
1 *3131:X *832:4 1.6 
2 *832:4 *2883:GATE_N 15.275 
3 *832:4 *832:25 13.575 
4 *832:25 *832:33 15.155 
5 *832:33 *832:37 6.185 
6 *832:37 *832:47 24.815 
7 *832:47 *2890:GATE_N 10.275 
8 *832:47 *2884:GATE_N 3.6 
9 *832:37 *2892:GATE_N 2.395 
10 *832:33 *2893:GATE_N 3.6 
11 *832:25 *2891:GATE_N 13.105 
*END

*D_NET *833 0.0223915
*CONN
*I *2870:GATE_N I *D sky130_fd_sc_hd__dlxtn_1
*I *2876:GATE_N I *D sky130_fd_sc_hd__dlxtn_1
*I *2865:GATE_N I *D sky130_fd_sc_hd__dlxtn_1
*I *2862:GATE_N I *D sky130_fd_sc_hd__dlxtn_1
*I *2874:GATE_N I *D sky130_fd_sc_hd__dlxtn_1
*I *2869:GATE_N I *D sky130_fd_sc_hd__dlxtn_1
*I *2872:GATE_N I *D sky130_fd_sc_hd__dlxtn_1
*I *2864:GATE_N I *D sky130_fd_sc_hd__dlxtn_1
*I *2871:GATE_N I *D sky130_fd_sc_hd__dlxtn_1
*I *2873:GATE_N I *D sky130_fd_sc_hd__dlxtn_1
*I *3132:X O *D sky130_fd_sc_hd__buf_2
*CAP
1 *2870:GATE_N 0.00180543
2 *2876:GATE_N 0
3 *2865:GATE_N 2.43167e-05
4 *2862:GATE_N 0
5 *2874:GATE_N 0.000326814
6 *2869:GATE_N 0.000247113
7 *2872:GATE_N 2.61242e-05
8 *2864:GATE_N 0.000254306
9 *2871:GATE_N 0.000440179
10 *2873:GATE_N 0.000174785
11 *3132:X 0
12 *833:120 0.00191228
13 *833:80 0.000872558
14 *833:69 0.000847524
15 *833:56 0.000856068
16 *833:52 0.00106534
17 *833:18 0.000866404
18 *833:14 0.0017392
19 *833:12 0.00102286
20 *833:4 0.000603974
21 *2864:GATE_N *2976:D 0
22 *2864:GATE_N *873:60 8.53113e-06
23 *2864:GATE_N *873:73 0.000154488
24 *2864:GATE_N *873:84 0
25 *2869:GATE_N *2869:D 8.65905e-05
26 *2870:GATE_N *2611:B1 0.000230435
27 *2870:GATE_N *3078:D 0.000215767
28 *2870:GATE_N *847:23 4.82863e-05
29 *2870:GATE_N *847:131 0.000182339
30 *2870:GATE_N *851:33 0.000501915
31 *2870:GATE_N *851:53 3.74576e-05
32 *2870:GATE_N *914:95 0
33 *2871:GATE_N *2999:D 0.0001249
34 *2871:GATE_N *858:59 0
35 *2871:GATE_N *873:50 7.60965e-05
36 *2872:GATE_N *2984:D 4.66108e-05
37 *2873:GATE_N *3001:D 6.16226e-06
38 *2873:GATE_N *877:38 8.995e-05
39 *2873:GATE_N *928:63 4.93503e-05
40 *833:12 *2961:D 0
41 *833:12 *851:53 0.000239813
42 *833:12 *928:39 0.000173681
43 *833:12 *934:26 6.89977e-05
44 *833:12 *934:28 8.15598e-05
45 *833:14 *2849:GATE_N 0
46 *833:14 *2855:GATE_N 0
47 *833:14 *923:63 6.36656e-05
48 *833:14 *928:51 0
49 *833:14 *934:28 0.000201417
50 *833:14 *934:30 0.000126247
51 *833:14 *934:51 0.00069096
52 *833:18 *2578:B1 1.7635e-05
53 *833:18 *2579:C1 0.00013611
54 *833:18 *853:67 0
55 *833:18 *923:50 4.36738e-05
56 *833:18 *923:63 0.000176033
57 *833:18 *934:51 9.61344e-05
58 *833:52 *2958:D 0.000239187
59 *833:52 *877:81 0.000341386
60 *833:52 *934:70 6.32125e-05
61 *833:69 *2976:D 0
62 *833:69 *3016:D 0
63 *833:80 *2869:D 0
64 *833:120 *847:6 4.65607e-05
65 *833:120 *847:23 1.34594e-05
66 *833:120 *851:53 0.000233786
67 *2457:A1 *833:52 0.000460549
68 *2458:A1 *833:52 2.47313e-05
69 *2460:B2 *2871:GATE_N 0.000192183
70 *2460:B2 *2873:GATE_N 9.17318e-05
71 *2477:B2 *2864:GATE_N 0
72 *2478:B2 *833:52 0.000160125
73 *2478:B2 *833:56 1.91597e-05
74 *2532:B2 *2874:GATE_N 0
75 *2532:B2 *833:80 0
76 *2536:C *833:12 0.000139238
77 *2554:A1 *2871:GATE_N 3.32856e-05
78 *2569:A *2865:GATE_N 5.05521e-05
79 *2577:B2 *833:14 0
80 *2577:C1 *833:14 0
81 *2578:A1 *833:18 0.000132796
82 *2578:B2 *833:18 0.000251821
83 *2590:A1 *833:12 0.000136884
84 *2590:B1 *833:12 0.00031209
85 *2880:GATE_N *833:56 8.65961e-05
86 *2886:GATE_N *2870:GATE_N 0.000119968
87 *2888:GATE_N *833:69 0.000218303
88 *2961:GATE_N *833:12 0.000158539
89 *2983:GATE_N *833:52 0.000424525
90 *2993:GATE_N *833:12 0
91 *2993:GATE_N *833:14 0
92 *3013:GATE_N *833:69 0.000200648
93 *3013:GATE_N *833:80 0.000339886
94 *3132:A *833:12 9.66106e-05
95 *814:80 *833:69 0.000296088
96 *816:54 *2873:GATE_N 4.05129e-06
97 *818:18 *2874:GATE_N 0.000202727
98 *818:24 *2874:GATE_N 0
99 *818:24 *833:80 0
100 *818:26 *833:80 0
101 *818:30 *833:69 0
102 *818:30 *833:80 0
103 *829:37 *2870:GATE_N 0.000118513
104 *831:40 *2865:GATE_N 4.66826e-05
105 *831:69 *2864:GATE_N 6.53335e-05
106 *831:69 *833:69 1.0183e-05
*RES
1 *3132:X *833:4 1.6 
2 *833:4 *833:12 15.44 
3 *833:12 *833:14 11.835 
4 *833:14 *833:18 7.3625 
5 *833:18 *2873:GATE_N 4.8949 
6 *833:18 *2871:GATE_N 7.93643 
7 *833:14 *833:52 20.405 
8 *833:52 *833:56 3.485 
9 *833:56 *2864:GATE_N 8.58 
10 *833:56 *833:69 12.09 
11 *833:69 *2872:GATE_N 4.05 
12 *833:69 *833:80 5.97 
13 *833:80 *2869:GATE_N 7.275 
14 *833:80 *2874:GATE_N 10.08 
15 *833:52 *2862:GATE_N 1.6 
16 *833:12 *2865:GATE_N 4.395 
17 *833:4 *833:120 2.79 
18 *833:120 *2876:GATE_N 1.6 
19 *833:120 *2870:GATE_N 29.405 
*END

*D_NET *834 0.0177818
*CONN
*I *2877:GATE_N I *D sky130_fd_sc_hd__dlxtn_1
*I *2863:GATE_N I *D sky130_fd_sc_hd__dlxtn_1
*I *2866:GATE_N I *D sky130_fd_sc_hd__dlxtn_1
*I *2875:GATE_N I *D sky130_fd_sc_hd__dlxtn_1
*I *2867:GATE_N I *D sky130_fd_sc_hd__dlxtn_1
*I *2868:GATE_N I *D sky130_fd_sc_hd__dlxtn_1
*I *3133:X O *D sky130_fd_sc_hd__clkbuf_2
*CAP
1 *2877:GATE_N 3.87571e-05
2 *2863:GATE_N 0
3 *2866:GATE_N 0.00042319
4 *2875:GATE_N 0
5 *2867:GATE_N 0.000408133
6 *2868:GATE_N 0.000217068
7 *3133:X 8.0636e-05
8 *834:72 0.00196644
9 *834:44 0.00259463
10 *834:14 0.00156401
11 *834:10 0.00199019
12 *834:8 0.000119393
13 *2866:GATE_N *2875:D 3.83995e-05
14 *2866:GATE_N *899:85 8.67923e-05
15 *2867:GATE_N *2963:D 0.000362958
16 *2867:GATE_N *2979:D 0
17 *2867:GATE_N *866:47 8.52883e-05
18 *2867:GATE_N *866:53 0.000253939
19 *2868:GATE_N *3012:D 0
20 *2868:GATE_N *864:67 0
21 *2868:GATE_N *864:89 0
22 *2877:GATE_N *2524:A2 0.000116165
23 *834:8 *2524:A2 0.000199932
24 *834:44 *2622:A2 0.000200615
25 *834:44 *2622:B1 4.82919e-05
26 *834:44 *844:45 0.000192125
27 *834:72 *2406:C 8.49205e-05
28 *834:72 *2406:D 2.16917e-05
29 *834:72 *2465:A2 5.56116e-05
30 *834:72 *2863:D 1.56428e-05
31 *834:72 *2875:D 0.000196279
32 *834:72 *2939:D 1.22762e-05
33 *834:72 *3226:A 0.000185973
34 *834:72 *849:10 7.36484e-05
35 *834:72 *850:8 5.11148e-06
36 *834:72 *850:31 0.000107105
37 *834:72 *876:21 0.000390353
38 *834:72 *892:33 0.000234431
39 *834:72 *893:37 5.92535e-05
40 *834:72 *922:47 0.000158072
41 *834:72 *925:43 0
42 *834:72 *925:72 5.38986e-06
43 *834:72 *939:38 8.71001e-05
44 *834:72 *939:40 1.07797e-05
45 *834:72 *941:21 0.000153881
46 *834:72 *941:25 0.000175536
47 *834:72 *943:8 0.000115464
48 *834:72 *943:33 0.000189548
49 *2465:A1 *834:72 5.39509e-05
50 *2465:B2 *834:72 5.05521e-05
51 *2467:B2 *834:72 3.69421e-05
52 *2596:B2 *834:72 4.75576e-05
53 *2602:B *834:72 9.27255e-06
54 *2622:A1 *834:44 2.17931e-05
55 *2622:B2 *834:44 0.000120655
56 *2623:B1 *834:44 0.000196287
57 *2907:GATE_N *834:72 0.000317343
58 *2963:GATE_N *2867:GATE_N 0.000288938
59 *2963:GATE_N *2868:GATE_N 3.09233e-05
60 *2964:GATE_N *2868:GATE_N 0.00040106
61 *2979:GATE_N *2867:GATE_N 0.000226943
62 *3007:GATE_N *834:44 7.10077e-05
63 *3021:GATE_N *834:8 9.30717e-05
64 *3120:A *834:44 6.97256e-05
65 *3134:A *2877:GATE_N 5.84456e-05
66 *3134:A *834:8 5.55605e-05
67 *3147:A *834:72 9.2741e-05
68 *491:6 *834:72 0.000122331
69 *499:18 *834:72 0.000220525
70 *818:14 *2867:GATE_N 7.34286e-05
71 *821:16 *834:14 8.49205e-05
72 *821:16 *834:44 0.000382997
73 *821:18 *834:14 0.000605785
74 *821:22 *834:14 0.000724032
75 *831:18 *834:72 0
*RES
1 *3133:X *834:8 6 
2 *834:8 *834:10 2 
3 *834:10 *834:14 14.87 
4 *834:14 *2868:GATE_N 8.55 
5 *834:14 *2867:GATE_N 15.315 
6 *834:10 *834:44 21.985 
7 *834:44 *834:72 43.13 
8 *834:72 *2875:GATE_N 1.6 
9 *834:72 *2866:GATE_N 7.075 
10 *834:44 *2863:GATE_N 1.6 
11 *834:8 *2877:GATE_N 4.98 
*END

*D_NET *835 0.000560113
*CONN
*I *2650:A1 I *D sky130_fd_sc_hd__mux2_1
*I *3247:X O *D sky130_fd_sc_hd__clkbuf_1
*CAP
1 *2650:A1 0.000148848
2 *3247:X 0.000148848
3 *2650:A1 *2643:S 6.55328e-05
4 *2650:A1 *2650:A0 0.000120186
5 *2643:A1 *2650:A1 7.00889e-06
6 *3247:A *2650:A1 4.21666e-05
7 *3281:A *2650:A1 2.75229e-05
*RES
1 *3247:X *2650:A1 10.065 
*END

*D_NET *836 0.0196467
*CONN
*I *2854:GATE_N I *D sky130_fd_sc_hd__dlxtn_1
*I *2860:GATE_N I *D sky130_fd_sc_hd__dlxtn_1
*I *2858:GATE_N I *D sky130_fd_sc_hd__dlxtn_1
*I *2853:GATE_N I *D sky130_fd_sc_hd__dlxtn_1
*I *2849:GATE_N I *D sky130_fd_sc_hd__dlxtn_1
*I *2855:GATE_N I *D sky130_fd_sc_hd__dlxtn_1
*I *2857:GATE_N I *D sky130_fd_sc_hd__dlxtn_1
*I *2848:GATE_N I *D sky130_fd_sc_hd__dlxtn_1
*I *2846:GATE_N I *D sky130_fd_sc_hd__dlxtn_1
*I *2856:GATE_N I *D sky130_fd_sc_hd__dlxtn_1
*I *3134:X O *D sky130_fd_sc_hd__buf_2
*CAP
1 *2854:GATE_N 0
2 *2860:GATE_N 0.00108017
3 *2858:GATE_N 6.5932e-05
4 *2853:GATE_N 4.50282e-05
5 *2849:GATE_N 8.57134e-05
6 *2855:GATE_N 0.000741692
7 *2857:GATE_N 3.55506e-05
8 *2848:GATE_N 0
9 *2846:GATE_N 0.000167826
10 *2856:GATE_N 0.000223173
11 *3134:X 0
12 *836:152 0.00115302
13 *836:106 0.00120519
14 *836:95 0.00117742
15 *836:67 0.000690473
16 *836:57 0.00158618
17 *836:38 0.000984837
18 *836:22 0.00101478
19 *836:10 0.000809502
20 *836:4 0.000308887
21 *2846:GATE_N *873:60 0.000122801
22 *2846:GATE_N *877:40 4.77757e-05
23 *2846:GATE_N *877:51 0.00015997
24 *2846:GATE_N *877:68 9.50342e-06
25 *2849:GATE_N *2577:B1 9.47454e-05
26 *2849:GATE_N *928:51 2.33678e-05
27 *2849:GATE_N *928:59 5.48897e-05
28 *2853:GATE_N *2532:B1 3.29947e-05
29 *2853:GATE_N *862:43 4.9968e-05
30 *2855:GATE_N *2554:B1 5.05066e-06
31 *2855:GATE_N *2855:D 3.03775e-05
32 *2855:GATE_N *3015:D 2.07566e-05
33 *2855:GATE_N *923:50 2.8585e-06
34 *2855:GATE_N *923:63 0
35 *2855:GATE_N *928:59 0.000665123
36 *2856:GATE_N *2856:D 1.67904e-05
37 *2856:GATE_N *855:32 1.65192e-05
38 *2857:GATE_N *853:37 0
39 *2858:GATE_N *862:35 6.08976e-05
40 *2860:GATE_N *2542:B1 6.97118e-05
41 *2860:GATE_N *2609:B1 0.00019745
42 *2860:GATE_N *2966:D 3.45588e-05
43 *2860:GATE_N *847:57 7.22354e-05
44 *2860:GATE_N *861:18 0
45 *836:22 *2588:A2 9.37731e-05
46 *836:22 *862:35 0.000445366
47 *836:38 *862:43 0.000114492
48 *836:38 *906:114 0.000584285
49 *836:57 *921:46 0.000505575
50 *836:67 *2455:A2 0.00015466
51 *836:67 *2478:B1 5.33085e-05
52 *836:67 *2992:D 0.000108281
53 *836:67 *873:60 7.32549e-05
54 *836:67 *877:68 0
55 *836:67 *877:79 0
56 *836:67 *921:46 0.000115464
57 *836:95 *2457:B1 0.00015639
58 *836:95 *2889:D 3.31103e-05
59 *836:95 *853:41 0.00010492
60 *836:106 *853:37 0.000213785
61 *836:106 *853:39 1.47347e-05
62 *836:106 *853:41 3.45588e-05
63 *836:152 *906:93 3.23663e-05
64 *2533:C1 *2853:GATE_N 8.52845e-05
65 *2533:C1 *836:22 0.000304641
66 *2542:A1 *2860:GATE_N 1.33293e-05
67 *2543:B2 *2860:GATE_N 7.24717e-05
68 *2554:A1 *2855:GATE_N 4.69652e-05
69 *2554:B2 *2855:GATE_N 6.74415e-05
70 *2565:A1 *836:38 8.53113e-06
71 *2565:B2 *2856:GATE_N 8.30853e-06
72 *2566:A1 *836:57 3.1562e-06
73 *2566:B2 *836:38 0
74 *2566:C1 *836:38 4.41506e-05
75 *2567:B2 *2856:GATE_N 0.000264583
76 *2567:B2 *836:57 0.000194151
77 *2577:B2 *2849:GATE_N 6.45236e-05
78 *2577:B2 *2855:GATE_N 7.06865e-05
79 *2577:C1 *2849:GATE_N 5.73362e-05
80 *2579:B1 *2855:GATE_N 0.000108706
81 *2958:GATE_N *836:67 4.74897e-05
82 *2966:GATE_N *2860:GATE_N 5.83121e-06
83 *3006:GATE_N *2846:GATE_N 2.86975e-05
84 *3015:GATE_N *2855:GATE_N 9.77532e-05
85 *3120:A *2860:GATE_N 9.02099e-05
86 *3134:A *2860:GATE_N 0.000262568
87 *3134:A *836:152 4.82863e-05
88 *816:18 *836:10 0.000108322
89 *816:18 *836:152 5.05521e-05
90 *816:20 *836:10 0.000339893
91 *816:30 *836:38 0
92 *816:30 *836:57 0.000239723
93 *816:38 *836:57 0.000273695
94 *816:38 *836:67 0.00060656
95 *816:44 *836:67 1.49348e-05
96 *816:54 *2846:GATE_N 9.22294e-06
97 *820:10 *2860:GATE_N 0
98 *820:10 *836:10 0
99 *820:12 *836:10 0
100 *820:20 *836:10 0
101 *820:38 *836:67 6.63219e-06
102 *833:14 *2849:GATE_N 0
103 *833:14 *2855:GATE_N 0
*RES
1 *3134:X *836:4 1.6 
2 *836:4 *836:10 9.205 
3 *836:10 *836:22 14.235 
4 *836:22 *836:38 15.72 
5 *836:38 *2856:GATE_N 8.735 
6 *836:38 *836:57 10.145 
7 *836:57 *836:67 13.745 
8 *836:67 *2846:GATE_N 9.335 
9 *836:67 *2848:GATE_N 1.6 
10 *836:57 *836:95 11.54 
11 *836:95 *2857:GATE_N 2.215 
12 *836:95 *836:106 6.935 
13 *836:106 *2855:GATE_N 17.49 
14 *836:106 *2849:GATE_N 6.255 
15 *836:22 *2853:GATE_N 5.01 
16 *836:10 *2858:GATE_N 2.755 
17 *836:4 *836:152 1.755 
18 *836:152 *2860:GATE_N 22.28 
19 *836:152 *2854:GATE_N 1.6 
*END

*D_NET *837 0.0171399
*CONN
*I *2850:GATE_N I *D sky130_fd_sc_hd__dlxtn_1
*I *2859:GATE_N I *D sky130_fd_sc_hd__dlxtn_1
*I *2847:GATE_N I *D sky130_fd_sc_hd__dlxtn_1
*I *2861:GATE_N I *D sky130_fd_sc_hd__dlxtn_1
*I *2852:GATE_N I *D sky130_fd_sc_hd__dlxtn_1
*I *2851:GATE_N I *D sky130_fd_sc_hd__dlxtn_1
*I *3135:X O *D sky130_fd_sc_hd__clkbuf_2
*CAP
1 *2850:GATE_N 1.20398e-05
2 *2859:GATE_N 0.000400936
3 *2847:GATE_N 0.000108359
4 *2861:GATE_N 0
5 *2852:GATE_N 0.000859058
6 *2851:GATE_N 0.000559693
7 *3135:X 0
8 *837:83 0.00215182
9 *837:56 0.00168309
10 *837:31 0.00148482
11 *837:27 0.00107441
12 *837:4 0.00103686
13 *2847:GATE_N *876:41 0.000232111
14 *2850:GATE_N *2415:B 5.4003e-05
15 *2850:GATE_N *907:48 1.94723e-05
16 *2851:GATE_N *2501:C1 0
17 *2851:GATE_N *2513:C1 8.40269e-05
18 *2851:GATE_N *2851:D 4.77757e-05
19 *2852:GATE_N *2521:A2 8.65905e-05
20 *2852:GATE_N *2521:B1 0.000274468
21 *2852:GATE_N *2522:A2 0
22 *2852:GATE_N *2523:A2 0.00033061
23 *2852:GATE_N *2523:B1 1.05476e-05
24 *2852:GATE_N *2852:D 2.60041e-05
25 *2852:GATE_N *922:68 0.000142194
26 *2859:GATE_N *2467:B1 8.34458e-05
27 *2859:GATE_N *849:37 4.82919e-05
28 *2859:GATE_N *895:8 6.91271e-05
29 *2859:GATE_N *922:27 0.000143024
30 *2859:GATE_N *925:43 0.000143045
31 *837:27 *2512:B1 7.53809e-05
32 *837:27 *2850:D 1.56428e-05
33 *837:31 *2415:B 0.000112123
34 *837:31 *2524:A2 6.08246e-05
35 *837:31 *2989:D 0.000226834
36 *837:31 *844:56 0.000157602
37 *837:31 *904:16 0
38 *837:31 *905:47 0
39 *837:31 *907:48 8.52744e-05
40 *837:31 *929:18 0
41 *837:56 *922:68 5.6361e-05
42 *837:83 *2879:D 4.66108e-05
43 *837:83 *2988:D 9.66021e-05
44 *837:83 *3021:D 0.00013521
45 *837:83 *864:10 0
46 *837:83 *864:47 0.000336185
47 *837:83 *922:68 2.76356e-05
48 *2466:A1 *2859:GATE_N 0.000171585
49 *2466:A1 *837:83 0.000177826
50 *2466:B2 *2847:GATE_N 5.83121e-06
51 *2466:B2 *2859:GATE_N 0.000130938
52 *2510:B2 *2851:GATE_N 8.01131e-05
53 *2512:B2 *2851:GATE_N 0.000120407
54 *2513:B1 *2851:GATE_N 0.000245893
55 *2521:A1 *2852:GATE_N 0.000160213
56 *2521:B2 *2852:GATE_N 1.70935e-05
57 *2522:A1 *2852:GATE_N 7.06865e-05
58 *2522:B2 *2852:GATE_N 0.000237684
59 *2524:B1 *2852:GATE_N 0.000140912
60 *2600:A1 *2859:GATE_N 0.000175955
61 *2879:GATE_N *837:83 8.40213e-05
62 *2932:GATE_N *837:83 0.000103811
63 *2943:GATE_N *837:83 1.01851e-05
64 *2980:GATE_N *2852:GATE_N 7.9148e-05
65 *2988:GATE_N *837:83 2.49909e-05
66 *3007:GATE_N *837:31 0.000605893
67 *3114:A *837:83 0.00013687
68 *3120:A *837:31 4.62396e-05
69 *3131:A *837:31 0.00013477
70 *3132:A *2852:GATE_N 5.14739e-05
71 *3132:A *837:56 0.00016063
72 *3132:A *837:83 7.14699e-05
73 *3135:A *837:27 0.000146392
74 *3135:A *837:31 0
75 *3208:A *837:83 0.000345353
76 *437:26 *837:31 0.000138606
77 *823:20 *2859:GATE_N 2.75229e-05
78 *831:18 *2859:GATE_N 0.000220013
79 *831:18 *837:83 0.000374569
80 *832:47 *2852:GATE_N 4.47217e-05
*RES
1 *3135:X *837:4 1.6 
2 *837:4 *2851:GATE_N 14.525 
3 *837:4 *837:27 7.97 
4 *837:27 *837:31 15.875 
5 *837:31 *2852:GATE_N 23.435 
6 *837:31 *837:56 1.485 
7 *837:56 *2861:GATE_N 1.6 
8 *837:56 *837:83 32.4 
9 *837:83 *2847:GATE_N 5.775 
10 *837:83 *2859:GATE_N 14.655 
11 *837:27 *2850:GATE_N 4.215 
*END

*D_NET *838 0.0220978
*CONN
*I *2835:GATE_N I *D sky130_fd_sc_hd__dlxtn_1
*I *2838:GATE_N I *D sky130_fd_sc_hd__dlxtn_1
*I *2837:GATE_N I *D sky130_fd_sc_hd__dlxtn_1
*I *2840:GATE_N I *D sky130_fd_sc_hd__dlxtn_1
*I *2832:GATE_N I *D sky130_fd_sc_hd__dlxtn_1
*I *2842:GATE_N I *D sky130_fd_sc_hd__dlxtn_1
*I *2833:GATE_N I *D sky130_fd_sc_hd__dlxtn_1
*I *2839:GATE_N I *D sky130_fd_sc_hd__dlxtn_1
*I *2841:GATE_N I *D sky130_fd_sc_hd__dlxtn_1
*I *2830:GATE_N I *D sky130_fd_sc_hd__dlxtn_1
*I *3136:X O *D sky130_fd_sc_hd__buf_2
*CAP
1 *2835:GATE_N 0
2 *2838:GATE_N 7.64491e-05
3 *2837:GATE_N 0
4 *2840:GATE_N 0
5 *2832:GATE_N 0
6 *2842:GATE_N 2.08101e-05
7 *2833:GATE_N 0.000289096
8 *2839:GATE_N 0
9 *2841:GATE_N 0.000170098
10 *2830:GATE_N 0.000822827
11 *3136:X 0.000512803
12 *838:105 0.00127365
13 *838:70 0.00129755
14 *838:62 0.000464218
15 *838:54 0.0015955
16 *838:44 0.000950891
17 *838:40 0.000908128
18 *838:34 0.000858031
19 *838:28 0.00139179
20 *838:18 0.00139952
21 *2830:GATE_N *2652:A0 0.000107657
22 *2830:GATE_N *2652:A1 0
23 *2830:GATE_N *2830:D 5.34747e-05
24 *2830:GATE_N *884:38 8.57226e-05
25 *2830:GATE_N *884:109 4.00541e-06
26 *2833:GATE_N *2833:D 0.00012195
27 *2833:GATE_N *872:62 4.99619e-05
28 *2833:GATE_N *898:118 0.000813828
29 *2838:GATE_N *2838:D 0.000158066
30 *2841:GATE_N *2460:A2 0
31 *2841:GATE_N *2639:A 4.12825e-05
32 *2841:GATE_N *2655:A0 0
33 *2841:GATE_N *911:92 5.19629e-05
34 *838:18 *2631:A 0.000122331
35 *838:18 *867:6 9.59368e-05
36 *838:18 *867:10 0.000106201
37 *838:18 *867:16 1.43521e-05
38 *838:28 *2517:A2 0.000351041
39 *838:28 *2547:B1 8.11436e-05
40 *838:28 *2844:GATE_N 0.000309836
41 *838:28 *2915:D 7.45952e-05
42 *838:28 *839:79 0.000188401
43 *838:28 *860:97 1.1561e-05
44 *838:28 *867:16 7.60305e-05
45 *838:28 *912:62 2.46007e-05
46 *838:34 *2547:A2 0
47 *838:34 *2547:B1 0.00013752
48 *838:34 *2562:B1 0.000100603
49 *838:34 *2844:GATE_N 6.28008e-05
50 *838:34 *860:97 5.66621e-05
51 *838:34 *894:142 0
52 *838:40 *2547:A2 0
53 *838:40 *2562:A2 0.000348152
54 *838:40 *2562:B1 0.000298971
55 *838:40 *2840:D 8.76986e-05
56 *838:40 *884:20 0
57 *838:44 *2562:A2 0.000187766
58 *838:44 *2840:D 4.18603e-06
59 *838:44 *2912:D 0
60 *838:44 *874:44 0
61 *838:44 *884:20 0
62 *838:54 *2473:A2 3.11262e-05
63 *838:54 *2474:B1 8.03844e-05
64 *838:54 *2636:A 0.000164352
65 *838:54 *2832:D 0.000201508
66 *838:70 *2460:A2 3.27313e-05
67 *838:70 *2550:A2 3.00381e-05
68 *838:70 *2550:B1 4.82863e-05
69 *838:105 *898:118 0.0003106
70 *2452:A1 *2841:GATE_N 0
71 *2452:B2 *2841:GATE_N 0
72 *2452:C1 *2841:GATE_N 0
73 *2460:A1 *2830:GATE_N 1.32843e-05
74 *2460:A1 *2841:GATE_N 0
75 *2473:B2 *838:44 0
76 *2473:B2 *838:54 0.000134148
77 *2474:A1 *838:44 0
78 *2474:C1 *838:44 0
79 *2474:C1 *838:54 0
80 *2485:B2 *2833:GATE_N 9.47454e-05
81 *2507:A1 *838:18 0
82 *2507:B2 *838:18 0.000143336
83 *2508:B2 *838:28 0
84 *2515:B2 *838:18 0
85 *2518:B2 *838:28 0.000289004
86 *2528:B2 *838:34 0
87 *2529:A1 *838:34 9.3062e-06
88 *2529:A1 *838:40 0.000163508
89 *2529:B2 *838:34 0.000135889
90 *2529:B2 *838:40 0.000117825
91 *2547:B2 *838:34 0
92 *2547:C1 *838:34 0.000229203
93 *2559:A1 *838:54 0.000122337
94 *2559:B2 *838:105 0
95 *2592:A1 *838:105 0.000233781
96 *2617:B2 *838:28 0.00027836
97 *2636:B *838:54 0.000122337
98 *2639:B *838:70 0.000159747
99 *2639:B *838:105 0.000431011
100 *2803:D *2830:GATE_N 5.13029e-05
101 *2936:GATE_N *838:105 0.00023912
102 *2950:GATE_N *838:28 4.19894e-05
103 *3031:GATE_N *838:105 0.000748114
104 *3040:GATE_N *838:44 0
105 *3075:GATE_N *838:18 5.79179e-05
106 *3079:GATE_N *838:105 0
107 *3105:A *838:18 2.01541e-05
108 *3105:A *838:28 3.85835e-05
109 *3154:A *838:62 4.99619e-05
110 *3154:A *838:70 6.83601e-05
111 *3173:A *838:70 1.08758e-05
112 *391:12 *2830:GATE_N 0
113 *521:18 *2830:GATE_N 6.77062e-05
114 *641:10 *838:105 0.000187551
115 *805:148 *838:105 0
116 *808:14 *838:18 6.76684e-05
117 *809:28 *2833:GATE_N 2.47313e-05
118 *809:90 *2833:GATE_N 9.39278e-05
119 *809:111 *2833:GATE_N 6.31208e-05
120 *809:111 *838:105 0.000142133
121 *822:117 *838:105 0.000170734
122 *823:68 *838:28 0.000117358
123 *827:48 *838:105 0
124 *827:52 *838:105 0
*RES
1 *3136:X *838:18 12.99 
2 *838:18 *838:28 21.615 
3 *838:28 *838:34 9.165 
4 *838:34 *838:40 11.205 
5 *838:40 *838:44 10.265 
6 *838:44 *838:54 13.78 
7 *838:54 *838:62 2.655 
8 *838:62 *838:70 7.4 
9 *838:70 *2830:GATE_N 15.315 
10 *838:70 *2841:GATE_N 6 
11 *838:62 *2839:GATE_N 1.6 
12 *838:54 *838:105 27.085 
13 *838:105 *2833:GATE_N 14.585 
14 *838:105 *2842:GATE_N 1.96 
15 *838:44 *2832:GATE_N 1.6 
16 *838:40 *2840:GATE_N 3.6 
17 *838:34 *2837:GATE_N 3.6 
18 *838:28 *2838:GATE_N 5.085 
19 *838:18 *2835:GATE_N 3.6 
*END

*D_NET *839 0.0183478
*CONN
*I *2845:GATE_N I *D sky130_fd_sc_hd__dlxtn_1
*I *2836:GATE_N I *D sky130_fd_sc_hd__dlxtn_1
*I *2844:GATE_N I *D sky130_fd_sc_hd__dlxtn_1
*I *2834:GATE_N I *D sky130_fd_sc_hd__dlxtn_1
*I *2843:GATE_N I *D sky130_fd_sc_hd__dlxtn_1
*I *2831:GATE_N I *D sky130_fd_sc_hd__dlxtn_1
*I *3137:X O *D sky130_fd_sc_hd__dlymetal6s2s_1
*CAP
1 *2845:GATE_N 0.000302773
2 *2836:GATE_N 6.02722e-05
3 *2844:GATE_N 0.00118569
4 *2834:GATE_N 3.40229e-05
5 *2843:GATE_N 0
6 *2831:GATE_N 0.000624154
7 *3137:X 0
8 *839:79 0.00147907
9 *839:75 0.0017786
10 *839:50 0.0018952
11 *839:16 0.00103429
12 *839:4 0.00102858
13 *2831:GATE_N *849:87 1.88904e-05
14 *2831:GATE_N *875:122 4.82919e-05
15 *2831:GATE_N *899:29 0
16 *2831:GATE_N *911:25 3.00381e-05
17 *2831:GATE_N *929:83 1.01145e-05
18 *2836:GATE_N *2836:D 3.66286e-05
19 *2836:GATE_N *3076:D 8.40269e-05
20 *2844:GATE_N *2507:A2 0.000184533
21 *2844:GATE_N *2547:B1 0.000409872
22 *2844:GATE_N *2844:D 5.50167e-05
23 *2844:GATE_N *896:33 1.70935e-05
24 *2845:GATE_N *2845:D 7.28428e-05
25 *2845:GATE_N *2957:D 3.64998e-06
26 *839:16 *2465:B1 6.16226e-06
27 *839:16 *889:56 0.000126553
28 *839:50 *2914:D 4.32364e-05
29 *839:50 *869:74 2.97403e-05
30 *839:50 *917:62 5.02221e-05
31 *839:75 *2507:A2 0.000881639
32 *839:75 *2914:D 5.81951e-05
33 *839:75 *2957:D 9.23485e-05
34 *839:75 *844:101 4.08573e-05
35 *839:75 *866:23 0.000258751
36 *839:75 *866:35 0.000382769
37 *839:75 *895:81 2.42236e-05
38 *839:75 *915:48 0
39 *839:75 *917:62 3.68828e-05
40 *839:75 *962:10 0
41 *839:79 *2547:B1 0.00065276
42 *2472:B *2845:GATE_N 3.84912e-05
43 *2497:B2 *839:75 5.8685e-05
44 *2503:A *839:50 2.49909e-05
45 *2503:C *839:50 0.000190715
46 *2504:A1 *839:50 0.000158072
47 *2507:A1 *839:75 0.000119756
48 *2518:B2 *839:79 0.00028733
49 *2548:B1 *2844:GATE_N 0.000102443
50 *2602:C *2831:GATE_N 0.00015986
51 *2603:B1 *839:16 1.79483e-05
52 *2616:A1 *839:75 5.20968e-05
53 *2616:B2 *839:75 0
54 *2957:GATE_N *839:75 4.80285e-05
55 *3051:GATE_N *839:16 6.71882e-05
56 *3051:GATE_N *839:50 4.85206e-05
57 *3109:A *839:75 0.00011192
58 *3126:A *2844:GATE_N 2.52454e-05
59 *807:115 *2844:GATE_N 0.000696398
60 *808:80 *2831:GATE_N 0.000198039
61 *810:22 *839:75 0
62 *810:84 *839:75 0.000569146
63 *812:76 *2831:GATE_N 0
64 *826:47 *2831:GATE_N 2.62107e-05
65 *828:18 *839:16 0.000624983
66 *828:48 *839:50 4.06436e-05
67 *828:60 *839:75 0.000493506
68 *829:20 *2831:GATE_N 0.000548572
69 *838:28 *2844:GATE_N 0.000309836
70 *838:28 *839:79 0.000188401
71 *838:34 *2844:GATE_N 6.28008e-05
*RES
1 *3137:X *839:4 1.6 
2 *839:4 *839:16 5.34277 
3 *839:16 *2831:GATE_N 16.95 
4 *839:16 *2843:GATE_N 3.6 
5 *839:4 *839:50 9.555 
6 *839:50 *2834:GATE_N 2.215 
7 *839:50 *839:75 34.565 
8 *839:75 *839:79 9.755 
9 *839:79 *2844:GATE_N 12.8689 
10 *839:79 *2836:GATE_N 4.74 
11 *839:75 *2845:GATE_N 5.425 
*END

*D_NET *840 0.018758
*CONN
*I *2425:A I *D sky130_fd_sc_hd__nand2_1
*I *2399:A I *D sky130_fd_sc_hd__nand2_1
*I *2413:A I *D sky130_fd_sc_hd__nand2_1
*I *2417:A I *D sky130_fd_sc_hd__nand2_1
*I *2415:A I *D sky130_fd_sc_hd__nand2_1
*I *2397:A I *D sky130_fd_sc_hd__nand2_1
*I *2401:A I *D sky130_fd_sc_hd__nand2_1
*I *2411:A I *D sky130_fd_sc_hd__nand2_1
*I *2395:B I *D sky130_fd_sc_hd__nand2_1
*I *2423:A I *D sky130_fd_sc_hd__nand2_1
*I *3138:X O *D sky130_fd_sc_hd__buf_2
*CAP
1 *2425:A 8.3535e-05
2 *2399:A 0.000675235
3 *2413:A 0
4 *2417:A 0
5 *2415:A 1.8055e-05
6 *2397:A 5.93145e-05
7 *2401:A 0.000114662
8 *2411:A 4.80368e-05
9 *2395:B 7.45125e-06
10 *2423:A 0.000197886
11 *3138:X 0
12 *840:103 0.000732395
13 *840:87 0.000152126
14 *840:59 0.000237444
15 *840:57 0.000197538
16 *840:46 8.47887e-05
17 *840:44 0.00067279
18 *840:29 0.00185861
19 *840:10 0.00177306
20 *840:4 0.00038643
21 *2395:B *3216:A 9.26907e-06
22 *2397:A *929:58 5.8847e-05
23 *2397:A *936:49 0.000153816
24 *2399:A *2399:B 0
25 *2399:A *2413:B 0.000123701
26 *2399:A *3019:D 0
27 *2399:A *3211:A 5.21627e-05
28 *2399:A *925:33 0.000261882
29 *2401:A *907:48 0.000201114
30 *2411:A *909:60 4.95661e-05
31 *2415:A *2417:B 4.82863e-05
32 *2423:A *2409:A 8.65905e-05
33 *2423:A *2509:A2 0.000105235
34 *2423:A *2509:B1 4.74827e-05
35 *2423:A *897:45 0.000122337
36 *2423:A *919:49 0.000172844
37 *2425:A *895:63 2.49909e-05
38 *840:10 *893:59 7.59573e-06
39 *840:10 *895:63 1.6408e-05
40 *840:10 *919:49 7.70424e-07
41 *840:29 *929:83 0.00130392
42 *840:44 *3216:A 9.56242e-06
43 *840:44 *892:33 0.000230851
44 *840:44 *909:60 3.96653e-05
45 *840:46 *909:60 6.00111e-05
46 *840:59 *907:48 4.9968e-05
47 *840:87 *2417:B 4.39849e-05
48 *2509:B2 *2423:A 2.49764e-05
49 *2514:A *2423:A 1.88656e-05
50 *2514:A *840:29 0.000524349
51 *2891:GATE_N *840:44 0.00107232
52 *2991:GATE_N *2399:A 0.00034835
53 *2991:GATE_N *840:103 0.000180675
54 *3007:GATE_N *2401:A 8.247e-05
55 *3019:GATE_N *2399:A 0
56 *3083:GATE_N *840:29 0.00255475
57 *3114:A *2401:A 0.000201114
58 *3114:A *840:59 0.000168116
59 *3114:A *840:87 0.000105266
60 *3115:A *2399:A 1.59248e-05
61 *3115:A *840:87 3.09164e-05
62 *3118:A *2401:A 0.000155497
63 *3118:A *840:59 2.79004e-05
64 *3118:A *840:103 0.000112123
65 *3121:A *2399:A 1.10968e-05
66 *3121:A *840:59 7.30547e-05
67 *3121:A *840:87 0.00013521
68 *3121:A *840:103 3.84331e-05
69 *3122:A *2423:A 4.84621e-05
70 *3126:A *2423:A 1.61892e-05
71 *3127:A *2423:A 4.36573e-06
72 *3127:A *840:10 3.59531e-06
73 *3138:A *2425:A 1.67131e-05
74 *3138:A *840:10 0.00033311
75 *3171:A *2395:B 6.63219e-06
76 *3171:A *840:44 6.63219e-06
77 *3185:A *840:44 0.000271308
78 *3304:A *840:44 8.23457e-05
79 *383:10 *840:44 4.41804e-05
80 *435:12 *840:44 0.000129688
81 *806:14 *840:29 0.000462087
82 *808:54 *2423:A 0.00012624
83 *817:84 *2399:A 1.44259e-05
84 *823:8 *2423:A 7.73773e-05
85 *832:25 *2411:A 8.23457e-05
86 *832:25 *840:44 0.000452563
87 *832:25 *840:46 0.000118081
*RES
1 *3138:X *840:4 1.6 
2 *840:4 *840:10 6.0425 
3 *840:10 *2423:A 9.4425 
4 *840:10 *840:29 5.64107 
5 *840:29 *2395:B 3.8325 
6 *840:29 *840:44 18.2675 
7 *840:44 *840:46 1.14 
8 *840:46 *2411:A 2.755 
9 *840:46 *840:57 2 
10 *840:57 *840:59 2.145 
11 *840:59 *2401:A 7.485 
12 *840:59 *2397:A 5.085 
13 *840:57 *840:87 5.045 
14 *840:87 *2415:A 2.05 
15 *840:87 *2417:A 1.6 
16 *840:44 *840:103 4.145 
17 *840:103 *2413:A 3.6 
18 *840:103 *2399:A 16.38 
19 *840:4 *2425:A 3.01 
*END

*D_NET *841 0.0051545
*CONN
*I *2419:A I *D sky130_fd_sc_hd__nand2_1
*I *2407:A I *D sky130_fd_sc_hd__nand2_1
*I *2421:A I *D sky130_fd_sc_hd__nand2_1
*I *2405:A I *D sky130_fd_sc_hd__nand2_1
*I *2409:A I *D sky130_fd_sc_hd__nand2_1
*I *2403:A I *D sky130_fd_sc_hd__nand2_1
*I *3139:X O *D sky130_fd_sc_hd__dlymetal6s2s_1
*CAP
1 *2419:A 0.000181694
2 *2407:A 0
3 *2421:A 0
4 *2405:A 8.43066e-05
5 *2409:A 0.000196969
6 *2403:A 5.45042e-05
7 *3139:X 0
8 *841:38 8.43066e-05
9 *841:21 0.000508103
10 *841:17 0.000326287
11 *841:15 0.000623602
12 *841:4 0.00048126
13 *2405:A *2421:B 4.66108e-05
14 *2405:A *895:63 0.000194694
15 *2409:A *897:31 7.9642e-06
16 *2409:A *897:45 0.000147106
17 *2409:A *1012:16 7.45694e-05
18 *2419:A *2407:B 2.49909e-05
19 *841:17 *2407:B 1.22619e-05
20 *841:21 *2898:D 0
21 *841:21 *3042:D 0.000206684
22 *841:21 *897:29 0.000175216
23 *841:21 *897:31 0.000367657
24 *841:21 *915:33 0.000223334
25 *841:21 *1012:16 0.000119094
26 *2423:A *2409:A 8.65905e-05
27 *2498:A1 *2419:A 6.07575e-06
28 *2498:A1 *841:15 1.83756e-05
29 *2504:B1 *2403:A 3.24882e-05
30 *2504:B1 *841:15 1.08758e-05
31 *3122:A *2409:A 8.15616e-05
32 *3123:A *2409:A 1.14169e-05
33 *3138:A *2403:A 2.49909e-05
34 *3138:A *2405:A 8.95518e-05
35 *3138:A *841:15 0.000119645
36 *3139:A *2403:A 4.60061e-05
37 *439:8 *2403:A 8.41307e-05
38 *441:10 *2419:A 6.91019e-05
39 *477:30 *2403:A 1.31297e-05
40 *823:8 *2409:A 0.000229025
41 *828:60 *841:15 9.0318e-05
*RES
1 *3139:X *841:4 1.6 
2 *841:4 *2403:A 3.085 
3 *841:4 *841:15 7.02 
4 *841:15 *841:17 0.36 
5 *841:17 *841:21 10.265 
6 *841:21 *2409:A 8.73 
7 *841:21 *841:38 2 
8 *841:38 *2405:A 4.15 
9 *841:38 *2421:A 1.6 
10 *841:17 *2407:A 1.6 
11 *841:15 *2419:A 4.615 
*END

*D_NET *842 0.0109215
*CONN
*I *2812:GATE_N I *D sky130_fd_sc_hd__dlxtn_1
*I *2808:GATE_N I *D sky130_fd_sc_hd__dlxtn_1
*I *2814:GATE_N I *D sky130_fd_sc_hd__dlxtn_1
*I *2822:GATE_N I *D sky130_fd_sc_hd__dlxtn_1
*I *2819:GATE_N I *D sky130_fd_sc_hd__dlxtn_1
*I *2817:GATE_N I *D sky130_fd_sc_hd__dlxtn_1
*I *2816:GATE_N I *D sky130_fd_sc_hd__dlxtn_1
*I *2818:GATE_N I *D sky130_fd_sc_hd__dlxtn_1
*I *2809:GATE_N I *D sky130_fd_sc_hd__dlxtn_1
*I *2807:GATE_N I *D sky130_fd_sc_hd__dlxtn_1
*I *3140:X O *D sky130_fd_sc_hd__clkbuf_2
*CAP
1 *2812:GATE_N 0.000160181
2 *2808:GATE_N 0.000162373
3 *2814:GATE_N 2.57855e-05
4 *2822:GATE_N 4.05263e-05
5 *2819:GATE_N 2.71232e-05
6 *2817:GATE_N 4.05263e-05
7 *2816:GATE_N 6.26341e-05
8 *2818:GATE_N 0
9 *2809:GATE_N 0
10 *2807:GATE_N 0.000267529
11 *3140:X 0.000293003
12 *842:36 0.000419162
13 *842:32 0.000258571
14 *842:26 0.000288017
15 *842:24 0.000278325
16 *842:22 0.00025792
17 *842:20 0.000206872
18 *842:18 0.000980531
19 *842:14 0.00119175
20 *842:12 0.000582717
21 *2807:GATE_N *2638:A 0
22 *2807:GATE_N *3352:A 0.000253014
23 *2819:GATE_N *2655:A1 3.03684e-05
24 *2822:GATE_N *2658:A1 8.40213e-05
25 *842:12 *2662:A1 0
26 *842:12 *2805:GATE_N 5.83121e-06
27 *842:12 *843:14 0
28 *842:14 *2662:A1 0
29 *842:14 *843:14 0
30 *842:14 *1041:16 6.95335e-05
31 *842:18 *2662:A1 0
32 *842:18 *3336:A 0
33 *842:18 *3338:A 0
34 *842:18 *3342:A 0
35 *842:18 *3343:A 0
36 *842:18 *3355:A 0.000120186
37 *842:18 *1041:16 0.00044596
38 *842:20 *3355:A 2.45838e-05
39 *842:20 *1041:16 0.000195925
40 *842:22 *3355:A 0.000142011
41 *842:22 *1041:16 0.000352768
42 *842:24 *3355:A 0.000147935
43 *842:24 *1041:16 0.000355129
44 *842:26 *3355:A 0.000144965
45 *842:26 *1041:16 0.000355129
46 *842:32 *3355:A 1.44259e-05
47 *842:32 *1041:16 0.00015829
48 *842:36 *886:50 1.54318e-05
49 *842:36 *1041:16 0.00033517
50 PWDATA[5] *2807:GATE_N 0.000132842
51 PWDATA[6] *842:18 0
52 PWDATA[7] *842:18 0
53 PWDATA[8] *842:18 0
54 rdata[11] *2807:GATE_N 5.58772e-05
55 rdata[3] *2807:GATE_N 0.000319939
56 *2461:B *2807:GATE_N 0
57 *2461:B *842:36 0
58 *2638:B *842:36 0.000136106
59 *2649:A1 *842:18 0
60 *2802:D *2807:GATE_N 8.65905e-05
61 *2805:D *842:18 9.24049e-05
62 *2808:D *2808:GATE_N 3.94592e-05
63 *2809:D *842:36 1.15688e-05
64 *2810:D *842:18 0.000316806
65 *2812:D *842:12 8.08439e-05
66 *2814:D *2814:GATE_N 8.40213e-05
67 *2815:D *842:18 0.000141599
68 *2816:D *842:26 8.53113e-06
69 *2816:D *842:32 0.000116853
70 *2817:D *2817:GATE_N 8.40213e-05
71 *2818:D *842:32 8.23457e-05
72 *2819:D *2819:GATE_N 8.40213e-05
73 *2820:D *842:12 6.54766e-05
74 *2822:D *2814:GATE_N 3.95073e-05
75 *2822:D *842:20 0.000139933
76 *2822:D *842:22 8.53113e-06
77 *3257:A *842:18 0
*RES
1 *3140:X *842:12 8.115 
2 *842:12 *842:14 2.4 
3 *842:14 *842:18 20.535 
4 *842:18 *842:20 2.4 
5 *842:20 *842:22 4.185 
6 *842:22 *842:24 4.185 
7 *842:24 *842:26 4.185 
8 *842:26 *842:32 4.685 
9 *842:32 *842:36 6.44 
10 *842:36 *2807:GATE_N 10.47 
11 *842:36 *2809:GATE_N 3.6 
12 *842:32 *2818:GATE_N 1.6 
13 *842:26 *2816:GATE_N 4.395 
14 *842:24 *2817:GATE_N 4.395 
15 *842:22 *2819:GATE_N 4.395 
16 *842:20 *2822:GATE_N 4.395 
17 *842:18 *2814:GATE_N 4.395 
18 *842:14 *2808:GATE_N 5.7 
19 *842:12 *2812:GATE_N 5.79 
*END

*D_NET *843 0.00394085
*CONN
*I *2811:GATE_N I *D sky130_fd_sc_hd__dlxtn_1
*I *2820:GATE_N I *D sky130_fd_sc_hd__dlxtn_1
*I *2815:GATE_N I *D sky130_fd_sc_hd__dlxtn_1
*I *2821:GATE_N I *D sky130_fd_sc_hd__dlxtn_1
*I *2810:GATE_N I *D sky130_fd_sc_hd__dlxtn_1
*I *2813:GATE_N I *D sky130_fd_sc_hd__dlxtn_1
*I *3141:X O *D sky130_fd_sc_hd__buf_1
*CAP
1 *2811:GATE_N 2.56208e-05
2 *2820:GATE_N 0
3 *2815:GATE_N 3.37454e-05
4 *2821:GATE_N 1.17375e-05
5 *2810:GATE_N 0
6 *2813:GATE_N 5.83776e-05
7 *3141:X 0.000109413
8 *843:20 0.000147973
9 *843:16 0.000156598
10 *843:14 0.000445872
11 *843:12 0.000445555
12 *843:10 0.000223727
13 *2813:GATE_N *886:30 0.000139245
14 *2813:GATE_N *1041:16 0.000187064
15 *843:12 *887:28 5.12017e-06
16 *843:14 *2805:GATE_N 0.000605921
17 *843:14 *1041:16 0.00048318
18 *843:16 *2805:GATE_N 8.60912e-05
19 *843:16 *1041:16 8.78813e-05
20 *843:20 *2805:GATE_N 3.13459e-05
21 *843:20 *886:30 0
22 *843:20 *1041:16 9.76522e-05
23 *2641:B *2813:GATE_N 1.7902e-05
24 *2641:B *843:20 8.53113e-06
25 *2811:D *843:10 2.75229e-05
26 *2812:D *2811:GATE_N 1.83847e-05
27 *2812:D *843:12 0
28 *2812:D *843:14 0
29 *2815:D *2821:GATE_N 2.75229e-05
30 *2820:D *843:10 0.000129728
31 *2820:D *843:12 0.000164686
32 *2821:D *2821:GATE_N 4.82919e-05
33 *2821:D *843:20 0.000116158
34 *842:12 *843:14 0
35 *842:14 *843:14 0
*RES
1 *3141:X *843:10 5.685 
2 *843:10 *843:12 2.145 
3 *843:12 *843:14 12.345 
4 *843:14 *843:16 1.89 
5 *843:16 *843:20 2.595 
6 *843:20 *2813:GATE_N 5.745 
7 *843:20 *2810:GATE_N 3.6 
8 *843:16 *2821:GATE_N 4.05 
9 *843:14 *2815:GATE_N 4.05 
10 *843:12 *2820:GATE_N 3.6 
11 *843:10 *2811:GATE_N 4.05 
*END

*D_NET *844 0.0176569
*CONN
*I *3069:D I *D sky130_fd_sc_hd__dlxtn_1
*I *2957:D I *D sky130_fd_sc_hd__dlxtn_1
*I *2925:D I *D sky130_fd_sc_hd__dlxtn_1
*I *2893:D I *D sky130_fd_sc_hd__dlxtn_1
*I *2861:D I *D sky130_fd_sc_hd__dlxtn_1
*I *2989:D I *D sky130_fd_sc_hd__dlxtn_1
*I *2877:D I *D sky130_fd_sc_hd__dlxtn_1
*I *3005:D I *D sky130_fd_sc_hd__dlxtn_1
*I *2973:D I *D sky130_fd_sc_hd__dlxtn_1
*I *3021:D I *D sky130_fd_sc_hd__dlxtn_1
*I *3142:X O *D sky130_fd_sc_hd__clkbuf_2
*CAP
1 *3069:D 0
2 *2957:D 0.000128167
3 *2925:D 2.12116e-05
4 *2893:D 0
5 *2861:D 0
6 *2989:D 0.000149014
7 *2877:D 0
8 *3005:D 0.000343282
9 *2973:D 2.26797e-05
10 *3021:D 5.04538e-05
11 *3142:X 0.000180754
12 *844:101 0.000230763
13 *844:58 0.000343282
14 *844:56 0.000223481
15 *844:45 0.000257277
16 *844:30 0.000210585
17 *844:28 0.000244769
18 *844:20 0.00240713
19 *844:10 0.00226188
20 *844:6 0.000198885
21 *2989:D *2524:A2 0.000119212
22 *2989:D *905:33 7.32549e-05
23 *2989:D *905:47 8.65905e-05
24 *3005:D *925:86 0.000103903
25 *3021:D *907:56 0.000157595
26 *844:6 *2517:A2 0.00015409
27 *844:10 *2507:A2 1.38718e-05
28 *844:20 *3357:A 0.000230898
29 *844:20 *899:52 0.00217628
30 *844:28 *2521:B1 0.000246788
31 *844:28 *922:68 0.000252922
32 *844:45 *907:56 0.000201114
33 *844:56 *2524:A2 8.44437e-05
34 *844:101 *2507:A2 2.82764e-05
35 *2472:B *2925:D 4.82863e-05
36 *2472:B *2957:D 0.000415935
37 *2620:B2 *2989:D 0.000158175
38 *2624:A *844:20 0.000572484
39 *2625:B2 *844:20 0.00170141
40 *2845:GATE_N *2957:D 3.64998e-06
41 *2916:GATE_N *844:10 2.28346e-05
42 *2916:GATE_N *844:101 8.13808e-05
43 *2957:GATE_N *2957:D 8.49205e-05
44 *3007:GATE_N *2973:D 3.30017e-05
45 *3007:GATE_N *844:45 2.51154e-05
46 *3114:A *3021:D 1.34361e-05
47 *3114:A *844:45 0.000103226
48 *3132:A *844:28 0.000197264
49 *3192:A *844:20 1.59477e-05
50 *3214:A *844:20 0.00171684
51 *819:35 *2989:D 8.73389e-06
52 *821:16 *2973:D 8.41307e-05
53 *821:16 *844:45 0.00029933
54 *832:33 *844:20 8.66107e-06
55 *832:37 *844:20 1.43521e-05
56 *834:44 *844:45 0.000192125
57 *837:31 *2989:D 0.000226834
58 *837:31 *844:56 0.000157602
59 *837:83 *3021:D 0.00013521
60 *839:75 *2957:D 9.23485e-05
61 *839:75 *844:101 4.08573e-05
*RES
1 *3142:X *844:6 4.81 
2 *844:6 *844:10 2.4875 
3 *844:10 *844:20 11.5663 
4 *844:20 *844:28 6.45 
5 *844:28 *844:30 2 
6 *844:30 *3021:D 5.49 
7 *844:30 *844:45 7.265 
8 *844:45 *2973:D 2.395 
9 *844:45 *844:56 3.89 
10 *844:56 *844:58 2 
11 *844:58 *3005:D 6.565 
12 *844:58 *2877:D 1.6 
13 *844:56 *2989:D 8.445 
14 *844:28 *2861:D 1.6 
15 *844:20 *2893:D 1.6 
16 *844:10 *844:101 4.0175 
17 *844:101 *2925:D 2.05 
18 *844:101 *2957:D 5.5 
19 *844:6 *3069:D 1.6 
*END

*D_NET *845 0.00550007
*CONN
*I *2941:D I *D sky130_fd_sc_hd__dlxtn_1
*I *3085:D I *D sky130_fd_sc_hd__dlxtn_1
*I *3037:D I *D sky130_fd_sc_hd__dlxtn_1
*I *2909:D I *D sky130_fd_sc_hd__dlxtn_1
*I *3053:D I *D sky130_fd_sc_hd__dlxtn_1
*I *2845:D I *D sky130_fd_sc_hd__dlxtn_1
*I *3143:X O *D sky130_fd_sc_hd__buf_1
*CAP
1 *2941:D 0
2 *3085:D 0
3 *3037:D 0.000103702
4 *2909:D 0.000107668
5 *3053:D 9.17454e-05
6 *2845:D 9.24153e-05
7 *3143:X 5.25373e-05
8 *845:42 0.00021137
9 *845:33 0.000116173
10 *845:31 0.000102769
11 *845:29 0.000892028
12 *845:8 0.000958639
13 *845:8 *2518:A2 3.78981e-05
14 *2472:B *2845:D 0.000306353
15 *2472:B *3053:D 0.000380189
16 *2472:B *845:31 0.00030536
17 *2472:B *845:33 8.40269e-05
18 *2515:B2 *845:29 0
19 *2619:B2 *2909:D 4.26788e-05
20 *2625:A1 *2845:D 3.03775e-05
21 *2625:B1 *845:8 0.000113372
22 *2625:B2 *845:29 0.000606692
23 *2845:GATE_N *2845:D 7.28428e-05
24 *2899:GATE_N *845:29 9.82856e-06
25 *3039:GATE_N *3053:D 4.29107e-05
26 *3108:A *2909:D 0.000198546
27 *3108:A *3037:D 0.000155234
28 *3110:A *2909:D 0
29 *3110:A *3037:D 0
30 *810:41 *3053:D 0.000223434
31 *810:41 *845:31 0.000116912
32 *810:41 *845:33 2.67275e-05
33 *811:26 *845:29 1.7635e-05
*RES
1 *3143:X *845:8 4.98 
2 *845:8 *2845:D 6.465 
3 *845:8 *845:29 4.96023 
4 *845:29 *845:31 2.865 
5 *845:31 *845:33 0.795 
6 *845:33 *3053:D 5.155 
7 *845:33 *845:42 2 
8 *845:42 *2909:D 6 
9 *845:42 *3037:D 5.49 
10 *845:31 *3085:D 1.6 
11 *845:29 *2941:D 1.6 
*END

*D_NET *846 0.00315935
*CONN
*I *2651:A1 I *D sky130_fd_sc_hd__mux2_1
*I *3248:X O *D sky130_fd_sc_hd__clkbuf_1
*CAP
1 *2651:A1 0.00041823
2 *3248:X 0.00041823
3 *2651:A1 *2658:A0 6.90876e-05
4 *2651:A1 *884:24 0.00109396
5 *3288:A *2651:A1 0.000238919
6 *3309:A *2651:A1 4.82919e-05
7 *791:18 *2651:A1 0.000872633
*RES
1 *3248:X *2651:A1 19.775 
*END

*D_NET *847 0.0141042
*CONN
*I *2924:D I *D sky130_fd_sc_hd__dlxtn_1
*I *2940:D I *D sky130_fd_sc_hd__dlxtn_1
*I *3084:D I *D sky130_fd_sc_hd__dlxtn_1
*I *2876:D I *D sky130_fd_sc_hd__dlxtn_1
*I *2860:D I *D sky130_fd_sc_hd__dlxtn_1
*I *2988:D I *D sky130_fd_sc_hd__dlxtn_1
*I *2892:D I *D sky130_fd_sc_hd__dlxtn_1
*I *3004:D I *D sky130_fd_sc_hd__dlxtn_1
*I *3020:D I *D sky130_fd_sc_hd__dlxtn_1
*I *2972:D I *D sky130_fd_sc_hd__dlxtn_1
*I *3144:X O *D sky130_fd_sc_hd__clkbuf_2
*CAP
1 *2924:D 0.000136598
2 *2940:D 8.5006e-05
3 *3084:D 0.000172929
4 *2876:D 0
5 *2860:D 2.37575e-05
6 *2988:D 0.000148351
7 *2892:D 0
8 *3004:D 2.71232e-05
9 *3020:D 0
10 *2972:D 9.31762e-05
11 *3144:X 7.31205e-05
12 *847:135 0.00038614
13 *847:131 0.00273535
14 *847:88 0.00255345
15 *847:57 0.000297702
16 *847:51 0.000317521
17 *847:36 0.000254024
18 *847:25 0.000253317
19 *847:23 0.000309924
20 *847:6 0.000222496
21 *2860:D *2609:B1 2.49909e-05
22 *2924:D *896:12 0
23 *2972:D *934:22 6.36656e-05
24 *2988:D *864:47 7.60639e-05
25 *3004:D *906:75 8.40213e-05
26 *3004:D *928:33 3.03684e-05
27 *3084:D *2908:D 0.000129809
28 *3084:D *894:127 0.000232116
29 *3084:D *914:151 3.45331e-05
30 *847:23 *934:22 0
31 *847:25 *2543:C1 2.46077e-05
32 *847:25 *934:22 0
33 *847:36 *2543:C1 5.98004e-06
34 *847:51 *906:75 0.000114024
35 *847:51 *928:33 4.80182e-05
36 *847:57 *2609:B1 0.000113247
37 *847:131 *2540:A2 0.000439829
38 *847:131 *2586:A2 0.000173733
39 *847:131 *2586:B1 0.00013749
40 *847:131 *2611:B1 0.000132663
41 *847:131 *2938:D 0.000107094
42 *847:131 *848:16 0.000158066
43 *847:131 *848:27 0.000529954
44 *847:131 *848:36 3.76642e-05
45 *847:131 *851:33 8.6328e-05
46 *847:131 *851:53 7.47457e-05
47 *847:131 *894:21 2.68464e-05
48 *847:131 *894:112 0.00014615
49 *847:131 *900:21 2.99293e-05
50 *847:131 *914:118 4.78992e-05
51 *847:131 *914:151 0.000138801
52 *847:131 *923:16 6.01415e-05
53 *847:131 *923:26 8.53113e-06
54 *847:135 *848:27 4.87465e-06
55 *847:135 *848:36 0.000236729
56 *2540:B2 *847:131 1.12643e-05
57 *2541:B2 *847:131 8.57024e-05
58 *2545:A *847:131 0.000121437
59 *2585:A1 *847:131 6.91939e-06
60 *2586:B2 *847:131 1.12643e-05
61 *2591:A *2972:D 9.50342e-06
62 *2591:A *847:131 0.000107324
63 *2605:B2 *847:135 8.65905e-05
64 *2611:A1 *847:131 0.000169014
65 *2612:B1 *847:131 8.7152e-06
66 *2860:GATE_N *847:57 7.22354e-05
67 *2870:GATE_N *847:23 4.82863e-05
68 *2870:GATE_N *847:131 0.000182339
69 *2886:GATE_N *847:131 0
70 *2924:GATE_N *2924:D 9.9881e-05
71 *2938:GATE_N *847:131 3.24154e-05
72 *3071:GATE_N *2972:D 0
73 *3071:GATE_N *847:25 0
74 *3071:GATE_N *847:36 0
75 *3071:GATE_N *847:51 0.000202995
76 *3071:GATE_N *847:88 9.82856e-06
77 *3116:A *2988:D 0
78 *3116:A *847:57 0
79 *3126:A *2924:D 0.000307285
80 *3144:A *847:25 1.54712e-05
81 *3186:A *847:131 2.10214e-05
82 *3192:A *2988:D 0.000206123
83 *3192:A *847:36 0.000137578
84 *3192:A *847:51 0
85 *3192:A *847:57 0.00015997
86 *816:8 *847:57 0
87 *825:8 *2940:D 3.99879e-05
88 *825:8 *847:135 4.05674e-06
89 *825:18 *847:135 1.17409e-05
90 *830:71 *3084:D 3.93223e-05
91 *831:22 *847:131 8.24798e-05
92 *831:28 *847:131 7.9642e-06
93 *832:37 *2988:D 0
94 *833:120 *847:6 4.65607e-05
95 *833:120 *847:23 1.34594e-05
96 *837:83 *2988:D 9.66021e-05
*RES
1 *3144:X *847:6 2.74 
2 *847:6 *2972:D 7.235 
3 *847:6 *847:23 3.0275 
4 *847:23 *847:25 2.5275 
5 *847:25 *3020:D 3.6 
6 *847:25 *847:36 3.89 
7 *847:36 *3004:D 2.395 
8 *847:36 *847:51 7.54 
9 *847:51 *847:57 5.72 
10 *847:57 *2892:D 3.6 
11 *847:57 *2988:D 7.485 
12 *847:51 *2860:D 2.05 
13 *847:23 *847:88 3.0275 
14 *847:88 *2876:D 1.6 
15 *847:88 *847:131 48.08 
16 *847:131 *847:135 2.88 
17 *847:135 *3084:D 9.41 
18 *847:135 *2940:D 3.1 
19 *847:131 *2924:D 9.275 
*END

*D_NET *848 0.00474724
*CONN
*I *3068:D I *D sky130_fd_sc_hd__dlxtn_1
*I *3052:D I *D sky130_fd_sc_hd__dlxtn_1
*I *2908:D I *D sky130_fd_sc_hd__dlxtn_1
*I *2844:D I *D sky130_fd_sc_hd__dlxtn_1
*I *3036:D I *D sky130_fd_sc_hd__dlxtn_1
*I *2956:D I *D sky130_fd_sc_hd__dlxtn_1
*I *3145:X O *D sky130_fd_sc_hd__buf_1
*CAP
1 *3068:D 0.00010312
2 *3052:D 0
3 *2908:D 8.7449e-05
4 *2844:D 0.000181208
5 *3036:D 0
6 *2956:D 2.40156e-05
7 *3145:X 0.000104162
8 *848:36 0.000336018
9 *848:27 0.000242017
10 *848:16 0.000307721
11 *848:10 0.000173916
12 *848:8 0.000272148
13 *2844:D *2605:A2 0
14 *2844:D *860:34 4.99619e-05
15 *2844:D *896:33 0
16 *3068:D *2509:A2 8.08153e-06
17 *848:8 *2519:A2 4.82863e-05
18 *848:16 *894:112 1.33293e-05
19 *848:16 *914:151 0.000121437
20 *848:27 *894:112 3.69909e-05
21 *2605:B2 *2908:D 5.49504e-05
22 *2607:A1 *848:27 1.03423e-05
23 *2614:B2 *3068:D 0.000176032
24 *2614:B2 *848:8 6.07575e-06
25 *2844:GATE_N *2844:D 5.50167e-05
26 *3036:GATE_N *848:27 0.000122331
27 *3084:D *2908:D 0.000129809
28 *3108:A *3068:D 3.09233e-05
29 *3110:A *3068:D 9.06559e-05
30 *3110:A *848:10 3.09164e-05
31 *3126:A *2844:D 0
32 *807:18 *848:8 8.40213e-05
33 *807:99 *3068:D 4.41506e-05
34 *807:99 *848:8 0.000197269
35 *807:115 *848:10 6.62625e-05
36 *807:115 *848:16 1.90887e-05
37 *809:14 *848:8 4.82919e-05
38 *809:14 *848:10 9.63939e-05
39 *809:14 *848:16 7.9642e-06
40 *809:20 *848:16 0.000124014
41 *822:39 *3068:D 1.14559e-05
42 *822:39 *848:10 8.08153e-06
43 *822:39 *848:16 8.53307e-05
44 *825:18 *848:27 2.67503e-05
45 *825:18 *848:36 0.000125583
46 *827:44 *2844:D 1.83847e-05
47 *847:131 *848:16 0.000158066
48 *847:131 *848:27 0.000529954
49 *847:131 *848:36 3.76642e-05
50 *847:135 *848:27 4.87465e-06
51 *847:135 *848:36 0.000236729
*RES
1 *3145:X *848:8 6.12 
2 *848:8 *848:10 1.89 
3 *848:10 *848:16 5.12 
4 *848:16 *2956:D 1.96 
5 *848:16 *848:27 5.295 
6 *848:27 *3036:D 1.6 
7 *848:27 *848:36 4.865 
8 *848:36 *2844:D 6.45 
9 *848:36 *2908:D 5.49 
10 *848:10 *3052:D 3.6 
11 *848:8 *3068:D 6.765 
*END

*D_NET *849 0.00972157
*CONN
*I *2875:D I *D sky130_fd_sc_hd__dlxtn_1
*I *3035:D I *D sky130_fd_sc_hd__dlxtn_1
*I *3051:D I *D sky130_fd_sc_hd__dlxtn_1
*I *2843:D I *D sky130_fd_sc_hd__dlxtn_1
*I *2923:D I *D sky130_fd_sc_hd__dlxtn_1
*I *2859:D I *D sky130_fd_sc_hd__dlxtn_1
*I *2955:D I *D sky130_fd_sc_hd__dlxtn_1
*I *2891:D I *D sky130_fd_sc_hd__dlxtn_1
*I *3067:D I *D sky130_fd_sc_hd__dlxtn_1
*I *2907:D I *D sky130_fd_sc_hd__dlxtn_1
*I *3146:X O *D sky130_fd_sc_hd__clkbuf_2
*CAP
1 *2875:D 0.000201434
2 *3035:D 4.05368e-05
3 *3051:D 0.000118391
4 *2843:D 1.30736e-05
5 *2923:D 0
6 *2859:D 0
7 *2955:D 0
8 *2891:D 8.50982e-05
9 *3067:D 9.80475e-05
10 *2907:D 5.34772e-05
11 *3146:X 0.000219
12 *849:120 0.000241971
13 *849:98 0.000296187
14 *849:87 0.000526456
15 *849:41 0.000213919
16 *849:37 0.000227975
17 *849:35 0.00026988
18 *849:31 0.000844987
19 *849:12 0.000590943
20 *849:10 0.00034589
21 *2875:D *850:31 2.10134e-05
22 *2891:D *866:41 1.56428e-05
23 *2891:D *892:33 0.000175858
24 *2907:D *925:133 4.82919e-05
25 *2907:D *948:33 8.23457e-05
26 *3035:D *850:31 6.42013e-05
27 *3067:D *892:33 0.000195771
28 *849:10 *2939:D 0
29 *849:10 *3146:A 0
30 *849:10 *3226:A 0
31 *849:10 *870:24 4.82919e-05
32 *849:12 *2939:D 0
33 *849:12 *3226:A 0
34 *849:12 *939:79 5.16348e-05
35 *849:12 *948:33 1.07797e-05
36 *849:31 *2386:C 0.000133544
37 *849:31 *2420:C 6.02202e-05
38 *849:31 *2600:B1 0
39 *849:31 *895:8 1.88904e-05
40 *849:31 *925:43 6.23058e-05
41 *849:31 *939:79 3.94887e-05
42 *849:31 *948:33 0.000198051
43 *849:35 *895:8 4.0932e-05
44 *849:87 *866:41 1.56428e-05
45 *849:87 *893:37 4.75959e-05
46 *849:98 *866:41 2.76356e-05
47 *849:98 *893:37 7.3151e-05
48 *2595:A1 *3051:D 0
49 *2595:A1 *849:98 0
50 *2596:B2 *849:10 0
51 *2601:B2 *849:37 0.000160635
52 *2602:B *849:31 0
53 *2602:C *849:87 2.05641e-05
54 *2603:A1 *849:98 0
55 *2603:B2 *2843:D 1.83847e-05
56 *2831:GATE_N *849:87 1.88904e-05
57 *2859:GATE_N *849:37 4.82919e-05
58 *2866:GATE_N *2875:D 3.83995e-05
59 *2907:GATE_N *2907:D 4.82863e-05
60 *2911:GATE_N *849:87 0.000576329
61 *3035:GATE_N *2891:D 0.000141218
62 *3035:GATE_N *3067:D 0.00019712
63 *3051:GATE_N *2843:D 4.82919e-05
64 *3083:GATE_N *849:87 0.000660723
65 *3147:A *849:10 7.3664e-05
66 *3186:A *849:31 1.01152e-05
67 *3186:A *849:35 4.66474e-05
68 *3202:A *849:31 0
69 *3205:A *3051:D 3.03684e-05
70 *3209:A *3067:D 4.92062e-05
71 *435:12 *849:87 2.72746e-05
72 *489:10 *849:10 4.82919e-05
73 *490:14 *2907:D 4.01778e-05
74 *492:14 *849:31 0.000189724
75 *497:8 *2875:D 0.000419386
76 *497:8 *3035:D 8.82557e-05
77 *498:16 *3051:D 8.40213e-05
78 *499:18 *2891:D 8.73147e-06
79 *808:80 *3067:D 3.03684e-05
80 *823:20 *849:37 0.000149259
81 *823:20 *849:41 1.56428e-05
82 *829:20 *3051:D 0.000148092
83 *829:20 *849:98 0.000196729
84 *834:72 *2875:D 0.000196279
85 *834:72 *849:10 7.36484e-05
*RES
1 *3146:X *849:10 7.98 
2 *849:10 *849:12 1.89 
3 *849:12 *2907:D 5.085 
4 *849:12 *849:31 8.5725 
5 *849:31 *849:35 3.2525 
6 *849:35 *849:37 4.245 
7 *849:37 *849:41 2.45 
8 *849:41 *3067:D 6.795 
9 *849:41 *2891:D 5.94 
10 *849:37 *2955:D 1.6 
11 *849:35 *2859:D 1.6 
12 *849:31 *849:87 4.83517 
13 *849:87 *2923:D 1.6 
14 *849:87 *849:98 5.195 
15 *849:98 *2843:D 4.05 
16 *849:98 *3051:D 6.285 
17 *849:10 *849:120 2 
18 *849:120 *3035:D 3.085 
19 *849:120 *2875:D 7.255 
*END

*D_NET *850 0.00978784
*CONN
*I *3146:A I *D sky130_fd_sc_hd__clkbuf_2
*I *3003:D I *D sky130_fd_sc_hd__dlxtn_1
*I *3019:D I *D sky130_fd_sc_hd__dlxtn_1
*I *2987:D I *D sky130_fd_sc_hd__dlxtn_1
*I *2971:D I *D sky130_fd_sc_hd__dlxtn_1
*I *3083:D I *D sky130_fd_sc_hd__dlxtn_1
*I *2939:D I *D sky130_fd_sc_hd__dlxtn_1
*I *3147:X O *D sky130_fd_sc_hd__dlymetal6s2s_1
*CAP
1 *3146:A 0.000101801
2 *3003:D 0
3 *3019:D 0.000194478
4 *2987:D 3.64076e-05
5 *2971:D 2.8043e-05
6 *3083:D 7.28874e-05
7 *2939:D 0.000223957
8 *3147:X 0
9 *850:61 0.000333972
10 *850:57 0.000245904
11 *850:33 0.000198775
12 *850:31 0.00177321
13 *850:8 0.00179405
14 *850:6 0.000139347
15 *2939:D *925:133 0.000434605
16 *3019:D *3211:A 0.000162311
17 *3019:D *870:24 2.55503e-05
18 *3019:D *903:18 8.26696e-05
19 *3019:D *925:33 3.64998e-06
20 *3083:D *2599:A2 8.5225e-05
21 *3083:D *909:26 1.83847e-05
22 *3146:A *870:24 8.65905e-05
23 *850:31 *2410:C 1.17409e-05
24 *850:31 *2412:A_N 0.000192125
25 *850:31 *2418:A_N 0.00022786
26 *850:31 *2418:D 8.34281e-06
27 *850:31 *2599:A2 0
28 *850:31 *3212:A 0.000316421
29 *850:31 *938:26 2.8585e-06
30 *850:31 *947:60 2.53216e-05
31 *850:31 *947:71 1.46744e-05
32 *850:33 *2599:A2 7.70938e-05
33 *850:57 *2500:A2 3.64998e-06
34 *850:57 *2599:A2 2.39856e-05
35 *850:57 *925:33 0.000375944
36 *850:61 *903:18 5.34608e-05
37 *2399:A *3019:D 0
38 *2503:D *2971:D 2.49909e-05
39 *2596:B2 *3146:A 2.14129e-05
40 *2596:B2 *850:8 0.000117825
41 *2597:A1 *850:31 8.53113e-06
42 *2599:A1 *850:31 0.000181376
43 *2602:B *2939:D 0.000199734
44 *2602:B *3146:A 7.47215e-05
45 *2602:B *850:8 0.000139245
46 *2875:D *850:31 2.10134e-05
47 *2987:GATE_N *2987:D 0.000161529
48 *2991:GATE_N *850:61 8.53113e-06
49 *3035:D *850:31 6.42013e-05
50 *3035:GATE_N *850:31 4.66826e-05
51 *3083:GATE_N *3083:D 4.66108e-05
52 *3117:A *850:57 8.23457e-05
53 *3194:A *850:31 1.44259e-05
54 *3194:A *850:33 7.21296e-06
55 *3195:A *850:33 1.44259e-05
56 *3213:A *2987:D 6.42013e-05
57 *3213:A *850:31 0.000110892
58 *477:30 *2939:D 0.00015655
59 *489:10 *3146:A 0.000129709
60 *494:8 *850:31 8.73389e-06
61 *497:8 *850:31 1.0418e-05
62 *817:24 *850:57 2.42043e-05
63 *817:84 *850:61 4.9968e-05
64 *819:23 *3083:D 0.000158297
65 *819:23 *850:31 0.000146703
66 *819:23 *850:33 0.000193557
67 *834:72 *2939:D 1.22762e-05
68 *834:72 *850:8 5.11148e-06
69 *834:72 *850:31 0.000107105
70 *849:10 *2939:D 0
71 *849:10 *3146:A 0
72 *849:12 *2939:D 0
*RES
1 *3147:X *850:6 3.6 
2 *850:6 *850:8 1.635 
3 *850:8 *2939:D 9.9 
4 *850:8 *850:31 24.82 
5 *850:31 *850:33 2.4 
6 *850:33 *3083:D 5.94 
7 *850:33 *2971:D 4.05 
8 *850:31 *850:57 5.555 
9 *850:57 *850:61 3.89 
10 *850:61 *2987:D 5.085 
11 *850:61 *3019:D 7.83 
12 *850:57 *3003:D 1.6 
13 *850:6 *3146:A 6.285 
*END

*D_NET *851 0.0183765
*CONN
*I *3082:D I *D sky130_fd_sc_hd__dlxtn_1
*I *3034:D I *D sky130_fd_sc_hd__dlxtn_1
*I *2890:D I *D sky130_fd_sc_hd__dlxtn_1
*I *2874:D I *D sky130_fd_sc_hd__dlxtn_1
*I *2986:D I *D sky130_fd_sc_hd__dlxtn_1
*I *2970:D I *D sky130_fd_sc_hd__dlxtn_1
*I *3018:D I *D sky130_fd_sc_hd__dlxtn_1
*I *3002:D I *D sky130_fd_sc_hd__dlxtn_1
*I *2858:D I *D sky130_fd_sc_hd__dlxtn_1
*I *3066:D I *D sky130_fd_sc_hd__dlxtn_1
*I *3148:X O *D sky130_fd_sc_hd__clkbuf_2
*CAP
1 *3082:D 8.38721e-05
2 *3034:D 0
3 *2890:D 0
4 *2874:D 0.000251431
5 *2986:D 0.000179238
6 *2970:D 0.00016738
7 *3018:D 0
8 *3002:D 7.0534e-05
9 *2858:D 4.05263e-05
10 *3066:D 0
11 *3148:X 0
12 *851:113 0.000430668
13 *851:104 0.000187294
14 *851:102 0.000915652
15 *851:59 0.000221188
16 *851:57 0.000233003
17 *851:53 0.00204261
18 *851:33 0.00117761
19 *851:20 0.00183379
20 *851:4 0.00176405
21 *2858:D *862:25 8.40213e-05
22 *3002:D *900:48 0.000112123
23 *3002:D *900:52 5.07362e-05
24 *3002:D *908:34 5.65266e-05
25 *3082:D *892:105 0.000171935
26 *851:20 *2539:B1 5.10957e-05
27 *851:20 *3041:D 0.000308719
28 *851:20 *3206:A 1.81196e-05
29 *851:20 *892:105 6.38806e-05
30 *851:53 *2544:A2 9.16314e-05
31 *851:53 *906:22 9.82856e-06
32 *851:53 *921:26 1.7635e-05
33 *851:57 *2544:A2 0.000163019
34 *851:57 *904:22 6.36273e-05
35 *851:59 *862:25 0.000374457
36 *851:102 *2588:A2 6.8725e-06
37 *851:102 *2998:D 0.000164874
38 *2542:B2 *851:102 3.94592e-05
39 *2545:C *851:53 0.000336669
40 *2587:B2 *2874:D 0.000162014
41 *2587:B2 *2970:D 2.96426e-05
42 *2588:A1 *851:102 0.000234282
43 *2588:B2 *851:102 9.77103e-05
44 *2591:B *851:59 4.43682e-05
45 *2591:B *851:102 0.00023078
46 *2592:B2 *851:20 0
47 *2870:GATE_N *851:33 0.000501915
48 *2870:GATE_N *851:53 3.74576e-05
49 *2886:GATE_N *851:33 5.57114e-05
50 *2890:GATE_N *2874:D 2.54692e-05
51 *2890:GATE_N *2970:D 4.99619e-05
52 *2938:GATE_N *851:20 5.50624e-05
53 *2970:GATE_N *2970:D 0.000502809
54 *2970:GATE_N *851:102 0.000283532
55 *2970:GATE_N *851:104 3.68999e-05
56 *3018:GATE_N *851:59 0.000123225
57 *3034:GATE_N *851:53 1.23107e-05
58 *3066:GATE_N *851:20 1.88904e-05
59 *3066:GATE_N *851:33 8.40213e-05
60 *3132:A *851:53 2.39856e-05
61 *3144:A *851:20 0.00067175
62 *3144:A *851:53 0.000600129
63 *590:24 *851:20 0.000261802
64 *805:127 *3082:D 7.89269e-05
65 *805:127 *851:20 4.43682e-05
66 *805:148 *3082:D 4.24744e-05
67 *809:20 *851:20 4.34434e-05
68 *809:28 *851:20 0.000179028
69 *814:45 *851:53 5.55344e-05
70 *814:45 *851:57 0.00018476
71 *818:18 *2874:D 0
72 *818:18 *2986:D 0
73 *822:49 *851:20 0
74 *825:18 *851:20 0.000302463
75 *825:20 *851:20 0.000402281
76 *829:69 *851:20 0.000480718
77 *831:28 *851:53 0
78 *833:12 *851:53 0.000239813
79 *833:120 *851:53 0.000233786
80 *847:131 *851:33 8.6328e-05
81 *847:131 *851:53 7.47457e-05
*RES
1 *3148:X *851:4 1.6 
2 *851:4 *851:20 20.3379 
3 *851:20 *3066:D 1.6 
4 *851:20 *851:33 5.76 
5 *851:33 *851:53 19.687 
6 *851:53 *851:57 5.93 
7 *851:57 *851:59 3.555 
8 *851:59 *2858:D 2.395 
9 *851:59 *3002:D 7.49 
10 *851:57 *3018:D 1.6 
11 *851:53 *851:102 19.22 
12 *851:102 *851:104 0.45 
13 *851:104 *2970:D 6.19 
14 *851:104 *851:113 2 
15 *851:113 *2986:D 6.285 
16 *851:113 *2874:D 8.1 
17 *851:102 *2890:D 1.6 
18 *851:33 *3034:D 1.6 
19 *851:4 *3082:D 4.465 
*END

*D_NET *852 0.00832348
*CONN
*I *2922:D I *D sky130_fd_sc_hd__dlxtn_1
*I *2954:D I *D sky130_fd_sc_hd__dlxtn_1
*I *2842:D I *D sky130_fd_sc_hd__dlxtn_1
*I *3050:D I *D sky130_fd_sc_hd__dlxtn_1
*I *2938:D I *D sky130_fd_sc_hd__dlxtn_1
*I *2906:D I *D sky130_fd_sc_hd__dlxtn_1
*I *3149:X O *D sky130_fd_sc_hd__buf_1
*CAP
1 *2922:D 0.000250199
2 *2954:D 6.39333e-05
3 *2842:D 0.000223452
4 *3050:D 0
5 *2938:D 0.000306478
6 *2906:D 0
7 *3149:X 0
8 *852:47 0.000362946
9 *852:40 0.000201155
10 *852:16 0.00178472
11 *852:6 0.00162623
12 *852:4 0.000272592
13 *2842:D *898:118 0
14 *2842:D *911:72 0.000133737
15 *2938:D *898:20 0.000330352
16 *2954:D *916:95 0.000353049
17 *852:16 *3158:A 2.11084e-05
18 *852:16 *863:8 8.14241e-05
19 *852:16 *863:38 0.000227204
20 *852:16 *898:20 8.53113e-06
21 *852:16 *898:31 0
22 *852:16 *914:6 0.000192125
23 *852:16 *914:95 0.000118081
24 *852:40 *911:72 0
25 *852:47 *916:95 0.000308037
26 *2531:C1 *852:16 0
27 *2537:B2 *2954:D 0.000141467
28 *2537:B2 *852:47 0.000121401
29 *2539:A1 *852:16 0.000200615
30 *2583:A1 *2922:D 4.23031e-05
31 *2583:B2 *2922:D 7.57302e-05
32 *2584:C1 *2842:D 0
33 *2585:A1 *2938:D 5.83121e-06
34 *2586:B2 *2938:D 3.91039e-05
35 *2586:C1 *2938:D 3.59531e-06
36 *2591:A *2938:D 0
37 *2922:GATE_N *2922:D 2.49909e-05
38 *2922:GATE_N *852:40 0
39 *2938:GATE_N *2938:D 0.000201503
40 *3030:GATE_N *852:16 1.83847e-05
41 *3149:A *2922:D 1.83847e-05
42 *3149:A *852:40 7.72123e-05
43 *3159:A *852:16 0.000223055
44 *805:148 *2842:D 0
45 *807:22 *2938:D 0
46 *807:22 *852:16 0
47 *811:26 *2922:D 4.91204e-05
48 *811:26 *852:6 1.47347e-05
49 *811:26 *852:16 4.80182e-05
50 *811:26 *852:40 4.55801e-05
51 *822:49 *852:40 0
52 *847:131 *2938:D 0.000107094
*RES
1 *3149:X *852:4 1.6 
2 *852:4 *852:6 0.45 
3 *852:6 *852:16 23.87 
4 *852:16 *2906:D 3.6 
5 *852:16 *2938:D 10.305 
6 *852:6 *852:40 6.4 
7 *852:40 *3050:D 1.6 
8 *852:40 *852:47 2.865 
9 *852:47 *2842:D 9.785 
10 *852:47 *2954:D 4.81 
11 *852:4 *2922:D 9.35 
*END

*D_NET *853 0.00775005
*CONN
*I *2937:D I *D sky130_fd_sc_hd__dlxtn_1
*I *3081:D I *D sky130_fd_sc_hd__dlxtn_1
*I *2857:D I *D sky130_fd_sc_hd__dlxtn_1
*I *2985:D I *D sky130_fd_sc_hd__dlxtn_1
*I *2969:D I *D sky130_fd_sc_hd__dlxtn_1
*I *2873:D I *D sky130_fd_sc_hd__dlxtn_1
*I *3001:D I *D sky130_fd_sc_hd__dlxtn_1
*I *3017:D I *D sky130_fd_sc_hd__dlxtn_1
*I *2889:D I *D sky130_fd_sc_hd__dlxtn_1
*I *3065:D I *D sky130_fd_sc_hd__dlxtn_1
*I *3150:X O *D sky130_fd_sc_hd__clkbuf_2
*CAP
1 *2937:D 2.32997e-05
2 *3081:D 6.93573e-05
3 *2857:D 0
4 *2985:D 3.44213e-05
5 *2969:D 0
6 *2873:D 0
7 *3001:D 0.000181327
8 *3017:D 4.88824e-05
9 *2889:D 4.59691e-05
10 *3065:D 3.61108e-05
11 *3150:X 0.000111272
12 *853:67 0.000462971
13 *853:65 0.000562097
14 *853:63 0.000485061
15 *853:41 0.000235778
16 *853:39 0.000323527
17 *853:37 0.000991987
18 *853:27 0.00132495
19 *853:12 0.000393575
20 *853:6 0.000216012
21 *2985:D *923:63 8.65905e-05
22 *3001:D *873:50 3.72916e-05
23 *3001:D *877:38 9.58678e-06
24 *3017:D *900:79 8.97642e-05
25 *3017:D *908:83 0.000162332
26 *3081:D *2555:A2 5.02217e-05
27 *853:37 *2577:A2 1.2818e-05
28 *853:63 *934:51 0
29 *853:65 *2579:C1 0
30 *853:65 *900:79 0
31 *853:65 *934:51 0
32 *853:67 *2579:C1 0
33 *853:67 *908:125 1.93834e-05
34 *2459:C *853:67 0
35 *2460:B2 *853:67 2.05641e-05
36 *2480:A1 *853:67 0
37 *2480:B1 *853:67 0
38 *2481:A *853:65 0
39 *2574:A1 *853:6 2.11084e-05
40 *2575:B2 *853:6 0.00026389
41 *2575:B2 *853:12 0.000160635
42 *2576:A1 *853:37 5.30673e-05
43 *2576:A1 *853:39 2.75229e-05
44 *2576:A1 *853:41 7.35729e-05
45 *2577:A1 *853:37 8.32316e-05
46 *2577:B2 *853:37 1.12643e-05
47 *2578:B2 *3001:D 0
48 *2578:B2 *853:67 0
49 *2580:B *853:37 2.6014e-05
50 *2857:GATE_N *853:37 0
51 *2873:GATE_N *3001:D 6.16226e-06
52 *2937:GATE_N *853:12 8.65961e-05
53 *2945:GATE_N *853:6 6.66464e-05
54 *2977:GATE_N *853:63 0
55 *2983:GATE_N *853:65 0
56 *2999:GATE_N *3001:D 5.05437e-05
57 *3001:GATE_N *3001:D 0
58 *3065:GATE_N *3065:D 4.66108e-05
59 *3065:GATE_N *853:27 8.65905e-05
60 *3070:GATE_N *3081:D 9.3062e-06
61 *805:78 *3081:D 4.18603e-06
62 *811:60 *3065:D 2.24336e-05
63 *811:60 *3081:D 0
64 *811:60 *853:12 3.38982e-05
65 *816:54 *3001:D 0
66 *818:56 *853:63 0
67 *818:56 *853:65 0
68 *827:64 *3065:D 3.64998e-06
69 *827:70 *3065:D 1.83756e-05
70 *827:70 *853:27 1.71076e-05
71 *827:100 *3065:D 4.9968e-05
72 *827:100 *853:12 9.14049e-05
73 *833:18 *853:67 0
74 *836:95 *2889:D 3.31103e-05
75 *836:95 *853:41 0.00010492
76 *836:106 *853:37 0.000213785
77 *836:106 *853:39 1.47347e-05
78 *836:106 *853:41 3.45588e-05
*RES
1 *3150:X *853:6 4.81 
2 *853:6 *853:12 4.61 
3 *853:12 *3065:D 4.665 
4 *853:12 *853:27 5.21 
5 *853:27 *853:37 13.965 
6 *853:37 *853:39 0.45 
7 *853:39 *853:41 3.21 
8 *853:41 *2889:D 2.395 
9 *853:41 *3017:D 7.49 
10 *853:39 *853:63 4.4 
11 *853:63 *853:65 4.185 
12 *853:65 *853:67 4.185 
13 *853:67 *3001:D 6.285 
14 *853:67 *2873:D 3.6 
15 *853:65 *2969:D 3.6 
16 *853:63 *2985:D 4.395 
17 *853:37 *2857:D 1.6 
18 *853:27 *3081:D 6.98 
19 *853:6 *2937:D 1.96 
*END

*D_NET *854 0.00861674
*CONN
*I *3033:D I *D sky130_fd_sc_hd__dlxtn_1
*I *2841:D I *D sky130_fd_sc_hd__dlxtn_1
*I *2905:D I *D sky130_fd_sc_hd__dlxtn_1
*I *2953:D I *D sky130_fd_sc_hd__dlxtn_1
*I *3049:D I *D sky130_fd_sc_hd__dlxtn_1
*I *3150:A I *D sky130_fd_sc_hd__clkbuf_2
*I *2921:D I *D sky130_fd_sc_hd__dlxtn_1
*I *3151:X O *D sky130_fd_sc_hd__dlymetal6s2s_1
*CAP
1 *3033:D 2.67761e-05
2 *2841:D 0.000231892
3 *2905:D 0.000140932
4 *2953:D 9.91327e-05
5 *3049:D 1.04051e-05
6 *3150:A 0
7 *2921:D 0.00033552
8 *3151:X 1.56078e-05
9 *854:79 0.00038557
10 *854:53 0.000240065
11 *854:51 0.000226788
12 *854:42 0.000800561
13 *854:25 0.000736323
14 *854:6 0.00039718
15 *2841:D *2452:B1 4.94474e-05
16 *2841:D *2460:A2 3.76596e-05
17 *2841:D *2573:A2 0.000373292
18 *2841:D *911:72 0.00012792
19 *2841:D *911:78 0.000291715
20 *2841:D *911:92 0.000187749
21 *2841:D *932:70 7.58824e-05
22 *2905:D *3064:D 1.83847e-05
23 *2905:D *856:60 4.82919e-05
24 *2905:D *911:72 0
25 *2921:D *2453:A2 4.43871e-06
26 *2953:D *911:72 0
27 *854:25 *892:49 0.000159964
28 *854:25 *898:50 0.000159964
29 *854:42 *2574:A2 0.000124895
30 *854:42 *2574:B1 8.05167e-05
31 *854:42 *892:49 4.38051e-05
32 *854:42 *894:50 0.000378005
33 *854:42 *898:50 5.16348e-05
34 *854:79 *911:72 4.11335e-06
35 *2558:A *2921:D 0.000113247
36 *2572:B2 *2841:D 1.71013e-05
37 *2572:B2 *2905:D 0
38 *2572:B2 *3033:D 2.41373e-05
39 *2572:B2 *854:79 0.000124204
40 *2573:A1 *2841:D 8.27125e-05
41 *2573:A1 *2905:D 0
42 *2574:A1 *854:42 0.00019799
43 *2575:A1 *2921:D 4.82919e-05
44 *2575:B2 *2921:D 0
45 *2580:A *2921:D 6.05513e-05
46 *2581:B2 *2841:D 1.92979e-05
47 *2937:GATE_N *2921:D 0.000180682
48 *2945:GATE_N *854:42 0.00086204
49 *3031:GATE_N *854:79 1.07341e-05
50 *3049:GATE_N *854:42 4.82919e-05
51 *3065:GATE_N *2921:D 0.000201502
52 *3065:GATE_N *854:6 2.49909e-05
53 *811:143 *2905:D 0.000139238
54 *811:143 *854:51 1.4389e-05
55 *811:143 *854:79 8.02539e-05
56 *822:55 *2905:D 0
57 *822:55 *2953:D 0
58 *827:64 *2921:D 0.000204034
59 *827:64 *854:6 2.05056e-05
60 *829:100 *854:42 0.000278117
*RES
1 *3151:X *854:6 2.05 
2 *854:6 *2921:D 14.165 
3 *854:6 *854:25 3.89 
4 *854:25 *3150:A 3.6 
5 *854:25 *854:42 21.035 
6 *854:42 *3049:D 1.96 
7 *854:42 *854:51 1.485 
8 *854:51 *854:53 2 
9 *854:53 *2953:D 5.235 
10 *854:53 *2905:D 6.705 
11 *854:51 *854:79 4.97 
12 *854:79 *2841:D 12.06 
13 *854:79 *3033:D 4.47 
*END

*D_NET *855 0.0171322
*CONN
*I *3064:D I *D sky130_fd_sc_hd__dlxtn_1
*I *3032:D I *D sky130_fd_sc_hd__dlxtn_1
*I *3080:D I *D sky130_fd_sc_hd__dlxtn_1
*I *3000:D I *D sky130_fd_sc_hd__dlxtn_1
*I *2856:D I *D sky130_fd_sc_hd__dlxtn_1
*I *2888:D I *D sky130_fd_sc_hd__dlxtn_1
*I *2968:D I *D sky130_fd_sc_hd__dlxtn_1
*I *3016:D I *D sky130_fd_sc_hd__dlxtn_1
*I *2872:D I *D sky130_fd_sc_hd__dlxtn_1
*I *2984:D I *D sky130_fd_sc_hd__dlxtn_1
*I *3152:X O *D sky130_fd_sc_hd__clkbuf_2
*CAP
1 *3064:D 0.00253106
2 *3032:D 0
3 *3080:D 6.82867e-05
4 *3000:D 0
5 *2856:D 8.36465e-05
6 *2888:D 0
7 *2968:D 0
8 *3016:D 8.13111e-05
9 *2872:D 0
10 *2984:D 0.000240035
11 *3152:X 0
12 *855:46 0.000370313
13 *855:32 0.000497994
14 *855:24 0.000700375
15 *855:22 0.000423428
16 *855:20 0.00223177
17 *855:10 0.00217534
18 *855:8 0.000250138
19 *855:4 0.00271954
20 *3064:D *2486:B1 0.000387003
21 *3064:D *2563:B1 2.74401e-05
22 *3064:D *856:60 0.000257812
23 *3064:D *896:50 9.16315e-05
24 *3064:D *896:82 0.000301905
25 *3064:D *896:92 3.55677e-05
26 *3064:D *896:98 0.000232482
27 *855:20 *2490:B1 8.73142e-05
28 *855:20 *2568:C1 0.000259942
29 *855:20 *2977:D 0.000181095
30 *2490:B2 *855:20 9.02099e-05
31 *2491:A1 *855:20 3.81908e-06
32 *2491:B1 *855:20 3.00381e-05
33 *2563:A1 *3064:D 1.33293e-05
34 *2565:A1 *2856:D 0.000154557
35 *2565:A1 *2984:D 9.2741e-05
36 *2565:A1 *855:32 5.05437e-05
37 *2565:B2 *855:32 6.36578e-05
38 *2566:B2 *855:22 0.000134018
39 *2567:B2 *855:32 3.18219e-05
40 *2567:B2 *855:46 3.00381e-05
41 *2568:A1 *855:20 3.99879e-05
42 *2639:B *3064:D 0.000131687
43 *2856:GATE_N *2856:D 1.67904e-05
44 *2856:GATE_N *855:32 1.65192e-05
45 *2872:GATE_N *2984:D 4.66108e-05
46 *2905:D *3064:D 1.83847e-05
47 *2905:GATE_N *3064:D 9.51192e-05
48 *2936:GATE_N *3064:D 3.00381e-05
49 *2977:GATE_N *855:20 0.000163175
50 *2984:GATE_N *2984:D 4.82863e-05
51 *3013:GATE_N *855:32 0
52 *3031:GATE_N *3064:D 9.10587e-05
53 *3032:GATE_N *855:10 0.000113237
54 *3032:GATE_N *855:20 4.82919e-05
55 *3064:GATE_N *3064:D 2.75229e-05
56 *3152:A *3064:D 3.03684e-05
57 *3153:A *3064:D 0.000214802
58 *3153:A *855:8 4.00541e-06
59 *811:52 *3064:D 7.68414e-06
60 *811:52 *855:8 0.00039046
61 *811:52 *855:10 0.000237249
62 *811:52 *855:20 4.66108e-05
63 *811:54 *3080:D 2.92496e-05
64 *811:97 *3080:D 0.00013598
65 *814:80 *855:32 0
66 *818:30 *3016:D 0.000162318
67 *827:100 *3080:D 5.65354e-05
68 *833:69 *3016:D 0
*RES
1 *3152:X *855:4 1.6 
2 *855:4 *855:8 4.425 
3 *855:8 *855:10 2.175 
4 *855:10 *855:20 27.24 
5 *855:20 *855:22 3.21 
6 *855:22 *855:24 2.175 
7 *855:24 *855:32 8.98 
8 *855:32 *2984:D 5.845 
9 *855:32 *2872:D 1.6 
10 *855:24 *855:46 4.245 
11 *855:46 *3016:D 7.49 
12 *855:46 *2968:D 1.6 
13 *855:24 *2888:D 1.6 
14 *855:22 *2856:D 7.49 
15 *855:20 *3000:D 1.6 
16 *855:10 *3080:D 7.49 
17 *855:8 *3032:D 1.6 
18 *855:4 *3064:D 41.42 
*END

*D_NET *856 0.00740416
*CONN
*I *2840:D I *D sky130_fd_sc_hd__dlxtn_1
*I *2952:D I *D sky130_fd_sc_hd__dlxtn_1
*I *2920:D I *D sky130_fd_sc_hd__dlxtn_1
*I *2936:D I *D sky130_fd_sc_hd__dlxtn_1
*I *2904:D I *D sky130_fd_sc_hd__dlxtn_1
*I *3048:D I *D sky130_fd_sc_hd__dlxtn_1
*I *3153:X O *D sky130_fd_sc_hd__buf_1
*CAP
1 *2840:D 0.000105175
2 *2952:D 0
3 *2920:D 0
4 *2936:D 0
5 *2904:D 0
6 *3048:D 1.3091e-05
7 *3153:X 9.24624e-05
8 *856:74 0.000261991
9 *856:67 0.000462106
10 *856:60 0.00114515
11 *856:21 0.00100307
12 *856:12 0.000268762
13 *2840:D *884:20 8.76986e-05
14 *856:12 *2486:B1 1.4389e-05
15 *856:12 *916:19 3.98757e-05
16 *856:60 *2485:B1 3.83305e-05
17 *856:60 *881:57 0
18 *856:60 *896:48 1.88656e-05
19 *856:60 *896:92 0.000819648
20 *856:60 *896:98 6.9114e-05
21 *856:60 *911:72 7.18452e-06
22 *856:60 *932:70 8.41015e-06
23 *2485:A1 *856:60 2.93014e-05
24 *2485:B2 *856:60 0.000158309
25 *2493:B2 *3048:D 4.82863e-05
26 *2493:B2 *856:21 0.000592329
27 *2493:B2 *856:60 3.57349e-05
28 *2570:B2 *856:60 0.000202731
29 *2573:A1 *856:60 1.11766e-05
30 *2905:D *856:60 4.82919e-05
31 *2905:GATE_N *856:60 0.00023635
32 *2920:GATE_N *856:67 8.23457e-05
33 *2936:GATE_N *856:60 6.59214e-05
34 *2952:GATE_N *856:74 0.00015896
35 *3048:GATE_N *3048:D 1.83756e-05
36 *3048:GATE_N *856:21 0.000229085
37 *3048:GATE_N *856:60 1.56428e-05
38 *3064:D *856:60 0.000257812
39 *385:8 *856:12 0.000112143
40 *551:40 *2840:D 8.65905e-05
41 *551:40 *856:67 1.16578e-05
42 *551:40 *856:74 0.000455903
43 *838:40 *2840:D 8.76986e-05
44 *838:44 *2840:D 4.18603e-06
*RES
1 *3153:X *856:12 7.43 
2 *856:12 *3048:D 2.05 
3 *856:12 *856:21 5.625 
4 *856:21 *2904:D 1.6 
5 *856:21 *856:60 23.2205 
6 *856:60 *2936:D 1.6 
7 *856:60 *856:67 4.59 
8 *856:67 *2920:D 1.6 
9 *856:67 *856:74 4.245 
10 *856:74 *2952:D 1.6 
11 *856:74 *2840:D 8.795 
*END

*D_NET *857 0.000741849
*CONN
*I *2652:A1 I *D sky130_fd_sc_hd__mux2_1
*I *3249:X O *D sky130_fd_sc_hd__clkbuf_1
*CAP
1 *2652:A1 0.000241786
2 *3249:X 0.000241786
3 *2652:A1 *2652:S 6.14445e-05
4 *2652:A1 *884:34 0.0001364
5 *2830:GATE_N *2652:A1 0
6 *521:18 *2652:A1 6.04327e-05
*RES
1 *3249:X *2652:A1 11.505 
*END

*D_NET *858 0.0135503
*CONN
*I *2903:D I *D sky130_fd_sc_hd__dlxtn_1
*I *2983:D I *D sky130_fd_sc_hd__dlxtn_1
*I *2887:D I *D sky130_fd_sc_hd__dlxtn_1
*I *2967:D I *D sky130_fd_sc_hd__dlxtn_1
*I *2855:D I *D sky130_fd_sc_hd__dlxtn_1
*I *2871:D I *D sky130_fd_sc_hd__dlxtn_1
*I *2999:D I *D sky130_fd_sc_hd__dlxtn_1
*I *3015:D I *D sky130_fd_sc_hd__dlxtn_1
*I *2935:D I *D sky130_fd_sc_hd__dlxtn_1
*I *3063:D I *D sky130_fd_sc_hd__dlxtn_1
*I *3154:X O *D sky130_fd_sc_hd__clkbuf_2
*CAP
1 *2903:D 0.000206463
2 *2983:D 0.000116588
3 *2887:D 0
4 *2967:D 5.28819e-06
5 *2855:D 7.59399e-05
6 *2871:D 8.67279e-06
7 *2999:D 6.99603e-05
8 *3015:D 6.98149e-05
9 *2935:D 2.36372e-05
10 *3063:D 0
11 *3154:X 8.8292e-05
12 *858:59 0.000203372
13 *858:55 0.000235316
14 *858:42 0.000229613
15 *858:40 0.000222246
16 *858:38 0.000198487
17 *858:34 0.00121732
18 *858:19 0.00137672
19 *858:15 0.00252749
20 *858:6 0.00205028
21 *2855:D *2556:B1 9.66106e-05
22 *2855:D *923:50 2.49909e-05
23 *2871:D *873:50 1.61831e-05
24 *2871:D *877:38 4.82919e-05
25 *2903:D *2476:A2 3.60648e-06
26 *2903:D *873:10 0.000343436
27 *2903:D *914:18 8.53692e-05
28 *2903:D *914:22 3.501e-05
29 *2983:D *2557:C1 9.09197e-05
30 *2999:D *873:50 0.000129465
31 *2999:D *877:38 0.000428764
32 *3015:D *923:50 3.02513e-05
33 *858:15 *2451:A2 0.000387891
34 *858:15 *2551:B1 4.72151e-05
35 *858:15 *2928:D 0.000168165
36 *858:15 *3054:D 4.66742e-05
37 *858:15 *894:69 5.801e-05
38 *858:19 *2928:D 4.66108e-05
39 *858:34 *2453:A2 0.000160635
40 *858:34 *2453:B1 2.96426e-05
41 *858:34 *2557:C1 0.000186441
42 *858:34 *923:36 5.23362e-05
43 *858:38 *923:36 0.000202995
44 *858:38 *928:59 0
45 *858:40 *923:36 7.74849e-05
46 *858:40 *928:59 0
47 *858:42 *923:36 9.95865e-05
48 *858:59 *923:36 5.23362e-05
49 *2451:B2 *858:15 2.75145e-05
50 *2454:C1 *858:19 1.1392e-05
51 *2454:C1 *858:34 2.8585e-06
52 *2459:A *2967:D 3.91069e-06
53 *2551:B2 *858:15 6.3124e-06
54 *2552:A1 *2903:D 0
55 *2554:A1 *858:42 0
56 *2555:C1 *2967:D 6.24773e-06
57 *2556:B2 *858:59 0
58 *2558:A *858:34 3.59784e-05
59 *2558:B *858:34 1.1085e-05
60 *2558:C *858:34 6.97034e-05
61 *2580:C *858:34 4.54719e-05
62 *2580:C *858:38 0.000137571
63 *2581:A1 *858:15 0.000105508
64 *2855:GATE_N *2855:D 3.03775e-05
65 *2855:GATE_N *3015:D 2.07566e-05
66 *2871:GATE_N *2999:D 0.0001249
67 *2871:GATE_N *858:59 0
68 *2887:GATE_N *858:38 0
69 *2967:GATE_N *858:40 3.6229e-05
70 *2967:GATE_N *858:42 4.18603e-06
71 *3015:GATE_N *3015:D 4.91292e-05
72 *3054:GATE_N *858:15 0.000714671
73 *3056:GATE_N *858:19 4.82919e-05
74 *3063:GATE_N *858:6 4.82919e-05
75 *3151:A *2903:D 0
76 *3154:A *858:6 4.31453e-05
77 *3154:A *858:15 3.1562e-06
78 *3169:A *2903:D 8.7152e-06
79 *381:18 *2903:D 2.14532e-05
80 *631:18 *858:15 3.59784e-05
81 *825:61 *858:34 2.30292e-05
*RES
1 *3154:X *858:6 3.085 
2 *858:6 *3063:D 1.6 
3 *858:6 *858:15 24.525 
4 *858:15 *858:19 4.95 
5 *858:19 *2935:D 1.96 
6 *858:19 *858:34 14.81 
7 *858:34 *858:38 2.85 
8 *858:38 *858:40 1.89 
9 *858:40 *858:42 2.4 
10 *858:42 *3015:D 4.8375 
11 *858:42 *858:55 0.45 
12 *858:55 *858:59 3.89 
13 *858:59 *2999:D 5.5 
14 *858:59 *2871:D 2.05 
15 *858:55 *2855:D 5.43 
16 *858:40 *2967:D 3.7125 
17 *858:38 *2887:D 3.6 
18 *858:34 *2983:D 5.775 
19 *858:15 *2903:D 10.295 
*END

*D_NET *859 0.00935107
*CONN
*I *2839:D I *D sky130_fd_sc_hd__dlxtn_1
*I *3079:D I *D sky130_fd_sc_hd__dlxtn_1
*I *3031:D I *D sky130_fd_sc_hd__dlxtn_1
*I *2951:D I *D sky130_fd_sc_hd__dlxtn_1
*I *3047:D I *D sky130_fd_sc_hd__dlxtn_1
*I *2919:D I *D sky130_fd_sc_hd__dlxtn_1
*I *3155:X O *D sky130_fd_sc_hd__buf_1
*CAP
1 *2839:D 0
2 *3079:D 5.43806e-05
3 *3031:D 0.000129348
4 *2951:D 0
5 *3047:D 0.000137079
6 *2919:D 3.26247e-05
7 *3155:X 0.000211418
8 *859:69 0.000294655
9 *859:67 0.000391736
10 *859:56 0.000522013
11 *859:24 0.00107538
12 *859:14 0.00135829
13 *2919:D *916:50 7.92997e-05
14 *3079:D *2473:B1 1.17409e-05
15 *3079:D *2800:GATE_N 0
16 *3079:D *3174:A 8.23457e-05
17 *3079:D *874:20 0.000119762
18 *859:14 *2460:A2 0.000178634
19 *859:14 *2655:A0 0.000479443
20 *859:14 *932:70 0.00018471
21 *859:14 *932:72 0.000134134
22 *859:24 *2553:A2 0.000329981
23 *859:24 *2573:A2 8.40269e-05
24 *859:24 *916:32 9.50342e-06
25 *859:24 *916:50 0.00018214
26 *859:56 *2573:A2 1.16578e-05
27 *859:56 *892:121 7.70758e-05
28 *859:56 *896:50 7.5416e-05
29 *859:67 *896:50 1.73877e-05
30 *859:69 *2473:B1 0
31 *2550:A1 *3031:D 0
32 *2550:A1 *859:69 0
33 *2550:B2 *859:69 0
34 *2551:A1 *859:67 0.000302475
35 *2553:C1 *3047:D 0.000255249
36 *2553:C1 *859:24 0.000120655
37 *2558:A *2919:D 1.1392e-05
38 *2558:A *859:24 0.000425551
39 *2944:GATE_N *859:56 8.67698e-06
40 *2944:GATE_N *859:67 0.000128788
41 *3031:GATE_N *3031:D 0.000134091
42 *3031:GATE_N *859:67 0.000490935
43 *3031:GATE_N *859:69 0.000229203
44 *3151:A *3047:D 0.000318619
45 *3154:A *859:14 4.82863e-05
46 *3154:A *859:67 6.67052e-05
47 *385:8 *3047:D 0
48 *385:8 *859:24 7.06865e-05
49 *521:18 *3031:D 4.99619e-05
50 *822:86 *859:14 0
51 *822:86 *859:24 0.00030504
52 *822:86 *859:56 0.0001022
53 *827:62 *859:67 1.83756e-05
*RES
1 *3155:X *859:14 12.125 
2 *859:14 *859:24 21.295 
3 *859:24 *2919:D 2.41 
4 *859:24 *3047:D 9.53 
5 *859:14 *859:56 8.2 
6 *859:56 *2951:D 1.6 
7 *859:56 *859:67 9.455 
8 *859:67 *859:69 2.655 
9 *859:69 *3031:D 6.135 
10 *859:69 *3079:D 5.1 
11 *859:67 *2839:D 3.6 
*END

*D_NET *860 0.00940269
*CONN
*I *2950:D I *D sky130_fd_sc_hd__dlxtn_1
*I *2838:D I *D sky130_fd_sc_hd__dlxtn_1
*I *2918:D I *D sky130_fd_sc_hd__dlxtn_1
*I *3046:D I *D sky130_fd_sc_hd__dlxtn_1
*I *2934:D I *D sky130_fd_sc_hd__dlxtn_1
*I *2870:D I *D sky130_fd_sc_hd__dlxtn_1
*I *3030:D I *D sky130_fd_sc_hd__dlxtn_1
*I *2902:D I *D sky130_fd_sc_hd__dlxtn_1
*I *2886:D I *D sky130_fd_sc_hd__dlxtn_1
*I *3078:D I *D sky130_fd_sc_hd__dlxtn_1
*I *3156:X O *D sky130_fd_sc_hd__clkbuf_2
*CAP
1 *2950:D 0
2 *2838:D 0.000224651
3 *2918:D 5.91287e-05
4 *3046:D 0
5 *2934:D 0
6 *2870:D 0
7 *3030:D 0.0001465
8 *2902:D 0.00014214
9 *2886:D 0
10 *3078:D 0.000150661
11 *3156:X 0.000152522
12 *860:97 0.000391252
13 *860:65 0.000233429
14 *860:52 0.000229069
15 *860:38 0.000175927
16 *860:36 0.000165577
17 *860:34 0.00125739
18 *860:16 0.00128716
19 *860:10 0.000295852
20 *860:6 0.000170824
21 *2902:D *2540:A2 8.7152e-06
22 *2902:D *911:25 0
23 *3030:D *2486:B1 0
24 *3030:D *894:29 0
25 *3030:D *914:95 0
26 *860:6 *3156:A 0.000331118
27 *860:10 *3156:A 4.66108e-05
28 *860:16 *894:142 0
29 *860:34 *2546:A2 0.00019637
30 *860:34 *2605:A2 0
31 *860:34 *2607:A2 0
32 *860:34 *2607:B1 0.000122331
33 *860:34 *894:127 0.000100139
34 *860:34 *896:33 0.000260147
35 *860:34 *896:44 1.22676e-05
36 *860:34 *911:46 0.000523248
37 *860:34 *911:54 9.01757e-05
38 *860:36 *911:46 0.000273878
39 *860:65 *2486:B1 0
40 *860:97 *861:79 0
41 *2539:B2 *3078:D 4.16262e-05
42 *2539:B2 *860:36 0.000119827
43 *2539:B2 *860:38 1.56428e-05
44 *2540:B2 *860:34 6.97118e-05
45 *2541:A1 *860:36 3.00381e-05
46 *2546:A1 *860:34 0.000104892
47 *2547:C1 *860:6 3.64998e-06
48 *2547:C1 *860:10 1.56428e-05
49 *2547:C1 *860:16 0.000160658
50 *2547:C1 *860:97 7.5416e-05
51 *2838:GATE_N *2838:D 0.000158066
52 *2844:D *860:34 4.99619e-05
53 *2870:GATE_N *3078:D 0.000215767
54 *2886:GATE_N *3078:D 0.000250164
55 *2950:GATE_N *860:97 9.87526e-05
56 *3046:GATE_N *860:16 5.74791e-05
57 *3046:GATE_N *860:34 7.8936e-05
58 *3062:GATE_N *2918:D 3.64998e-06
59 *811:26 *860:34 0.00013521
60 *822:49 *860:34 0.000119631
61 *827:44 *860:34 0.000173586
62 *829:37 *2902:D 0.000197233
63 *829:37 *3030:D 3.24046e-05
64 *829:37 *860:65 7.94337e-05
65 *838:28 *860:97 1.1561e-05
66 *838:34 *860:97 5.66621e-05
*RES
1 *3156:X *860:6 4.81 
2 *860:6 *860:10 2.45 
3 *860:10 *860:16 5.375 
4 *860:16 *860:34 28.765 
5 *860:34 *860:36 3.9 
6 *860:36 *860:38 0.45 
7 *860:38 *3078:D 5.845 
8 *860:38 *2886:D 1.6 
9 *860:36 *860:52 2 
10 *860:52 *2902:D 6.45 
11 *860:52 *860:65 1.89 
12 *860:65 *3030:D 6 
13 *860:65 *2870:D 3.6 
14 *860:34 *2934:D 1.6 
15 *860:16 *3046:D 1.6 
16 *860:10 *860:97 4.85 
17 *860:97 *2918:D 2.395 
18 *860:97 *2838:D 5.155 
19 *860:6 *2950:D 1.6 
*END

*D_NET *861 0.0176911
*CONN
*I *3156:A I *D sky130_fd_sc_hd__clkbuf_2
*I *3062:D I *D sky130_fd_sc_hd__dlxtn_1
*I *2966:D I *D sky130_fd_sc_hd__dlxtn_1
*I *2982:D I *D sky130_fd_sc_hd__dlxtn_1
*I *3014:D I *D sky130_fd_sc_hd__dlxtn_1
*I *2854:D I *D sky130_fd_sc_hd__dlxtn_1
*I *2998:D I *D sky130_fd_sc_hd__dlxtn_1
*I *3157:X O *D sky130_fd_sc_hd__clkbuf_2
*CAP
1 *3156:A 0.000396907
2 *3062:D 0
3 *2966:D 0.000101725
4 *2982:D 0.00038146
5 *3014:D 0
6 *2854:D 1.91317e-05
7 *2998:D 0.000150033
8 *3157:X 0
9 *861:79 0.000663084
10 *861:47 0.000506641
11 *861:18 0.000243135
12 *861:16 9.62235e-05
13 *861:14 0.00425127
14 *861:4 0.00447174
15 *2854:D *906:93 8.65905e-05
16 *2966:D *904:16 0
17 *2966:D *904:22 0
18 *2998:D *908:34 0.000112097
19 *3156:A *894:142 5.83121e-06
20 *861:14 *2507:A2 7.84029e-05
21 *861:14 *2541:A2 0
22 *861:14 *2542:A2 0.000374972
23 *861:14 *2587:B1 0.000100383
24 *861:14 *2606:A2 8.41015e-06
25 *861:14 *914:151 0.000748195
26 *861:14 *914:157 5.28846e-05
27 *861:14 *921:26 0
28 *861:18 *908:34 7.5157e-05
29 *861:47 *904:22 0
30 *861:79 *2507:A2 4.01535e-05
31 *861:79 *914:157 0
32 *2543:B2 *2982:D 9.87637e-05
33 *2545:C *861:14 0.000347888
34 *2547:C1 *3156:A 8.50837e-05
35 *2548:B1 *861:14 0.000407887
36 *2591:B *2998:D 6.6925e-05
37 *2613:A *861:14 0.00270846
38 *2860:GATE_N *2966:D 3.45588e-05
39 *2860:GATE_N *861:18 0
40 *2918:GATE_N *861:79 5.07419e-05
41 *2950:GATE_N *861:79 0
42 *3062:GATE_N *861:79 4.0415e-05
43 *3120:A *2966:D 8.65905e-05
44 *3134:A *861:18 0
45 *812:55 *861:14 0
46 *814:12 *2966:D 5.12772e-05
47 *814:12 *861:16 1.37635e-05
48 *814:12 *861:47 1.31646e-05
49 *814:37 *2982:D 3.1835e-05
50 *814:37 *861:18 0.000112143
51 *816:18 *2854:D 3.45588e-05
52 *816:18 *2998:D 0
53 *816:20 *2998:D 0
54 *851:102 *2998:D 0.000164874
55 *860:6 *3156:A 0.000331118
56 *860:10 *3156:A 4.66108e-05
57 *860:97 *861:79 0
*RES
1 *3157:X *861:4 1.6 
2 *861:4 *861:14 14.2397 
3 *861:14 *861:16 0.4875 
4 *861:16 *861:18 1.89 
5 *861:18 *2998:D 7.485 
6 *861:18 *2854:D 4.395 
7 *861:16 *3014:D 3.6 
8 *861:14 *861:47 0.4875 
9 *861:47 *2982:D 8.82 
10 *861:47 *2966:D 6.03 
11 *861:4 *861:79 8.05 
12 *861:79 *3062:D 1.6 
13 *861:79 *3156:A 8.38 
*END

*D_NET *862 0.00975516
*CONN
*I *2917:D I *D sky130_fd_sc_hd__dlxtn_1
*I *3077:D I *D sky130_fd_sc_hd__dlxtn_1
*I *2997:D I *D sky130_fd_sc_hd__dlxtn_1
*I *2885:D I *D sky130_fd_sc_hd__dlxtn_1
*I *2965:D I *D sky130_fd_sc_hd__dlxtn_1
*I *2853:D I *D sky130_fd_sc_hd__dlxtn_1
*I *3013:D I *D sky130_fd_sc_hd__dlxtn_1
*I *2981:D I *D sky130_fd_sc_hd__dlxtn_1
*I *2869:D I *D sky130_fd_sc_hd__dlxtn_1
*I *3029:D I *D sky130_fd_sc_hd__dlxtn_1
*I *3158:X O *D sky130_fd_sc_hd__clkbuf_2
*CAP
1 *2917:D 0
2 *3077:D 2.21004e-05
3 *2997:D 0
4 *2885:D 4.05263e-05
5 *2965:D 0.000146141
6 *2853:D 0
7 *3013:D 0
8 *2981:D 0
9 *2869:D 0.000160981
10 *3029:D 0.00011592
11 *3158:X 8.18276e-05
12 *862:81 0.000276317
13 *862:79 0.000228779
14 *862:45 0.000390857
15 *862:43 0.000378242
16 *862:35 0.000443786
17 *862:25 0.00133526
18 *862:23 0.00124254
19 *862:19 0.000319731
20 *862:8 0.000197748
21 *2965:D *2567:B1 0.000238919
22 *2965:D *900:52 0.000112971
23 *3029:D *3158:A 4.55864e-06
24 *862:8 *3158:A 8.99611e-05
25 *862:35 *2532:B1 1.56428e-05
26 *862:35 *2533:A2 2.91343e-05
27 *862:35 *906:99 7.50574e-05
28 *862:43 *2532:A2 0.00011201
29 *862:43 *906:114 0.000155928
30 *862:45 *2532:A2 2.86975e-05
31 *862:79 *900:48 4.31189e-05
32 *862:79 *900:52 0.000138777
33 *862:81 *2566:A2 0
34 *862:81 *900:52 8.44359e-05
35 *2530:B2 *862:23 4.97915e-05
36 *2532:B2 *862:45 3.00381e-05
37 *2533:A1 *862:35 4.56483e-05
38 *2533:B2 *862:35 1.12643e-05
39 *2533:C1 *862:35 0.000336877
40 *2536:B *862:25 0.000293598
41 *2536:B *862:35 0.0001865
42 *2569:C *2965:D 8.53113e-06
43 *2591:A *862:25 5.30673e-05
44 *2591:B *862:25 0.000208766
45 *2853:GATE_N *862:43 4.9968e-05
46 *2858:D *862:25 8.40213e-05
47 *2858:GATE_N *862:35 6.08976e-05
48 *2869:GATE_N *2869:D 8.65905e-05
49 *2885:GATE_N *2885:D 4.82863e-05
50 *2917:GATE_N *3029:D 4.70804e-05
51 *3013:GATE_N *862:45 0.00011964
52 *3034:GATE_N *862:8 0
53 *3071:GATE_N *862:25 0.000111901
54 *805:72 *3029:D 1.07797e-05
55 *811:97 *3029:D 8.53113e-06
56 *816:20 *862:79 5.36001e-05
57 *816:24 *862:79 7.24866e-05
58 *816:24 *862:81 2.97004e-06
59 *818:24 *2869:D 6.44134e-05
60 *831:28 *3029:D 0
61 *831:40 *2885:D 3.57349e-05
62 *831:53 *2965:D 0.000209179
63 *831:53 *862:81 2.07184e-05
64 *833:80 *2869:D 0
65 *836:22 *862:35 0.000445366
66 *836:38 *862:43 0.000114492
67 *851:59 *862:25 0.000374457
*RES
1 *3158:X *862:8 5.49 
2 *862:8 *3029:D 5.49 
3 *862:8 *862:19 2 
4 *862:19 *862:23 4.605 
5 *862:23 *862:25 15.63 
6 *862:25 *862:35 9.225 
7 *862:35 *862:43 7.72 
8 *862:43 *862:45 4.245 
9 *862:45 *2869:D 8.735 
10 *862:45 *2981:D 1.6 
11 *862:43 *3013:D 1.6 
12 *862:35 *2853:D 1.6 
13 *862:25 *862:79 5.93 
14 *862:79 *862:81 1.89 
15 *862:81 *2965:D 8.175 
16 *862:81 *2885:D 4.395 
17 *862:79 *2997:D 3.6 
18 *862:23 *3077:D 1.96 
19 *862:19 *2917:D 1.6 
*END

*D_NET *863 0.0118305
*CONN
*I *2837:D I *D sky130_fd_sc_hd__dlxtn_1
*I *3061:D I *D sky130_fd_sc_hd__dlxtn_1
*I *3045:D I *D sky130_fd_sc_hd__dlxtn_1
*I *2933:D I *D sky130_fd_sc_hd__dlxtn_1
*I *2949:D I *D sky130_fd_sc_hd__dlxtn_1
*I *2901:D I *D sky130_fd_sc_hd__dlxtn_1
*I *3158:A I *D sky130_fd_sc_hd__clkbuf_2
*I *3159:X O *D sky130_fd_sc_hd__clkbuf_2
*CAP
1 *2837:D 0.000211257
2 *3061:D 0
3 *3045:D 0.000185023
4 *2933:D 0
5 *2949:D 0.000240695
6 *2901:D 0
7 *3158:A 0.000395993
8 *3159:X 0
9 *863:77 0.000429814
10 *863:53 0.000185023
11 *863:40 0.000330011
12 *863:38 0.00216971
13 *863:8 0.000651523
14 *863:4 0.00211736
15 *3045:D *916:111 0.000458392
16 *863:8 *914:6 3.89025e-05
17 *863:38 *2529:B1 8.18626e-05
18 *863:38 *914:6 8.73389e-06
19 *863:38 *914:95 6.07575e-06
20 *2528:A1 *3045:D 1.45531e-05
21 *2528:B2 *2837:D 7.35729e-05
22 *2530:B2 *3158:A 0.000113537
23 *2531:A1 *3158:A 0.000113247
24 *2537:B2 *2837:D 0.000172724
25 *2537:B2 *863:77 5.02121e-05
26 *2584:A1 *863:38 0.000193011
27 *2592:B1 *3045:D 1.83847e-05
28 *2592:B1 *863:40 0.000135526
29 *2592:B2 *863:38 0.000107487
30 *2592:B2 *863:40 2.98807e-05
31 *2936:GATE_N *2949:D 6.65066e-05
32 *2936:GATE_N *863:40 1.01661e-05
33 *2952:GATE_N *2949:D 4.01778e-05
34 *2954:GATE_N *863:77 3.96284e-05
35 *3029:D *3158:A 4.55864e-06
36 *3034:GATE_N *3158:A 0
37 *3040:GATE_N *2949:D 0.000146408
38 *3045:GATE_N *3045:D 4.66108e-05
39 *3159:A *863:38 0.000766698
40 *3202:A *863:8 4.99619e-05
41 *809:111 *2949:D 4.82919e-05
42 *811:26 *863:38 0.00102051
43 *822:117 *2949:D 0.000122325
44 *822:134 *2949:D 0.000230435
45 *825:130 *863:40 6.2768e-05
46 *827:48 *2949:D 8.78813e-05
47 *827:48 *863:38 6.22258e-05
48 *827:48 *863:40 4.70466e-05
49 *831:28 *3158:A 2.60431e-05
50 *852:16 *3158:A 2.11084e-05
51 *852:16 *863:8 8.14241e-05
52 *852:16 *863:38 0.000227204
53 *862:8 *3158:A 8.99611e-05
*RES
1 *3159:X *863:4 1.6 
2 *863:4 *863:8 4.26 
3 *863:8 *3158:A 13.28 
4 *863:8 *2901:D 1.6 
5 *863:4 *863:38 29.495 
6 *863:38 *863:40 2.655 
7 *863:40 *2949:D 9.735 
8 *863:40 *863:53 2 
9 *863:53 *2933:D 1.6 
10 *863:53 *3045:D 6.19 
11 *863:38 *863:77 5.225 
12 *863:77 *3061:D 1.6 
13 *863:77 *2837:D 5.845 
*END

*D_NET *864 0.010517
*CONN
*I *2900:D I *D sky130_fd_sc_hd__dlxtn_1
*I *2948:D I *D sky130_fd_sc_hd__dlxtn_1
*I *2996:D I *D sky130_fd_sc_hd__dlxtn_1
*I *3012:D I *D sky130_fd_sc_hd__dlxtn_1
*I *2980:D I *D sky130_fd_sc_hd__dlxtn_1
*I *2852:D I *D sky130_fd_sc_hd__dlxtn_1
*I *2884:D I *D sky130_fd_sc_hd__dlxtn_1
*I *2868:D I *D sky130_fd_sc_hd__dlxtn_1
*I *2964:D I *D sky130_fd_sc_hd__dlxtn_1
*I *2932:D I *D sky130_fd_sc_hd__dlxtn_1
*I *3160:X O *D sky130_fd_sc_hd__clkbuf_2
*CAP
1 *2900:D 0
2 *2948:D 0
3 *2996:D 0
4 *3012:D 0.000208236
5 *2980:D 0
6 *2852:D 4.33845e-05
7 *2884:D 8.7248e-05
8 *2868:D 0
9 *2964:D 0.000119081
10 *2932:D 0.000168265
11 *3160:X 0.000289065
12 *864:89 0.000301376
13 *864:67 0.000320808
14 *864:65 0.000283316
15 *864:51 0.000153096
16 *864:49 0.000257275
17 *864:47 0.00209208
18 *864:27 0.00198353
19 *864:25 0.00011471
20 *864:10 0.000457329
21 *864:10 *2879:D 0
22 *864:10 *876:41 0.0001947
23 *864:10 *892:33 0
24 *864:47 *2524:A2 2.8185e-05
25 *864:47 *3216:A 0
26 *864:47 *921:10 8.40213e-05
27 *2520:A1 *2932:D 0
28 *2522:A1 *864:47 9.85467e-05
29 *2522:A1 *864:49 6.39105e-05
30 *2523:B2 *2964:D 0.000156613
31 *2523:B2 *3012:D 9.09788e-06
32 *2523:B2 *864:49 2.68526e-05
33 *2523:B2 *864:51 5.05437e-05
34 *2523:B2 *864:89 0.000112284
35 *2524:A1 *864:47 3.23663e-05
36 *2524:B1 *864:47 0.000425307
37 *2525:A *864:10 0
38 *2525:A *864:27 0.000459366
39 *2525:C *864:47 0.000237249
40 *2614:B2 *2932:D 8.65961e-05
41 *2852:GATE_N *2852:D 2.60041e-05
42 *2868:GATE_N *3012:D 0
43 *2868:GATE_N *864:67 0
44 *2868:GATE_N *864:89 0
45 *2890:GATE_N *2884:D 4.18603e-06
46 *2900:GATE_N *2932:D 8.67159e-05
47 *2900:GATE_N *864:10 9.3062e-06
48 *2932:GATE_N *864:10 0
49 *2943:GATE_N *864:10 0.0001947
50 *2948:GATE_N *864:47 5.42473e-05
51 *2988:D *864:47 7.60639e-05
52 *2988:GATE_N *864:47 1.83756e-05
53 *2996:GATE_N *3012:D 0
54 *3021:GATE_N *864:47 0.00015258
55 *3186:A *2932:D 0
56 *3208:A *864:47 0.000135297
57 *580:16 *864:27 0.000176923
58 *815:38 *3012:D 3.72916e-05
59 *818:14 *2884:D 0
60 *818:14 *864:67 0
61 *821:22 *3012:D 8.8266e-05
62 *831:18 *864:10 4.40773e-05
63 *831:22 *864:47 0
64 *832:47 *2852:D 8.52883e-05
65 *832:47 *2884:D 4.70256e-05
66 *837:83 *864:10 0
67 *837:83 *864:47 0.000336185
*RES
1 *3160:X *864:10 9.36 
2 *864:10 *2932:D 6.735 
3 *864:10 *864:25 2 
4 *864:25 *864:27 4.245 
5 *864:27 *864:47 34.21 
6 *864:47 *864:49 3.555 
7 *864:49 *864:51 0.795 
8 *864:51 *2964:D 4.12 
9 *864:51 *2868:D 1.6 
10 *864:49 *864:65 2 
11 *864:65 *864:67 2.655 
12 *864:67 *2884:D 5.235 
13 *864:67 *2852:D 4.755 
14 *864:65 *864:89 1.89 
15 *864:89 *2980:D 3.6 
16 *864:89 *3012:D 7.245 
17 *864:47 *2996:D 1.6 
18 *864:27 *2948:D 1.6 
19 *864:25 *2900:D 1.6 
*END

*D_NET *865 0.0113232
*CONN
*I *3044:D I *D sky130_fd_sc_hd__dlxtn_1
*I *3060:D I *D sky130_fd_sc_hd__dlxtn_1
*I *3028:D I *D sky130_fd_sc_hd__dlxtn_1
*I *3160:A I *D sky130_fd_sc_hd__clkbuf_2
*I *2836:D I *D sky130_fd_sc_hd__dlxtn_1
*I *3076:D I *D sky130_fd_sc_hd__dlxtn_1
*I *2916:D I *D sky130_fd_sc_hd__dlxtn_1
*I *3161:X O *D sky130_fd_sc_hd__clkbuf_2
*CAP
1 *3044:D 0
2 *3060:D 2.08101e-05
3 *3028:D 0
4 *3160:A 0.000401596
5 *2836:D 5.91672e-05
6 *3076:D 0.000219777
7 *2916:D 0.000133464
8 *3161:X 0.000138631
9 *865:59 0.00166573
10 *865:47 0.00153462
11 *865:43 0.000366057
12 *865:25 0.000323687
13 *865:21 0.000208725
14 *865:6 0.00031969
15 *2916:D *2518:B1 0.000164733
16 *3160:A *2519:B1 0.000330842
17 *3160:A *876:41 0.000233986
18 *3160:A *876:48 0.000185598
19 *865:6 *2518:A2 8.26048e-06
20 *865:6 *2518:B1 3.15722e-05
21 *865:21 *2547:B1 0.000149759
22 *865:25 *2547:B1 0.000160658
23 *865:43 *933:39 6.63468e-05
24 *865:47 *933:39 3.54942e-05
25 *865:59 *2605:A2 0.000120655
26 *865:59 *2605:B1 0.00024417
27 *865:59 *896:12 1.56428e-05
28 *865:59 *933:24 0.000128819
29 *865:59 *933:39 0.00014161
30 *2517:B2 *865:47 4.82919e-05
31 *2518:A1 *865:6 1.16854e-05
32 *2518:B2 *2916:D 0.000118081
33 *2518:B2 *865:6 8.42772e-05
34 *2518:C1 *865:21 0.00015829
35 *2518:C1 *865:25 0.000160658
36 *2526:B2 *2916:D 0.000205986
37 *2526:B2 *865:6 0.000223111
38 *2606:C1 *865:59 5.72516e-05
39 *2614:B1 *3076:D 3.64998e-06
40 *2836:GATE_N *2836:D 3.66286e-05
41 *2836:GATE_N *3076:D 8.40269e-05
42 *2943:GATE_N *865:59 0.000327774
43 *3044:GATE_N *865:47 0.000313852
44 *3108:A *865:59 0.00091058
45 *3188:A *865:59 0.000466248
46 *3190:A *3160:A 0
47 *661:26 *2836:D 0.00015755
48 *661:26 *3076:D 0.000525709
49 *822:6 *865:59 1.9415e-05
*RES
1 *3161:X *865:6 4.81 
2 *865:6 *2916:D 5.185 
3 *865:6 *865:21 3.89 
4 *865:21 *865:25 3.89 
5 *865:25 *3076:D 6.535 
6 *865:25 *2836:D 3.085 
7 *865:21 *865:43 3.83 
8 *865:43 *865:47 4.605 
9 *865:47 *865:59 28.125 
10 *865:59 *3160:A 13.43 
11 *865:59 *3028:D 1.6 
12 *865:47 *3060:D 1.96 
13 *865:43 *3044:D 1.6 
*END

*D_NET *866 0.0195571
*CONN
*I *3059:D I *D sky130_fd_sc_hd__dlxtn_1
*I *3027:D I *D sky130_fd_sc_hd__dlxtn_1
*I *2851:D I *D sky130_fd_sc_hd__dlxtn_1
*I *2883:D I *D sky130_fd_sc_hd__dlxtn_1
*I *2867:D I *D sky130_fd_sc_hd__dlxtn_1
*I *2979:D I *D sky130_fd_sc_hd__dlxtn_1
*I *2995:D I *D sky130_fd_sc_hd__dlxtn_1
*I *3011:D I *D sky130_fd_sc_hd__dlxtn_1
*I *2963:D I *D sky130_fd_sc_hd__dlxtn_1
*I *3043:D I *D sky130_fd_sc_hd__dlxtn_1
*I *3162:X O *D sky130_fd_sc_hd__clkbuf_2
*CAP
1 *3059:D 9.36935e-05
2 *3027:D 0
3 *2851:D 1.38185e-05
4 *2883:D 0.000102399
5 *2867:D 0
6 *2979:D 0.000160866
7 *2995:D 0
8 *3011:D 0.000110743
9 *2963:D 0.00026407
10 *3043:D 3.37454e-05
11 *3162:X 4.65492e-05
12 *866:100 0.000180527
13 *866:66 0.000110743
14 *866:53 0.00039532
15 *866:47 0.000414706
16 *866:43 0.000203251
17 *866:41 0.00345328
18 *866:35 0.00443701
19 *866:23 0.00119608
20 *866:19 0.000239919
21 *866:8 0.000159135
22 *3059:D *2506:A2 3.3657e-05
23 *3059:D *2507:B1 4.66108e-05
24 *866:8 *2506:A2 7.89689e-05
25 *866:19 *2506:A2 7.99552e-05
26 *866:35 *2504:A2 2.75145e-05
27 *866:35 *3042:D 7.05371e-05
28 *866:35 *893:37 0.000252713
29 *866:35 *893:59 6.07575e-06
30 *866:35 *933:82 0.000452569
31 *866:41 *892:33 4.14782e-05
32 *866:41 *893:37 0.000205435
33 *866:41 *912:10 4.56148e-05
34 *2496:B2 *866:35 0.000109386
35 *2503:A *866:35 8.65961e-05
36 *2506:B2 *3059:D 0.000133698
37 *2510:B2 *2851:D 1.77665e-05
38 *2511:B2 *866:41 9.07997e-06
39 *2512:B2 *3011:D 0.00015409
40 *2512:B2 *866:100 9.54399e-05
41 *2595:A1 *866:35 0.000124007
42 *2851:GATE_N *2851:D 4.77757e-05
43 *2867:GATE_N *2963:D 0.000362958
44 *2867:GATE_N *2979:D 0
45 *2867:GATE_N *866:47 8.52883e-05
46 *2867:GATE_N *866:53 0.000253939
47 *2883:GATE_N *2883:D 0
48 *2883:GATE_N *866:41 0.000122714
49 *2891:D *866:41 1.56428e-05
50 *2891:GATE_N *866:41 0.00119811
51 *2962:GATE_N *2883:D 0
52 *2963:GATE_N *2963:D 4.99619e-05
53 *2979:GATE_N *2979:D 0
54 *2995:GATE_N *2963:D 0
55 *2995:GATE_N *3011:D 4.38278e-05
56 *3051:GATE_N *866:35 0.000381847
57 *3109:A *866:23 0.00013344
58 *3109:A *866:35 0.000162025
59 *3201:A *866:41 1.56428e-05
60 *492:14 *866:41 9.14314e-05
61 *499:18 *866:41 1.74678e-05
62 *808:14 *3059:D 1.56428e-05
63 *810:14 *3059:D 0.000151777
64 *810:14 *866:19 2.25119e-05
65 *810:16 *866:8 1.89685e-05
66 *810:16 *866:19 5.55605e-05
67 *810:22 *866:8 6.55328e-05
68 *810:84 *866:35 0.000110743
69 *815:22 *2979:D 0
70 *817:30 *2883:D 4.4123e-05
71 *817:30 *2963:D 0
72 *817:30 *2979:D 0
73 *817:30 *866:53 0
74 *817:30 *866:100 0.00012904
75 *817:51 *2883:D 0.000173163
76 *817:51 *2963:D 0
77 *832:25 *866:41 0.00141609
78 *839:75 *866:23 0.000258751
79 *839:75 *866:35 0.000382769
80 *849:87 *866:41 1.56428e-05
81 *849:98 *866:41 2.76356e-05
*RES
1 *3162:X *866:8 5.235 
2 *866:8 *3043:D 4.05 
3 *866:8 *866:19 1.89 
4 *866:19 *866:23 4.52 
5 *866:23 *866:35 22.95 
6 *866:35 *866:41 42.48 
7 *866:41 *866:43 1.14 
8 *866:43 *866:47 2.19 
9 *866:47 *866:53 4.775 
10 *866:53 *2963:D 9.27 
11 *866:53 *866:66 2 
12 *866:66 *3011:D 4.12 
13 *866:66 *2995:D 1.6 
14 *866:47 *2979:D 8.255 
15 *866:43 *2867:D 1.6 
16 *866:41 *866:100 3.995 
17 *866:100 *2883:D 6 
18 *866:100 *2851:D 4.05 
19 *866:23 *3027:D 1.6 
20 *866:19 *3059:D 6.45 
*END

*D_NET *867 0.00627844
*CONN
*I *3075:D I *D sky130_fd_sc_hd__dlxtn_1
*I *2835:D I *D sky130_fd_sc_hd__dlxtn_1
*I *2915:D I *D sky130_fd_sc_hd__dlxtn_1
*I *2947:D I *D sky130_fd_sc_hd__dlxtn_1
*I *2899:D I *D sky130_fd_sc_hd__dlxtn_1
*I *2931:D I *D sky130_fd_sc_hd__dlxtn_1
*I *3163:X O *D sky130_fd_sc_hd__buf_1
*CAP
1 *3075:D 0.000113547
2 *2835:D 0
3 *2915:D 0.00010046
4 *2947:D 0
5 *2899:D 0
6 *2931:D 0.000276145
7 *3163:X 0.000496531
8 *867:28 0.000683111
9 *867:18 0.00044299
10 *867:16 0.000314428
11 *867:10 0.000230062
12 *867:6 0.000662196
13 *2915:D *895:81 3.64998e-06
14 *2931:D *912:43 0.000319835
15 *867:6 *2631:A 2.8185e-05
16 *867:28 *2506:A2 1.97442e-05
17 *867:28 *895:71 2.0514e-05
18 *867:28 *895:81 5.4851e-05
19 *2507:A1 *3075:D 5.83121e-06
20 *2508:B2 *867:16 3.10977e-05
21 *2509:B2 *2931:D 4.80285e-05
22 *2509:C1 *2915:D 4.66108e-05
23 *2509:C1 *2931:D 0.000197535
24 *2509:C1 *867:28 0.000641896
25 *2515:B2 *867:10 0
26 *2515:B2 *867:16 0
27 *3075:GATE_N *867:10 5.89912e-05
28 *3109:A *3075:D 3.91051e-05
29 *3109:A *867:6 1.19928e-05
30 *3162:A *867:16 0.000188069
31 *3162:A *867:18 7.14699e-05
32 *3162:A *867:28 0.000191226
33 *3163:A *867:6 7.10578e-05
34 *808:14 *867:6 2.11084e-05
35 *810:22 *867:28 7.62792e-05
36 *823:51 *867:28 0.000120655
37 *823:68 *2915:D 0.00015017
38 *823:68 *867:18 1.56428e-05
39 *823:68 *867:28 3.59784e-05
40 *828:70 *867:28 0.000122331
41 *838:18 *867:6 9.59368e-05
42 *838:18 *867:10 0.000106201
43 *838:18 *867:16 1.43521e-05
44 *838:28 *2915:D 7.45952e-05
45 *838:28 *867:16 7.60305e-05
*RES
1 *3163:X *867:6 7.57 
2 *867:6 *867:10 3.38 
3 *867:10 *867:16 6.23 
4 *867:16 *867:18 0.795 
5 *867:18 *867:28 14.035 
6 *867:28 *2931:D 7.57 
7 *867:28 *2899:D 1.6 
8 *867:18 *2947:D 1.6 
9 *867:16 *2915:D 7.94 
10 *867:10 *2835:D 3.6 
11 *867:6 *3075:D 3.565 
*END

*D_NET *868 0.0158268
*CONN
*I *2381:A I *D sky130_fd_sc_hd__inv_2
*I *2389:A I *D sky130_fd_sc_hd__nand2_1
*I *2686:A1 I *D sky130_fd_sc_hd__a31o_1
*I *2761:A1 I *D sky130_fd_sc_hd__a32o_1
*I *2701:A I *D sky130_fd_sc_hd__nor2_1
*I *2694:A I *D sky130_fd_sc_hd__and3_1
*I *2702:B2 I *D sky130_fd_sc_hd__o32a_1
*I *3250:X O *D sky130_fd_sc_hd__clkbuf_2
*CAP
1 *2381:A 0.000615553
2 *2389:A 9.4671e-06
3 *2686:A1 0.000104533
4 *2761:A1 0
5 *2701:A 0.000581218
6 *2694:A 0.000333013
7 *2702:B2 2.11447e-05
8 *3250:X 0.000846525
9 *868:92 0.000114
10 *868:70 0.000739311
11 *868:62 0.000844004
12 *868:39 0.00111871
13 *868:35 0.000792713
14 *868:20 0.000945039
15 *2381:A *2696:A 8.51862e-05
16 *2381:A *2696:B 2.01504e-05
17 *2381:A *887:99 0.000890159
18 *2381:A *997:20 6.61627e-05
19 *2389:A *2389:B 2.99518e-06
20 *2694:A *2450:D 0.000173797
21 *2694:A *950:63 0
22 *2694:A *951:38 6.13486e-05
23 *2694:A *966:16 8.23457e-05
24 *2694:A *1048:10 8.09095e-05
25 *2701:A *2766:S 0
26 *2701:A *2767:B 5.53249e-06
27 *2701:A *885:115 0.000120149
28 *2701:A *887:105 5.65063e-05
29 *2702:B2 *2702:A3 5.83121e-06
30 *868:20 *2702:A1 5.56116e-05
31 *868:20 *2702:B1 9.50342e-06
32 *868:20 *2790:RESET_B 5.77589e-05
33 *868:20 *891:72 5.55371e-05
34 *868:20 *956:26 0.000123528
35 *868:20 *979:10 0.000239813
36 *868:20 *981:18 8.57024e-05
37 *868:20 *996:16 0.000586732
38 *868:20 *1047:111 0.000117445
39 *868:20 *1048:31 0.000151223
40 *868:35 *887:99 0.00013637
41 *868:39 *950:80 0.000183721
42 *868:39 *1048:10 2.07211e-05
43 *868:62 *885:97 0.00156215
44 *868:62 *885:115 0.000143103
45 *868:70 *885:115 0.000438633
46 *2394:B1 *2686:A1 5.02892e-05
47 *2664:D *2694:A 0.000308736
48 *2668:C *868:20 0.000380635
49 *2676:B *868:62 6.47661e-05
50 *2680:A *868:39 0.000164441
51 *2684:B1 *868:62 0.00020756
52 *2685:A *2686:A1 0
53 *2697:A *868:62 0.000390843
54 *2697:A *868:70 0.000239433
55 *2698:B1 *2694:A 0.00015639
56 *2709:A1 *868:20 4.5783e-05
57 *2709:A2 *868:20 0.000134249
58 *2710:C1 *868:20 1.46744e-05
59 *2718:B2 *868:20 0.000177954
60 *2761:A2 *868:70 9.50342e-06
61 *2761:A3 *2701:A 7.16048e-06
62 *2761:A3 *868:70 5.38986e-06
63 *2761:B1 *2701:A 1.23707e-05
64 *2762:B1 *2389:A 7.9642e-06
65 *2764:B *2701:A 2.03798e-05
66 *2764:C *2701:A 8.22234e-06
67 *2764:D *868:70 1.92979e-05
68 *2790:D *868:20 4.47819e-05
69 *3230:A *2694:A 4.82919e-05
70 *3233:A *2702:B2 4.66108e-05
71 *474:45 *2694:A 9.17261e-05
72 *475:38 *2389:A 7.70424e-07
73 *475:38 *2686:A1 1.67879e-05
74 *480:10 *2686:A1 9.04308e-05
75 *504:12 *2381:A 1.79536e-05
76 *510:12 *2694:A 8.53113e-06
77 *672:43 *868:20 0.000114492
78 *675:37 *2686:A1 1.02346e-05
79 *691:20 *868:62 0.000208371
80 *696:28 *2381:A 1.79536e-05
*RES
1 *3250:X *868:20 24.375 
2 *868:20 *2702:B2 4.05 
3 *868:20 *868:35 0.7128 
4 *868:35 *868:39 3.155 
5 *868:39 *2694:A 15.5725 
6 *868:39 *868:62 3.10173 
7 *868:62 *868:70 3.41143 
8 *868:70 *2701:A 12.965 
9 *868:70 *2761:A1 1.6 
10 *868:62 *868:92 0.5 
11 *868:92 *2686:A1 5.6175 
12 *868:92 *2389:A 3.8325 
13 *868:35 *2381:A 6.85063 
*END

*D_NET *869 0.0101471
*CONN
*I *3026:D I *D sky130_fd_sc_hd__dlxtn_1
*I *2898:D I *D sky130_fd_sc_hd__dlxtn_1
*I *2930:D I *D sky130_fd_sc_hd__dlxtn_1
*I *3042:D I *D sky130_fd_sc_hd__dlxtn_1
*I *2914:D I *D sky130_fd_sc_hd__dlxtn_1
*I *2834:D I *D sky130_fd_sc_hd__dlxtn_1
*I *3074:D I *D sky130_fd_sc_hd__dlxtn_1
*I *2946:D I *D sky130_fd_sc_hd__dlxtn_1
*I *2882:D I *D sky130_fd_sc_hd__dlxtn_1
*I *2866:D I *D sky130_fd_sc_hd__dlxtn_1
*I *3164:X O *D sky130_fd_sc_hd__clkbuf_2
*CAP
1 *3026:D 0
2 *2898:D 8.45152e-05
3 *2930:D 0
4 *3042:D 0.000333634
5 *2914:D 9.22006e-05
6 *2834:D 0
7 *3074:D 9.41769e-06
8 *2946:D 0.000156178
9 *2882:D 3.44213e-05
10 *2866:D 0.000137112
11 *3164:X 6.37321e-05
12 *869:106 0.000391026
13 *869:74 0.00018371
14 *869:68 0.000170662
15 *869:66 0.000244785
16 *869:35 0.000457176
17 *869:33 0.000530645
18 *869:29 0.000678074
19 *869:19 0.000404568
20 *869:10 0.000320499
21 *2866:D *899:85 0.000351268
22 *2882:D *2464:A2 8.65905e-05
23 *2914:D *917:62 0.000190569
24 *2946:D *2471:A2 0
25 *3042:D *2498:A2 7.38213e-05
26 *3042:D *889:56 3.37406e-06
27 *3042:D *897:29 9.7579e-06
28 *3042:D *1012:16 0.000208446
29 *3074:D *895:40 1.55649e-05
30 *869:10 *2419:B 3.26084e-05
31 *869:10 *881:31 7.89767e-05
32 *869:10 *919:29 0
33 *869:19 *2419:B 7.8936e-05
34 *869:19 *899:85 0.000113237
35 *869:29 *2419:B 3.99879e-05
36 *869:29 *881:39 0
37 *869:29 *919:29 0
38 *869:33 *881:39 0
39 *869:33 *933:10 0.000233131
40 *869:33 *933:18 0.000215102
41 *869:35 *2464:A2 0.000347911
42 *869:35 *895:40 4.23703e-05
43 *869:66 *897:29 0.000528382
44 *869:66 *917:62 5.38192e-05
45 *869:74 *917:62 1.99427e-05
46 *869:106 *897:29 4.58166e-05
47 *2495:B2 *869:19 4.21973e-05
48 *2496:A1 *869:33 8.75387e-05
49 *2499:A1 *869:35 8.67294e-05
50 *2503:B *869:66 2.81489e-05
51 *2503:B *869:106 4.21973e-05
52 *2914:GATE_N *3042:D 1.8424e-05
53 *2914:GATE_N *869:74 1.07797e-05
54 *2930:GATE_N *869:66 0.000197264
55 *2930:GATE_N *869:106 8.31152e-05
56 *3051:GATE_N *869:33 0.000197066
57 *3111:A *3042:D 0.000178703
58 *3127:A *3042:D 3.56151e-05
59 *3127:A *869:106 0.000122365
60 *3128:A *869:29 4.44131e-05
61 *3129:A *869:29 8.63081e-05
62 *3129:A *869:33 0.000122331
63 *3138:A *2898:D 7.93317e-05
64 *3138:A *869:68 3.97827e-05
65 *3138:A *869:74 0.000154165
66 *3205:A *869:29 6.59587e-06
67 *3205:A *869:33 1.58143e-05
68 *477:30 *869:66 4.41506e-05
69 *651:26 *3042:D 9.25241e-05
70 *808:80 *3074:D 4.77757e-05
71 *808:80 *869:35 0.000364316
72 *810:84 *3042:D 0.000115204
73 *826:10 *2898:D 0
74 *828:48 *869:74 4.76453e-05
75 *828:60 *2898:D 9.21178e-05
76 *828:60 *869:68 4.76263e-05
77 *828:60 *869:74 0.000130106
78 *829:10 *2898:D 2.99518e-06
79 *829:20 *2898:D 1.34363e-05
80 *829:20 *2946:D 0
81 *839:50 *2914:D 4.32364e-05
82 *839:50 *869:74 2.97403e-05
83 *839:75 *2914:D 5.81951e-05
84 *841:21 *2898:D 0
85 *841:21 *3042:D 0.000206684
86 *866:35 *3042:D 7.05371e-05
*RES
1 *3164:X *869:10 7.235 
2 *869:10 *2866:D 4.81 
3 *869:10 *869:19 2.865 
4 *869:19 *869:29 7.025 
5 *869:29 *869:33 8.48 
6 *869:33 *869:35 7.005 
7 *869:35 *2882:D 2.395 
8 *869:35 *2946:D 8 
9 *869:33 *3074:D 2.05 
10 *869:29 *869:66 8.935 
11 *869:66 *869:68 0.615 
12 *869:68 *869:74 4.685 
13 *869:74 *2834:D 1.6 
14 *869:74 *2914:D 4.57 
15 *869:68 *869:106 4.28 
16 *869:106 *3042:D 13.5461 
17 *869:106 *2930:D 1.6 
18 *869:66 *2898:D 5.49 
19 *869:19 *3026:D 1.6 
*END

*D_NET *870 0.0171255
*CONN
*I *3058:D I *D sky130_fd_sc_hd__dlxtn_1
*I *3164:A I *D sky130_fd_sc_hd__clkbuf_2
*I *2994:D I *D sky130_fd_sc_hd__dlxtn_1
*I *3010:D I *D sky130_fd_sc_hd__dlxtn_1
*I *2962:D I *D sky130_fd_sc_hd__dlxtn_1
*I *2978:D I *D sky130_fd_sc_hd__dlxtn_1
*I *2850:D I *D sky130_fd_sc_hd__dlxtn_1
*I *3165:X O *D sky130_fd_sc_hd__clkbuf_2
*CAP
1 *3058:D 0.000845229
2 *3164:A 0
3 *2994:D 0.000315213
4 *3010:D 0
5 *2962:D 9.87594e-05
6 *2978:D 2.93081e-05
7 *2850:D 0.000142983
8 *3165:X 0
9 *870:85 0.00100528
10 *870:43 0.000203396
11 *870:41 0.000140003
12 *870:26 0.00029958
13 *870:24 0.00311903
14 *870:4 0.00287194
15 *2850:D *2512:B1 4.66108e-05
16 *2850:D *903:102 0
17 *2850:D *907:48 0.000137578
18 *2850:D *929:10 0.000206817
19 *2850:D *929:18 0.000159964
20 *2962:D *2501:C1 0
21 *3058:D *2496:A2 0
22 *3058:D *895:63 7.74785e-05
23 *3058:D *917:62 4.34827e-05
24 *3058:D *919:29 0.000201503
25 *870:24 *2399:B 0
26 *870:24 *2402:A 5.85626e-05
27 *870:24 *2402:C 1.90662e-05
28 *870:24 *2599:A2 0.000122337
29 *870:24 *3211:A 0.000368239
30 *870:24 *925:33 3.1562e-06
31 *870:24 *929:10 0.00012764
32 *870:24 *938:14 1.34594e-05
33 *870:24 *939:23 0.000157916
34 *870:24 *955:59 2.26018e-05
35 *870:26 *904:10 0
36 *870:26 *929:10 0.000147397
37 *870:85 *881:31 0.00013521
38 *870:85 *889:56 0
39 *870:85 *919:29 0.000160635
40 *870:85 *955:59 3.45588e-05
41 *2500:A1 *2850:D 0
42 *2500:B2 *870:41 0.00016063
43 *2500:B2 *870:43 0.000200615
44 *2501:B2 *870:43 4.58166e-05
45 *2502:B1 *2850:D 6.64979e-05
46 *2503:A *3058:D 3.50959e-05
47 *2503:B *3058:D 1.52862e-05
48 *2504:B1 *3058:D 0
49 *2504:B2 *3058:D 0.000130739
50 *2597:B2 *870:24 0.000119762
51 *2599:C1 *870:24 0.000124007
52 *2602:B *870:24 0.000347029
53 *2786:CLK *3058:D 4.43871e-06
54 *2978:GATE_N *2962:D 0.000208477
55 *2978:GATE_N *2978:D 4.82863e-05
56 *3019:D *870:24 2.55503e-05
57 *3019:GATE_N *870:24 1.34594e-05
58 *3113:A *3058:D 0.000680108
59 *3113:A *870:85 0.000162311
60 *3146:A *870:24 8.65905e-05
61 *3165:A *870:24 0.000799712
62 *3193:A *870:24 4.94404e-05
63 *3194:A *2994:D 9.27326e-05
64 *3197:A *870:24 0.00010293
65 *3213:A *870:24 7.81876e-05
66 *3305:A *870:24 0.000119631
67 *477:30 *3058:D 4.4162e-05
68 *485:12 *3058:D 0
69 *489:10 *870:24 0.000123444
70 *753:12 *870:24 2.59733e-05
71 *808:80 *3058:D 0.000196376
72 *812:10 *3058:D 0.000111285
73 *815:12 *2962:D 0
74 *815:12 *2994:D 0.000273872
75 *815:22 *2978:D 3.03684e-05
76 *815:22 *870:43 0.0002658
77 *817:28 *2978:D 1.91597e-05
78 *817:28 *870:43 0.00013566
79 *826:10 *3058:D 0.000295558
80 *826:12 *3058:D 0.00050766
81 *837:27 *2850:D 1.56428e-05
82 *849:10 *870:24 4.82919e-05
*RES
1 *3165:X *870:4 1.6 
2 *870:4 *870:24 45.915 
3 *870:24 *870:26 1.89 
4 *870:26 *2850:D 8.235 
5 *870:26 *870:41 3.485 
6 *870:41 *870:43 3.9 
7 *870:43 *2978:D 2.395 
8 *870:43 *2962:D 8 
9 *870:41 *3010:D 1.6 
10 *870:24 *2994:D 9.57 
11 *870:4 *870:85 7.915 
12 *870:85 *3164:A 1.6 
13 *870:85 *3058:D 26.09 
*END

*D_NET *871 0.0119504
*CONN
*I *3041:D I *D sky130_fd_sc_hd__dlxtn_1
*I *3073:D I *D sky130_fd_sc_hd__dlxtn_1
*I *2881:D I *D sky130_fd_sc_hd__dlxtn_1
*I *3009:D I *D sky130_fd_sc_hd__dlxtn_1
*I *2993:D I *D sky130_fd_sc_hd__dlxtn_1
*I *2977:D I *D sky130_fd_sc_hd__dlxtn_1
*I *2849:D I *D sky130_fd_sc_hd__dlxtn_1
*I *2961:D I *D sky130_fd_sc_hd__dlxtn_1
*I *2865:D I *D sky130_fd_sc_hd__dlxtn_1
*I *2929:D I *D sky130_fd_sc_hd__dlxtn_1
*I *3166:X O *D sky130_fd_sc_hd__clkbuf_2
*CAP
1 *3041:D 0.000428013
2 *3073:D 2.08101e-05
3 *2881:D 0
4 *3009:D 0
5 *2993:D 0
6 *2977:D 0.000188943
7 *2849:D 9.40615e-05
8 *2961:D 8.42106e-05
9 *2865:D 1.58806e-05
10 *2929:D 5.83348e-05
11 *3166:X 0
12 *871:118 0.000644661
13 *871:90 0.000188943
14 *871:77 0.000148206
15 *871:75 0.000122119
16 *871:53 0.00014807
17 *871:51 0.000323188
18 *871:33 0.000908315
19 *871:10 0.00128666
20 *871:4 0.000723082
21 *2849:D *2576:A2 8.40269e-05
22 *2849:D *921:109 0.000206817
23 *3041:D *2833:D 4.66108e-05
24 *3041:D *892:105 0.000381088
25 *871:10 *914:10 3.60648e-05
26 *871:10 *914:16 1.82476e-05
27 *871:33 *872:18 0.000104379
28 *871:51 *921:109 5.23362e-05
29 *871:51 *923:36 7.5416e-05
30 *871:75 *921:109 0.00020477
31 *871:77 *921:109 0.000154817
32 *2486:A1 *2929:D 0.000136604
33 *2486:A1 *871:10 8.53113e-06
34 *2490:B2 *2977:D 0.000155491
35 *2493:A1 *3041:D 4.83324e-05
36 *2493:B2 *2929:D 4.82863e-05
37 *2564:C1 *871:33 2.68024e-05
38 *2569:A *2865:D 3.72916e-05
39 *2569:A *871:33 0.000718131
40 *2569:A *871:51 5.25599e-05
41 *2569:A *871:53 5.36281e-05
42 *2881:GATE_N *871:51 2.74997e-05
43 *2887:GATE_N *2849:D 0.000206817
44 *2887:GATE_N *871:75 0.000196055
45 *2887:GATE_N *871:77 0.000146286
46 *2913:GATE_N *871:33 0.000490263
47 *2917:GATE_N *871:33 0.000234674
48 *2929:GATE_N *2929:D 1.56428e-05
49 *2993:GATE_N *2961:D 0.000159964
50 *3166:A *871:10 4.82919e-05
51 *3166:A *871:118 4.82863e-05
52 *381:18 *2929:D 0.000137886
53 *381:18 *871:10 0.000172151
54 *590:24 *3041:D 0.000130912
55 *590:24 *871:118 1.29825e-05
56 *805:18 *871:10 0.000213451
57 *805:18 *871:118 2.67275e-05
58 *811:52 *871:10 1.26626e-05
59 *811:143 *3041:D 0.000134509
60 *831:28 *871:33 0.000664725
61 *831:28 *871:51 4.66108e-05
62 *831:30 *871:51 5.74829e-05
63 *831:30 *871:53 3.57349e-05
64 *831:40 *2865:D 8.65905e-05
65 *831:40 *871:53 0.000120655
66 *833:12 *2961:D 0
67 *851:20 *3041:D 0.000308719
68 *855:20 *2977:D 0.000181095
*RES
1 *3166:X *871:4 1.6 
2 *871:4 *871:10 9.77 
3 *871:10 *2929:D 5.685 
4 *871:10 *871:33 19.505 
5 *871:33 *871:51 8.335 
6 *871:51 *871:53 1.485 
7 *871:53 *2865:D 2.395 
8 *871:53 *2961:D 7.49 
9 *871:51 *871:75 4.4 
10 *871:75 *871:77 1.89 
11 *871:77 *2849:D 6.795 
12 *871:77 *871:90 2 
13 *871:90 *2977:D 5.845 
14 *871:90 *2993:D 1.6 
15 *871:75 *3009:D 3.6 
16 *871:33 *2881:D 1.6 
17 *871:4 *871:118 2.535 
18 *871:118 *3073:D 1.96 
19 *871:118 *3041:D 14.93 
*END

*D_NET *872 0.00636273
*CONN
*I *2833:D I *D sky130_fd_sc_hd__dlxtn_1
*I *2897:D I *D sky130_fd_sc_hd__dlxtn_1
*I *3025:D I *D sky130_fd_sc_hd__dlxtn_1
*I *2913:D I *D sky130_fd_sc_hd__dlxtn_1
*I *3057:D I *D sky130_fd_sc_hd__dlxtn_1
*I *2945:D I *D sky130_fd_sc_hd__dlxtn_1
*I *3167:X O *D sky130_fd_sc_hd__buf_1
*CAP
1 *2833:D 9.49282e-05
2 *2897:D 0
3 *3025:D 0
4 *2913:D 0
5 *3057:D 0.000149906
6 *2945:D 8.87943e-05
7 *3167:X 0.000489464
8 *872:62 0.000480837
9 *872:55 0.000499872
10 *872:24 0.000300248
11 *872:18 0.000242544
12 *872:12 0.000784424
13 *2833:D *2485:B1 0.000113797
14 *2833:D *892:88 4.21314e-05
15 *872:12 *894:29 0.000182534
16 *872:12 *894:37 3.09233e-05
17 *872:12 *916:15 9.02174e-05
18 *872:12 *916:95 0.000162941
19 *872:18 *2487:A2 2.87433e-05
20 *872:24 *898:50 0.000207516
21 *872:62 *898:118 4.21973e-05
22 *2484:A1 *872:62 6.97118e-05
23 *2485:B2 *2833:D 8.09021e-06
24 *2487:B2 *872:12 3.09233e-05
25 *2487:B2 *872:55 1.12643e-05
26 *2492:A *2945:D 6.96579e-05
27 *2493:B2 *2945:D 0.000165132
28 *2493:B2 *3057:D 0.000148977
29 *2564:C1 *872:18 0.000428762
30 *2564:C1 *872:55 0.000212075
31 *2564:C1 *872:62 8.40213e-05
32 *2833:GATE_N *2833:D 0.00012195
33 *2833:GATE_N *872:62 4.99619e-05
34 *3025:GATE_N *872:55 3.95698e-05
35 *3041:D *2833:D 4.66108e-05
36 *381:18 *3057:D 7.82855e-05
37 *590:24 *2833:D 1.56428e-05
38 *805:12 *872:12 4.82919e-05
39 *807:22 *3057:D 7.82855e-05
40 *807:22 *872:24 0.000113314
41 *811:36 *872:12 0.000106476
42 *811:52 *872:18 0.000191232
43 *811:52 *872:55 0.000108098
44 *871:33 *872:18 0.000104379
*RES
1 *3167:X *872:12 13.865 
2 *872:12 *872:18 5.4 
3 *872:18 *872:24 6.4 
4 *872:24 *2945:D 4.12 
5 *872:24 *3057:D 8.975 
6 *872:18 *2913:D 1.6 
7 *872:12 *872:55 2.985 
8 *872:55 *3025:D 1.6 
9 *872:55 *872:62 6.315 
10 *872:62 *2897:D 1.6 
11 *872:62 *2833:D 8.39 
*END

*D_NET *873 0.0131813
*CONN
*I *3024:D I *D sky130_fd_sc_hd__dlxtn_1
*I *3008:D I *D sky130_fd_sc_hd__dlxtn_1
*I *2992:D I *D sky130_fd_sc_hd__dlxtn_1
*I *2848:D I *D sky130_fd_sc_hd__dlxtn_1
*I *2976:D I *D sky130_fd_sc_hd__dlxtn_1
*I *2880:D I *D sky130_fd_sc_hd__dlxtn_1
*I *2960:D I *D sky130_fd_sc_hd__dlxtn_1
*I *2864:D I *D sky130_fd_sc_hd__dlxtn_1
*I *2928:D I *D sky130_fd_sc_hd__dlxtn_1
*I *3056:D I *D sky130_fd_sc_hd__dlxtn_1
*I *3168:X O *D sky130_fd_sc_hd__clkbuf_2
*CAP
1 *3024:D 0
2 *3008:D 0
3 *2992:D 0.000135666
4 *2848:D 0
5 *2976:D 0.000133841
6 *2880:D 0
7 *2960:D 3.18738e-05
8 *2864:D 0
9 *2928:D 0.000157512
10 *3056:D 0
11 *3168:X 0
12 *873:104 0.000157766
13 *873:84 0.000288408
14 *873:73 0.00041447
15 *873:60 0.000873529
16 *873:54 0.000923158
17 *873:50 0.00276431
18 *873:28 0.00268607
19 *873:10 0.000372243
20 *873:4 0.000392045
21 *873:10 *2654:A1 0
22 *873:28 *2654:A1 0
23 *873:50 *2455:A2 1.4399e-05
24 *873:50 *2479:A2 6.60257e-06
25 *873:50 *2654:A1 0
26 *873:50 *2657:A1 9.35204e-05
27 *873:50 *877:18 3.23663e-05
28 *873:50 *877:38 0.000222207
29 *873:50 *904:61 0.000133662
30 *2455:A1 *873:60 0
31 *2456:A1 *2992:D 0
32 *2476:B2 *2928:D 4.16262e-05
33 *2477:B2 *873:73 2.97004e-06
34 *2479:A1 *873:50 1.91597e-05
35 *2479:A1 *873:54 0.000160635
36 *2479:B2 *873:50 0.000152467
37 *2480:B1 *873:50 1.16646e-05
38 *2846:GATE_N *873:60 0.000122801
39 *2864:GATE_N *2976:D 0
40 *2864:GATE_N *873:60 8.53113e-06
41 *2864:GATE_N *873:73 0.000154488
42 *2864:GATE_N *873:84 0
43 *2871:D *873:50 1.61831e-05
44 *2871:GATE_N *873:50 7.60965e-05
45 *2903:D *873:10 0.000343436
46 *2928:GATE_N *2928:D 0.0001249
47 *2968:GATE_N *2976:D 0
48 *2968:GATE_N *873:84 0
49 *2999:D *873:50 0.000129465
50 *2999:GATE_N *873:50 0.000136915
51 *3001:D *873:50 3.72916e-05
52 *3006:GATE_N *873:50 0
53 *3024:GATE_N *873:50 0.000224737
54 *3054:GATE_N *2928:D 0.000122325
55 *3070:GATE_N *873:50 0.000142211
56 *3168:A *873:10 2.28346e-05
57 *3169:A *873:10 7.79709e-05
58 *3172:A *873:28 0.000123225
59 *381:18 *873:10 0.000579741
60 *381:18 *873:28 0
61 *814:120 *873:50 1.56428e-05
62 *814:120 *873:54 3.86133e-05
63 *818:30 *2976:D 1.71013e-05
64 *818:43 *2976:D 4.82863e-05
65 *833:69 *2976:D 0
66 *836:67 *2992:D 0.000108281
67 *836:67 *873:60 7.32549e-05
68 *858:15 *2928:D 0.000168165
69 *858:19 *2928:D 4.66108e-05
*RES
1 *3168:X *873:4 1.6 
2 *873:4 *873:10 10.99 
3 *873:10 *3056:D 1.6 
4 *873:10 *2928:D 5.845 
5 *873:4 *873:28 4.52 
6 *873:28 *873:50 41.025 
7 *873:50 *873:54 4.605 
8 *873:54 *873:60 11.66 
9 *873:60 *2864:D 3.6 
10 *873:60 *873:73 6.065 
11 *873:73 *2960:D 2.05 
12 *873:73 *873:84 4.4 
13 *873:84 *2880:D 3.6 
14 *873:84 *2976:D 5.94 
15 *873:54 *873:104 0.36 
16 *873:104 *2848:D 1.6 
17 *873:104 *2992:D 8.45 
18 *873:50 *3008:D 1.6 
19 *873:28 *3024:D 3.6 
*END

*D_NET *874 0.0101153
*CONN
*I *2896:D I *D sky130_fd_sc_hd__dlxtn_1
*I *3040:D I *D sky130_fd_sc_hd__dlxtn_1
*I *2912:D I *D sky130_fd_sc_hd__dlxtn_1
*I *3072:D I *D sky130_fd_sc_hd__dlxtn_1
*I *2944:D I *D sky130_fd_sc_hd__dlxtn_1
*I *2832:D I *D sky130_fd_sc_hd__dlxtn_1
*I *3169:X O *D sky130_fd_sc_hd__buf_1
*CAP
1 *2896:D 0.000178111
2 *3040:D 4.45819e-05
3 *2912:D 8.66164e-05
4 *3072:D 2.56379e-05
5 *2944:D 0
6 *2832:D 0.00019292
7 *3169:X 0.000141278
8 *874:53 0.000209385
9 *874:44 0.000225553
10 *874:24 0.000207056
11 *874:20 0.0021504
12 *874:10 0.00233392
13 *2832:D *2473:A2 0.000272978
14 *2832:D *2474:B1 8.30545e-05
15 *2832:D *2559:A2 0
16 *2896:D *2646:A0 0.00015896
17 *3040:D *2474:A2 0.000115779
18 *874:10 *884:44 2.23922e-05
19 *874:10 *884:57 0.000198737
20 *874:20 *2473:B1 1.36454e-05
21 *874:20 *2652:A0 0.000308719
22 *874:20 *2800:GATE_N 4.0092e-05
23 *874:20 *2894:D 2.75229e-05
24 *874:20 *3174:A 0.000136829
25 *874:20 *880:23 0.000238137
26 *874:20 *881:79 0.000248254
27 *874:20 *884:44 5.16348e-05
28 *874:24 *2473:A2 2.0514e-05
29 *874:24 *2474:B1 1.83847e-05
30 *874:53 *2474:A2 6.97034e-05
31 *2473:B2 *874:20 0
32 *2473:B2 *874:44 0
33 *2559:A1 *874:20 0
34 *2560:B *3040:D 4.43682e-05
35 *2560:B *3072:D 1.83756e-05
36 *2560:B *874:53 8.82341e-05
37 *2800:D *874:20 0
38 *2803:D *874:20 0.000118294
39 *2944:GATE_N *874:44 0.000100734
40 *3040:GATE_N *2912:D 0.00015938
41 *3040:GATE_N *3040:D 7.66083e-05
42 *3040:GATE_N *874:44 0
43 *3040:GATE_N *874:53 4.82919e-05
44 *3047:GATE_N *874:10 3.1562e-06
45 *3079:D *874:20 0.000119762
46 *3079:GATE_N *874:20 1.37639e-05
47 *3157:A *874:20 0
48 *3157:A *874:44 0
49 *3172:A *2896:D 0.000500381
50 *3172:A *874:20 4.66108e-05
51 *3173:A *874:10 0.000135237
52 *3173:A *874:20 2.07184e-05
53 *3316:A *874:20 8.53113e-06
54 *376:10 *874:20 2.92496e-05
55 *829:113 *2896:D 0.000474183
56 *829:113 *874:20 8.71212e-05
57 *838:44 *2912:D 0
58 *838:44 *874:44 0
59 *838:54 *2832:D 0.000201508
*RES
1 *3169:X *874:10 6.375 
2 *874:10 *874:20 30.805 
3 *874:20 *874:24 2.45 
4 *874:24 *2832:D 6.565 
5 *874:24 *2944:D 1.6 
6 *874:20 *874:44 4.4 
7 *874:44 *3072:D 2.05 
8 *874:44 *874:53 2.175 
9 *874:53 *2912:D 7.49 
10 *874:53 *3040:D 3.43 
11 *874:10 *2896:D 10.845 
*END

*D_NET *875 0.0110892
*CONN
*I *2831:D I *D sky130_fd_sc_hd__dlxtn_1
*I *2895:D I *D sky130_fd_sc_hd__dlxtn_1
*I *3055:D I *D sky130_fd_sc_hd__dlxtn_1
*I *2863:D I *D sky130_fd_sc_hd__dlxtn_1
*I *2911:D I *D sky130_fd_sc_hd__dlxtn_1
*I *2959:D I *D sky130_fd_sc_hd__dlxtn_1
*I *2975:D I *D sky130_fd_sc_hd__dlxtn_1
*I *2991:D I *D sky130_fd_sc_hd__dlxtn_1
*I *3071:D I *D sky130_fd_sc_hd__dlxtn_1
*I *3007:D I *D sky130_fd_sc_hd__dlxtn_1
*I *3170:X O *D sky130_fd_sc_hd__clkbuf_2
*CAP
1 *2831:D 0
2 *2895:D 0.000224384
3 *3055:D 0
4 *2863:D 3.07736e-05
5 *2911:D 0.000172288
6 *2959:D 0
7 *2975:D 0
8 *2991:D 9.66943e-05
9 *3071:D 0
10 *3007:D 0.0002598
11 *3170:X 0.000271782
12 *875:122 0.000726989
13 *875:103 0.000513046
14 *875:81 0.000272992
15 *875:34 0.000345828
16 *875:30 0.000261787
17 *875:24 0.000183176
18 *875:14 0.000341027
19 *875:12 0.000351933
20 *875:10 0.00032731
21 *2895:D *2520:A2 8.49205e-05
22 *2895:D *911:25 9.27276e-05
23 *2911:D *922:47 4.66826e-05
24 *2991:D *905:10 0.000198753
25 *2991:D *929:58 2.76356e-05
26 *2991:D *936:49 8.23457e-05
27 *3007:D *2462:B1 4.82919e-05
28 *875:10 *892:33 0
29 *875:10 *925:72 0
30 *875:12 *925:72 2.49909e-05
31 *875:14 *925:72 0.000457626
32 *875:24 *2469:A2 1.34503e-05
33 *875:24 *905:20 1.16578e-05
34 *875:24 *905:94 2.05056e-05
35 *875:24 *925:72 1.83847e-05
36 *875:30 *2469:A2 2.11084e-05
37 *875:30 *905:10 0.000112816
38 *875:30 *905:20 4.82919e-05
39 *875:34 *2462:B1 0.000230429
40 *875:81 *892:33 0
41 *875:81 *925:72 5.16348e-05
42 *875:122 *2465:B1 0.000247017
43 *875:122 *2466:B1 4.99619e-05
44 *875:122 *911:25 0.000238562
45 *2465:B2 *2911:D 0
46 *2470:A *875:122 6.55328e-05
47 *2470:C *875:12 6.05513e-05
48 *2470:C *875:103 1.83847e-05
49 *2470:C *875:122 0.000499402
50 *2831:GATE_N *875:122 4.82919e-05
51 *2939:GATE_N *875:122 0.000157551
52 *2948:GATE_N *2911:D 0.000196361
53 *2948:GATE_N *875:81 0.000152127
54 *3007:GATE_N *3007:D 2.33941e-05
55 *3007:GATE_N *875:34 0.000126196
56 *3035:GATE_N *875:10 0.000177382
57 *3055:GATE_N *875:10 9.87459e-05
58 *3071:GATE_N *3007:D 3.95167e-05
59 *3130:A *875:12 0.000188063
60 *3130:A *875:14 0.000884263
61 *3130:A *875:24 4.99619e-05
62 *3130:A *875:103 3.83041e-05
63 *3130:A *875:122 0.000256387
64 *3171:A *875:10 0.000306528
65 *3186:A *875:122 0.000183036
66 *3192:A *875:24 0.000112097
67 *3192:A *875:30 0
68 *3202:A *875:122 2.25075e-05
69 *580:16 *2895:D 3.45679e-05
70 *826:26 *875:122 0.000222134
71 *829:20 *2895:D 0.000173409
72 *829:37 *2895:D 4.43871e-06
73 *830:31 *2895:D 0
74 *832:33 *2991:D 0.000190909
75 *832:33 *875:24 7.7615e-05
76 *832:33 *875:30 0.000158295
77 *834:72 *2863:D 1.56428e-05
*RES
1 *3170:X *875:10 11.57 
2 *875:10 *875:12 1.83 
3 *875:12 *875:14 8.385 
4 *875:14 *875:24 7.3 
5 *875:24 *875:30 4.34 
6 *875:30 *875:34 4.52 
7 *875:34 *3007:D 5.665 
8 *875:34 *3071:D 1.6 
9 *875:30 *2991:D 6.795 
10 *875:24 *2975:D 1.6 
11 *875:14 *2959:D 1.6 
12 *875:12 *875:81 3.89 
13 *875:81 *2911:D 6.795 
14 *875:81 *2863:D 4.05 
15 *875:10 *875:103 0.45 
16 *875:103 *3055:D 1.6 
17 *875:103 *875:122 19.24 
18 *875:122 *2895:D 10.58 
19 *875:122 *2831:D 1.6 
*END

*D_NET *876 0.00516177
*CONN
*I *3039:D I *D sky130_fd_sc_hd__dlxtn_1
*I *2927:D I *D sky130_fd_sc_hd__dlxtn_1
*I *2847:D I *D sky130_fd_sc_hd__dlxtn_1
*I *2943:D I *D sky130_fd_sc_hd__dlxtn_1
*I *2879:D I *D sky130_fd_sc_hd__dlxtn_1
*I *3023:D I *D sky130_fd_sc_hd__dlxtn_1
*I *3171:X O *D sky130_fd_sc_hd__buf_1
*CAP
1 *3039:D 0.00015725
2 *2927:D 0
3 *2847:D 0
4 *2943:D 0
5 *2879:D 0.000121504
6 *3023:D 0
7 *3171:X 0.000144061
8 *876:48 0.000375888
9 *876:41 0.000444334
10 *876:34 0.000225695
11 *876:21 0.000411103
12 *876:10 0.00043366
13 *2879:D *892:33 0.00015486
14 *876:21 *892:33 0.000530016
15 *2464:A1 *3039:D 0.000449395
16 *2464:A1 *876:48 0.000162311
17 *2464:B2 *3039:D 6.54766e-05
18 *2466:B2 *876:41 1.47256e-05
19 *2847:GATE_N *876:41 0.000232111
20 *2932:GATE_N *2879:D 3.64998e-06
21 *2943:GATE_N *876:41 0.000107415
22 *3023:GATE_N *876:10 4.35999e-05
23 *3160:A *876:41 0.000233986
24 *3160:A *876:48 0.000185598
25 *3171:A *876:10 5.83121e-06
26 *812:76 *876:10 3.64998e-06
27 *812:76 *876:21 2.39856e-05
28 *831:18 *2879:D 0
29 *831:18 *876:21 0
30 *834:72 *876:21 0.000390353
31 *837:83 *2879:D 4.66108e-05
32 *864:10 *2879:D 0
33 *864:10 *876:41 0.0001947
*RES
1 *3171:X *876:10 3.805 
2 *876:10 *3023:D 1.6 
3 *876:10 *876:21 9.275 
4 *876:21 *2879:D 5.94 
5 *876:21 *876:34 2 
6 *876:34 *2943:D 1.6 
7 *876:34 *876:41 5.97 
8 *876:41 *2847:D 1.6 
9 *876:41 *876:48 4.245 
10 *876:48 *2927:D 1.6 
11 *876:48 *3039:D 5.845 
*END

*D_NET *877 0.0104754
*CONN
*I *2910:D I *D sky130_fd_sc_hd__dlxtn_1
*I *3022:D I *D sky130_fd_sc_hd__dlxtn_1
*I *3070:D I *D sky130_fd_sc_hd__dlxtn_1
*I *2846:D I *D sky130_fd_sc_hd__dlxtn_1
*I *2958:D I *D sky130_fd_sc_hd__dlxtn_1
*I *2862:D I *D sky130_fd_sc_hd__dlxtn_1
*I *2974:D I *D sky130_fd_sc_hd__dlxtn_1
*I *2878:D I *D sky130_fd_sc_hd__dlxtn_1
*I *2990:D I *D sky130_fd_sc_hd__dlxtn_1
*I *3006:D I *D sky130_fd_sc_hd__dlxtn_1
*I *3172:X O *D sky130_fd_sc_hd__clkbuf_2
*CAP
1 *2910:D 0.000216598
2 *3022:D 0
3 *3070:D 0
4 *2846:D 0
5 *2958:D 0.000100452
6 *2862:D 0
7 *2974:D 9.20187e-05
8 *2878:D 0
9 *2990:D 0
10 *3006:D 0.000114549
11 *3172:X 0.000116039
12 *877:81 0.000256853
13 *877:79 0.000353448
14 *877:68 0.000322087
15 *877:51 0.00029068
16 *877:40 0.000253806
17 *877:38 0.00165271
18 *877:18 0.00172046
19 *877:8 0.000201813
20 *877:6 0.000384204
21 *2910:D *2657:S 0
22 *2910:D *884:71 0
23 *877:6 *2645:S 6.42013e-05
24 *877:8 *2645:S 5.07419e-05
25 *877:18 *2645:A1 0
26 *877:18 *2645:S 1.83847e-05
27 *877:18 *2657:S 0
28 *877:38 *928:63 0
29 *877:68 *2477:B1 8.30853e-06
30 *877:79 *2477:B1 0.000189217
31 *2453:A1 *2910:D 0
32 *2454:A1 *877:6 1.83756e-05
33 *2454:B2 *2910:D 0
34 *2455:B2 *3006:D 2.75145e-05
35 *2455:B2 *877:40 2.49909e-05
36 *2455:B2 *877:51 0.000116165
37 *2455:B2 *877:68 0.000136063
38 *2477:B2 *2974:D 3.90349e-05
39 *2478:A1 *877:68 0.000178075
40 *2478:B2 *2974:D 9.22308e-05
41 *2554:A1 *877:38 0.000200615
42 *2556:B2 *877:38 4.99619e-05
43 *2578:B2 *877:38 4.99619e-05
44 *2846:GATE_N *877:40 4.77757e-05
45 *2846:GATE_N *877:51 0.00015997
46 *2846:GATE_N *877:68 9.50342e-06
47 *2871:D *877:38 4.82919e-05
48 *2873:GATE_N *877:38 8.995e-05
49 *2888:GATE_N *2974:D 0
50 *2958:GATE_N *877:79 4.44946e-05
51 *2999:D *877:38 0.000428764
52 *2999:GATE_N *877:38 0.000241483
53 *3001:D *877:38 9.58678e-06
54 *3006:GATE_N *3006:D 0.000109353
55 *3006:GATE_N *877:40 5.66338e-05
56 *3024:GATE_N *877:18 0.000152123
57 *3024:GATE_N *877:38 2.11921e-05
58 *3070:GATE_N *877:38 0.000349592
59 *811:60 *2910:D 0
60 *816:44 *877:68 8.24254e-05
61 *816:54 *877:38 0.000432776
62 *816:54 *877:68 1.01661e-05
63 *820:38 *877:79 6.63219e-06
64 *833:52 *2958:D 0.000239187
65 *833:52 *877:81 0.000341386
66 *836:67 *877:68 0
67 *836:67 *877:79 0
68 *873:50 *877:18 3.23663e-05
69 *873:50 *877:38 0.000222207
*RES
1 *3172:X *877:6 3.775 
2 *877:6 *877:8 1.14 
3 *877:8 *877:18 7.135 
4 *877:18 *877:38 23.1758 
5 *877:38 *877:40 1.83 
6 *877:40 *3006:D 4.12 
7 *877:40 *877:51 3.89 
8 *877:51 *2990:D 3.6 
9 *877:51 *877:68 5.295 
10 *877:68 *2878:D 3.6 
11 *877:68 *877:79 4.4 
12 *877:79 *877:81 3.21 
13 *877:81 *2974:D 7.49 
14 *877:81 *2862:D 1.6 
15 *877:79 *2958:D 4.24 
16 *877:38 *2846:D 1.6 
17 *877:18 *3070:D 1.6 
18 *877:8 *3022:D 1.6 
19 *877:6 *2910:D 8.615 
*END

*D_NET *878 0.00744801
*CONN
*I *3038:D I *D sky130_fd_sc_hd__dlxtn_1
*I *3054:D I *D sky130_fd_sc_hd__dlxtn_1
*I *2942:D I *D sky130_fd_sc_hd__dlxtn_1
*I *2926:D I *D sky130_fd_sc_hd__dlxtn_1
*I *2894:D I *D sky130_fd_sc_hd__dlxtn_1
*I *2830:D I *D sky130_fd_sc_hd__dlxtn_1
*I *3173:X O *D sky130_fd_sc_hd__buf_1
*CAP
1 *3038:D 0
2 *3054:D 0.000146086
3 *2942:D 0
4 *2926:D 0.0012878
5 *2894:D 1.50923e-05
6 *2830:D 0.000169508
7 *3173:X 0.000195192
8 *878:59 0.000174655
9 *878:38 0.00138627
10 *878:16 0.000331295
11 *878:12 0.000216601
12 *878:10 0.000195192
13 *2830:D *3353:A 0
14 *2830:D *884:38 0.000163204
15 *2894:D *881:79 1.83847e-05
16 *2926:D *2453:B1 1.5186e-05
17 *2926:D *2454:A2 6.8725e-06
18 *2926:D *2552:A2 0.00046681
19 *2926:D *918:55 0.000561733
20 *3054:D *894:69 3.03684e-05
21 *878:10 *2460:A2 4.29107e-05
22 *878:16 *3353:A 0
23 *2452:B2 *878:10 4.60736e-05
24 *2454:B2 *2926:D 1.34967e-05
25 *2460:B1 *878:38 0
26 *2460:B2 *878:10 4.80285e-05
27 *2460:B2 *878:16 0
28 *2552:B2 *2926:D 0.000233781
29 *2830:GATE_N *2830:D 5.34747e-05
30 *3038:GATE_N *878:10 0
31 *3159:A *2830:D 0
32 *3159:A *878:16 0
33 *3173:A *878:10 0.000637969
34 *376:10 *2830:D 0
35 *521:18 *878:10 8.65905e-05
36 *809:44 *3054:D 0
37 *809:44 *878:10 0.000136598
38 *809:44 *878:38 0
39 *809:44 *878:59 0
40 *825:51 *2926:D 0.000176268
41 *829:100 *3054:D 0.00019175
42 *829:100 *878:16 0.000179599
43 *829:100 *878:38 0.000104306
44 *829:100 *878:59 4.27167e-05
45 *858:15 *3054:D 4.66742e-05
46 *874:20 *2894:D 2.75229e-05
*RES
1 *3173:X *878:10 8.98 
2 *878:10 *878:12 2 
3 *878:12 *878:16 2.85 
4 *878:16 *2830:D 6.975 
5 *878:16 *2894:D 4.05 
6 *878:12 *878:38 1.38 
7 *878:38 *2926:D 21.81 
8 *878:38 *878:59 0.615 
9 *878:59 *2942:D 3.6 
10 *878:59 *3054:D 6.795 
11 *878:10 *3038:D 1.6 
*END

*D_NET *879 0.000444833
*CONN
*I *2751:A1 I *D sky130_fd_sc_hd__a221o_1
*I *3251:X O *D sky130_fd_sc_hd__clkbuf_1
*CAP
1 *2751:A1 0.000117952
2 *3251:X 0.000117952
3 *2751:A1 *2753:B1 2.55587e-05
4 *2751:A1 *882:44 3.67779e-05
5 *2751:B1 *2751:A1 3.96263e-05
6 *2759:B1 *2751:A1 4.82919e-05
7 *2760:A2 *2751:A1 0
8 *505:57 *2751:A1 5.86739e-05
*RES
1 *3251:X *2751:A1 9.12 
*END

*D_NET *880 0.00935232
*CONN
*I *2797:GATE_N I *D sky130_fd_sc_hd__dlxtn_1
*I *2794:GATE_N I *D sky130_fd_sc_hd__dlxtn_1
*I *2801:GATE_N I *D sky130_fd_sc_hd__dlxtn_1
*I *2799:GATE_N I *D sky130_fd_sc_hd__dlxtn_1
*I *2791:GATE_N I *D sky130_fd_sc_hd__dlxtn_1
*I *2802:GATE_N I *D sky130_fd_sc_hd__dlxtn_1
*I *2798:GATE_N I *D sky130_fd_sc_hd__dlxtn_1
*I *2793:GATE_N I *D sky130_fd_sc_hd__dlxtn_1
*I *2806:GATE_N I *D sky130_fd_sc_hd__dlxtn_1
*I *2800:GATE_N I *D sky130_fd_sc_hd__dlxtn_1
*I *3174:X O *D sky130_fd_sc_hd__clkbuf_2
*CAP
1 *2797:GATE_N 6.21421e-05
2 *2794:GATE_N 0.000115334
3 *2801:GATE_N 8.82211e-05
4 *2799:GATE_N 0.000177412
5 *2791:GATE_N 6.58444e-05
6 *2802:GATE_N 8.62219e-05
7 *2798:GATE_N 1.58418e-05
8 *2793:GATE_N 4.56102e-05
9 *2806:GATE_N 1.88809e-05
10 *2800:GATE_N 4.7007e-05
11 *3174:X 0.000119235
12 *880:99 0.000360637
13 *880:86 0.00040483
14 *880:62 0.000411029
15 *880:56 0.0003293
16 *880:54 0.000187639
17 *880:38 0.000157447
18 *880:32 0.000354382
19 *880:23 0.000505641
20 *880:12 0.000520112
21 *2794:GATE_N *888:34 0.000185405
22 *2794:GATE_N *888:36 0.000178255
23 *2797:GATE_N *2638:A 2.26862e-05
24 *2797:GATE_N *3329:A 1.33293e-05
25 *2797:GATE_N *888:42 0.000152328
26 *2799:GATE_N *3352:A 2.49909e-05
27 *2800:GATE_N *2473:B1 2.8185e-05
28 *2806:GATE_N *888:78 5.4155e-06
29 *880:23 *2473:B1 0.000153778
30 *880:23 *3356:A 0.000124895
31 *880:32 *888:78 6.11003e-05
32 *880:38 *2649:A0 9.14354e-05
33 *880:54 *888:42 4.66108e-05
34 *880:54 *888:78 0.000176655
35 *880:62 *2627:A 0
36 *880:62 *888:42 2.92496e-05
37 *880:86 *888:36 0.000227543
38 *880:86 *888:42 2.07184e-05
39 *880:99 *888:36 0.000664303
40 PWDATA[5] *2802:GATE_N 4.1977e-05
41 PWDATA[5] *880:62 0
42 PWDATA[5] *880:86 0
43 rdata[11] *2797:GATE_N 4.9253e-06
44 rdata[11] *2799:GATE_N 2.50602e-05
45 rdata[3] *2802:GATE_N 5.38292e-05
46 *2627:B *2791:GATE_N 5.61451e-05
47 *2627:B *880:62 8.65905e-05
48 *2629:B *880:32 0.000161529
49 *2629:B *880:54 8.40269e-05
50 *2791:D *2791:GATE_N 1.19928e-05
51 *2793:D *880:32 4.66108e-05
52 *2797:D *2794:GATE_N 0.000361306
53 *2797:D *880:86 0.000229203
54 *2797:D *880:99 0.000671175
55 *2798:D *880:62 0
56 *2801:D *2801:GATE_N 8.8266e-05
57 *3079:D *2800:GATE_N 0
58 *3079:GATE_N *2800:GATE_N 6.25794e-06
59 *3157:A *880:12 9.30787e-05
60 *3313:A *880:38 1.01276e-05
61 *3313:A *880:54 8.49205e-05
62 *3313:A *880:62 0
63 *3314:A *2802:GATE_N 0.000118513
64 *3314:A *880:62 4.82863e-05
65 *3315:A *880:38 0
66 *3316:A *880:23 8.65961e-05
67 *521:18 *2793:GATE_N 0.000124895
68 *521:18 *2798:GATE_N 4.82919e-05
69 *521:18 *880:12 8.57024e-05
70 *521:18 *880:62 8.96017e-05
71 *551:40 *2794:GATE_N 2.49909e-05
72 *791:18 *2802:GATE_N 5.05437e-05
73 *874:20 *2800:GATE_N 4.0092e-05
74 *874:20 *880:23 0.000238137
*RES
1 *3174:X *880:12 7.52 
2 *880:12 *2800:GATE_N 2.74375 
3 *880:12 *880:23 7.695 
4 *880:23 *2806:GATE_N 1.96 
5 *880:23 *880:32 2.52 
6 *880:32 *880:38 5.635 
7 *880:38 *2793:GATE_N 2.74 
8 *880:38 *2798:GATE_N 2.05 
9 *880:32 *880:54 2.865 
10 *880:54 *880:56 2 
11 *880:56 *880:62 6.32 
12 *880:62 *2802:GATE_N 8.03 
13 *880:62 *2791:GATE_N 2.755 
14 *880:56 *880:86 2.91 
15 *880:86 *2799:GATE_N 6.135 
16 *880:86 *880:99 7.755 
17 *880:99 *2801:GATE_N 5.085 
18 *880:99 *2794:GATE_N 8.235 
19 *880:54 *2797:GATE_N 3.445 
*END

*D_NET *881 0.0328358
*CONN
*I *2795:GATE_N I *D sky130_fd_sc_hd__dlxtn_1
*I *2805:GATE_N I *D sky130_fd_sc_hd__dlxtn_1
*I *2804:GATE_N I *D sky130_fd_sc_hd__dlxtn_1
*I *2796:GATE_N I *D sky130_fd_sc_hd__dlxtn_1
*I *2792:GATE_N I *D sky130_fd_sc_hd__dlxtn_1
*I *2803:GATE_N I *D sky130_fd_sc_hd__dlxtn_1
*I *3174:A I *D sky130_fd_sc_hd__clkbuf_2
*I *2678:A I *D sky130_fd_sc_hd__or2_1
*I *3175:X O *D sky130_fd_sc_hd__buf_2
*CAP
1 *2795:GATE_N 0.000108396
2 *2805:GATE_N 0.000927373
3 *2804:GATE_N 1.85694e-05
4 *2796:GATE_N 0
5 *2792:GATE_N 1.91143e-05
6 *2803:GATE_N 0
7 *3174:A 0.000257747
8 *2678:A 0.000384059
9 *3175:X 0
10 *881:144 0.00156984
11 *881:131 0.000807677
12 *881:120 0.00154665
13 *881:79 0.00107104
14 *881:57 0.00288604
15 *881:39 0.00282497
16 *881:31 0.00294017
17 *881:4 0.00129951
18 *2678:A *3104:A 9.0336e-05
19 *2805:GATE_N *2538:A 0.000680861
20 *2805:GATE_N *885:26 0.000490544
21 *2805:GATE_N *885:32 0.000233918
22 *2805:GATE_N *886:30 8.09021e-06
23 *2805:GATE_N *887:22 0.000328233
24 *2805:GATE_N *887:28 0.0005225
25 *2805:GATE_N *887:30 0.000928173
26 *2805:GATE_N *1041:16 0
27 *3174:A *2473:B1 0.000162074
28 *881:31 *2495:B1 0
29 *881:31 *2594:B1 0
30 *881:31 *2783:RESET_B 0
31 *881:31 *2784:RESET_B 0
32 *881:31 *889:56 0
33 *881:31 *919:29 0
34 *881:31 *931:14 0.000460209
35 *881:39 *2509:A2 0
36 *881:39 *895:40 0.000174517
37 *881:39 *919:29 1.79536e-05
38 *881:39 *919:35 0.000248752
39 *881:39 *933:10 4.49872e-05
40 *881:57 *2464:A2 0.000169335
41 *881:57 *2484:B1 6.1994e-05
42 *881:57 *2486:B1 0
43 *881:57 *2509:A2 0
44 *881:57 *2541:A2 0.000118078
45 *881:57 *2608:A2 4.19967e-05
46 *881:57 *898:93 1.52776e-05
47 *881:57 *898:95 5.42196e-05
48 *881:57 *919:55 0.000136178
49 *881:79 *2473:B1 1.37328e-05
50 *881:79 *2652:A0 0.000308719
51 *881:79 *3353:A 0.000312787
52 *881:120 *889:56 0.000461441
53 *881:144 *885:26 0.000283515
54 *881:144 *887:22 0.000409819
55 *2463:A1 *881:57 2.64352e-05
56 *2463:B2 *881:57 0.000100695
57 *2464:B2 *881:57 0.000158965
58 *2472:B *2792:GATE_N 8.65961e-05
59 *2481:A *881:57 1.92979e-05
60 *2484:A1 *881:57 0.00016092
61 *2485:C1 *881:57 0.000154239
62 *2495:A1 *881:31 9.57611e-05
63 *2503:C *881:39 0.000146804
64 *2539:A1 *881:57 7.63125e-05
65 *2539:B2 *881:57 0.000117348
66 *2540:A1 *881:57 0.000137104
67 *2541:A1 *881:57 0
68 *2545:C *881:57 0.000179045
69 *2594:A1 *881:31 0
70 *2641:B *2805:GATE_N 0.00035825
71 *2761:A3 *2678:A 0.00015639
72 *2761:A3 *881:31 7.40446e-05
73 *2763:A1 *881:31 0.000191879
74 *2763:A2 *881:31 1.88602e-05
75 *2764:A *2678:A 4.53578e-05
76 *2764:D *881:31 2.40298e-05
77 *2792:D *881:39 0.000104287
78 *2792:D *881:57 9.50342e-06
79 *2796:D *2804:GATE_N 9.53428e-06
80 *2796:D *881:131 0.00033171
81 *2796:D *881:144 0.000141894
82 *2803:D *881:79 9.49203e-05
83 *2821:D *2805:GATE_N 0.000117825
84 *2894:D *881:79 1.83847e-05
85 *2934:GATE_N *881:57 2.53191e-06
86 *3031:GATE_N *3174:A 0.000154809
87 *3039:GATE_N *2792:GATE_N 3.45679e-05
88 *3079:D *3174:A 8.23457e-05
89 *3137:A *881:39 0.000100797
90 *3140:A *2805:GATE_N 2.49909e-05
91 *3157:A *3174:A 0
92 *3159:A *881:57 0.00198653
93 *3188:A *881:39 0.000526815
94 *3188:A *881:57 9.65299e-05
95 *3205:A *881:39 6.96106e-05
96 *3294:A *3174:A 4.82919e-05
97 *391:12 *881:79 0.000111695
98 *433:16 *881:144 0.000109888
99 *521:18 *3174:A 0.000163204
100 *672:84 *881:31 0
101 *801:14 *2678:A 4.35432e-05
102 *807:18 *881:57 7.06865e-05
103 *812:28 *881:120 2.68717e-05
104 *822:39 *881:57 0
105 *828:60 *881:120 3.64998e-06
106 *829:20 *881:31 0.00037832
107 *829:20 *881:120 0.00056888
108 *829:100 *881:57 0
109 *829:113 *881:79 0.000201503
110 *830:31 *881:57 0.000105443
111 *842:12 *2805:GATE_N 5.83121e-06
112 *843:14 *2805:GATE_N 0.000605921
113 *843:16 *2805:GATE_N 8.60912e-05
114 *843:20 *2805:GATE_N 3.13459e-05
115 *856:60 *881:57 0
116 *869:10 *881:31 7.89767e-05
117 *869:29 *881:39 0
118 *869:33 *881:39 0
119 *870:85 *881:31 0.00013521
120 *874:20 *3174:A 0.000136829
121 *874:20 *881:79 0.000248254
*RES
1 *3175:X *881:4 1.6 
2 *881:4 *2678:A 10.625 
3 *881:4 *881:31 17.4849 
4 *881:31 *881:39 17.6075 
5 *881:39 *881:57 49.825 
6 *881:57 *881:79 18.2 
7 *881:79 *3174:A 12.2 
8 *881:79 *2803:GATE_N 1.6 
9 *881:39 *2792:GATE_N 4.395 
10 *881:31 *881:120 5.97488 
11 *881:120 *2796:GATE_N 1.6 
12 *881:120 *881:131 4.69875 
13 *881:131 *2804:GATE_N 1.96 
14 *881:131 *881:144 13.355 
15 *881:144 *2805:GATE_N 40.435 
16 *881:144 *2795:GATE_N 5.085 
*END

*D_NET *882 0.00942623
*CONN
*I *2718:A2 I *D sky130_fd_sc_hd__a221o_1
*I *2659:S I *D sky130_fd_sc_hd__mux2_1
*I *3361:A I *D sky130_fd_sc_hd__dlygate4sd1_1
*I *2431:A I *D sky130_fd_sc_hd__nor2_4
*I *2751:A2 I *D sky130_fd_sc_hd__a221o_1
*I *2710:A2 I *D sky130_fd_sc_hd__a221o_1
*I *3176:X O *D sky130_fd_sc_hd__buf_8
*CAP
1 *2718:A2 0.000669141
2 *2659:S 0.000241327
3 *3361:A 8.08126e-05
4 *2431:A 0
5 *2751:A2 3.41088e-05
6 *2710:A2 0
7 *3176:X 9.68008e-05
8 *882:52 0.000269496
9 *882:44 0.000824738
10 *882:25 0.00071582
11 *882:19 0.00123128
12 *882:8 0.000371953
13 *2718:A2 *2788:RESET_B 2.2592e-05
14 *2751:A2 *2751:B2 2.32738e-05
15 *882:8 *979:10 0.00038909
16 *882:8 *1047:111 8.65905e-05
17 *882:19 *3348:A 0.000157005
18 *882:19 *979:10 6.7836e-05
19 *882:19 *1050:37 9.57706e-05
20 *882:25 *2751:B2 6.43097e-05
21 *882:25 *891:127 1.7306e-05
22 *882:25 *1050:37 1.49369e-05
23 *882:44 *2751:B2 1.25708e-05
24 *882:52 *3322:A 4.219e-05
25 PADDR[2] *3361:A 0.000153482
26 rdata[13] *882:19 5.30242e-05
27 rdata[5] *882:8 2.08914e-05
28 *2444:A *2659:S 0.000193801
29 *2445:B *882:52 9.84146e-05
30 *2446:A *2659:S 0.000181249
31 *2446:B *2659:S 9.02174e-05
32 *2710:B1 *882:19 0
33 *2710:B2 *2718:A2 0
34 *2710:B2 *882:8 1.20741e-05
35 *2710:C1 *882:8 6.52265e-05
36 *2718:B1 *2718:A2 0.0004356
37 *2718:C1 *2718:A2 9.64638e-06
38 *2750:A *882:25 5.30352e-05
39 *2751:A1 *882:44 3.67779e-05
40 *2751:C1 *882:25 3.96284e-05
41 *2755:A2_N *882:44 0.000219167
42 *2755:A2_N *882:52 9.77943e-05
43 *2755:B1 *882:44 0.000177989
44 *2756:B *2659:S 0.000288243
45 *2757:B1 *882:52 2.15594e-05
46 *2758:B *3361:A 0.000119762
47 *2758:B *882:52 2.16306e-05
48 *2760:A2 *882:44 0.000128344
49 *2823:D *882:52 0.000130106
50 *3178:A *882:52 0.00019629
51 *3239:A *882:19 6.55328e-05
52 *3261:A *882:8 6.64781e-05
53 *3261:A *882:19 0.000161117
54 *3278:A *2718:A2 0
55 *115:16 *2751:A2 0
56 *116:10 *882:44 4.5783e-05
57 *116:10 *882:52 4.43871e-06
58 *505:10 *3361:A 0.000384439
59 *505:38 *882:44 0
60 *505:57 *882:44 7.21296e-06
61 *505:61 *2718:A2 0.000134694
62 *674:18 *2718:A2 4.4123e-05
63 *786:47 *2718:A2 4.01548e-05
64 *788:16 *882:19 7.74312e-05
65 *788:16 *882:25 2.19277e-05
*RES
1 *3176:X *882:8 5.53375 
2 *882:8 *2710:A2 1.6 
3 *882:8 *882:19 9.56375 
4 *882:19 *882:25 5.8625 
5 *882:25 *2751:A2 2.33875 
6 *882:25 *882:44 10.595 
7 *882:44 *882:52 7.25 
8 *882:52 *2431:A 1.6 
9 *882:52 *3361:A 5.155 
10 *882:44 *2659:S 9.24 
11 *882:19 *2718:A2 6.9762 
*END

*D_NET *883 0.00589691
*CONN
*I *3364:A I *D sky130_fd_sc_hd__dlygate4sd1_1
*I *3365:A I *D sky130_fd_sc_hd__dlygate4sd1_1
*I *2730:A2 I *D sky130_fd_sc_hd__o22a_1
*I *2726:A I *D sky130_fd_sc_hd__nand2_1
*I *3358:X O *D sky130_fd_sc_hd__dlygate4sd1_1
*CAP
1 *3364:A 0.000137982
2 *3365:A 0.0003483
3 *2730:A2 0
4 *2726:A 0.000190132
5 *3358:X 4.13405e-05
6 *883:32 0.000611285
7 *883:10 0.00101219
8 *883:6 0.000988397
9 *2726:A *2728:B2 0
10 *2726:A *3347:A 0
11 *3364:A *957:77 0.000167904
12 *3364:A *968:24 7.9642e-06
13 *3364:A *1012:16 6.53193e-05
14 *3365:A *2432:B 2.49909e-05
15 *3365:A *2721:A 9.10527e-05
16 *3365:A *2734:B1 8.09753e-05
17 *3365:A *2738:C 7.44453e-05
18 *3365:A *957:54 9.80943e-06
19 *3365:A *968:40 2.30292e-05
20 *3365:A *981:18 1.1561e-05
21 *883:10 *2704:A1_N 2.69133e-05
22 *883:10 *2745:A1 8.22234e-06
23 *883:32 *2704:A1_N 0
24 *883:32 *957:77 2.59981e-05
25 *883:32 *1012:16 2.75538e-05
26 *883:32 *1047:8 0
27 *2390:B *2726:A 8.53113e-06
28 *2704:B2 *883:6 3.45679e-05
29 *2704:B2 *883:10 8.75658e-05
30 *2704:B2 *883:32 6.28765e-05
31 *2705:A2 *3365:A 0.000316489
32 *2721:B *3365:A 0.000122325
33 *2723:B1 *3365:A 0.000309618
34 *2740:A2 *883:10 0.00043044
35 *2741:B1 *2726:A 4.35348e-05
36 *2741:B1 *883:10 6.97202e-05
37 *2747:B1 *2726:A 8.65961e-05
38 *3358:A *883:10 2.75145e-05
39 *3358:A *883:32 1.70935e-05
40 *506:10 *3365:A 0.000117832
41 *718:25 *2726:A 5.53249e-06
42 *718:47 *2726:A 7.1866e-05
43 *786:10 *3364:A 8.71001e-05
44 *786:10 *883:32 2.23407e-05
*RES
1 *3358:X *883:6 2.395 
2 *883:6 *883:10 10.815 
3 *883:10 *2726:A 8.72 
4 *883:10 *2730:A2 1.6 
5 *883:6 *883:32 4.655 
6 *883:32 *3365:A 16.36 
7 *883:32 *3364:A 7.53 
*END

*D_NET *884 0.0189833
*CONN
*I *2649:S I *D sky130_fd_sc_hd__mux2_1
*I *2651:S I *D sky130_fd_sc_hd__mux2_1
*I *2652:S I *D sky130_fd_sc_hd__mux2_1
*I *2643:S I *D sky130_fd_sc_hd__mux2_1
*I *2650:S I *D sky130_fd_sc_hd__mux2_1
*I *2654:S I *D sky130_fd_sc_hd__mux2_1
*I *2653:S I *D sky130_fd_sc_hd__mux2_1
*I *2645:S I *D sky130_fd_sc_hd__mux2_1
*I *2657:S I *D sky130_fd_sc_hd__mux2_1
*I *2646:S I *D sky130_fd_sc_hd__mux2_1
*I *3177:X O *D sky130_fd_sc_hd__clkbuf_4
*CAP
1 *2649:S 0.000104604
2 *2651:S 0
3 *2652:S 0.000100755
4 *2643:S 0.000131116
5 *2650:S 0
6 *2654:S 1.77753e-05
7 *2653:S 0
8 *2645:S 0.000553728
9 *2657:S 0.000143701
10 *2646:S 0
11 *3177:X 0
12 *884:109 0.000183481
13 *884:71 0.000802266
14 *884:65 0.000868889
15 *884:57 0.000970127
16 *884:44 0.000466978
17 *884:38 0.000608272
18 *884:34 0.000918912
19 *884:24 0.000824109
20 *884:20 0.00204215
21 *884:4 0.00186358
22 *2643:S *2650:A0 8.09021e-06
23 *2643:S *3353:A 0
24 *2645:S *2645:A0 3.07153e-05
25 *2649:S *2649:A0 2.68526e-05
26 *2649:S *885:36 4.49498e-05
27 *2652:S *3353:A 0
28 *2657:S *2653:A1 0.000133465
29 *884:20 *2473:B1 0
30 *884:20 *2547:A2 0.000656688
31 *884:20 *2658:A0 0.000929875
32 *884:20 *3356:A 0
33 *884:20 *888:86 0.000185398
34 *884:24 *2658:A0 0.000806673
35 *884:34 *2651:A0 9.07709e-05
36 *884:34 *2655:A0 0.000356395
37 *884:34 *3353:A 0
38 *884:65 *2653:A1 2.49909e-05
39 *884:65 *2654:A1 0.000193806
40 *884:71 *2653:A1 5.92257e-05
41 *2459:A *884:65 5.97785e-05
42 *2459:A *884:71 4.82919e-05
43 *2474:A1 *884:20 4.80085e-05
44 *2474:C1 *884:20 0.000398421
45 *2476:C1 *884:44 3.31204e-05
46 *2476:C1 *884:57 6.32676e-05
47 *2547:B2 *884:20 0.000141606
48 *2548:B2 *884:20 9.68787e-05
49 *2635:B *2649:S 0.000118513
50 *2642:B *884:20 0
51 *2646:A1 *884:44 9.57611e-05
52 *2648:A1 *884:20 0.000212659
53 *2649:A1 *2649:S 4.82863e-05
54 *2650:A1 *2643:S 6.55328e-05
55 *2651:A1 *884:24 0.00109396
56 *2652:A1 *2652:S 6.14445e-05
57 *2652:A1 *884:34 0.0001364
58 *2793:D *884:20 0.000112685
59 *2806:D *884:20 5.92849e-05
60 *2830:D *884:38 0.000163204
61 *2830:GATE_N *884:38 8.57226e-05
62 *2830:GATE_N *884:109 4.00541e-06
63 *2840:D *884:20 8.76986e-05
64 *2910:D *2657:S 0
65 *2910:D *884:71 0
66 *2910:GATE_N *884:65 3.07961e-05
67 *3047:GATE_N *884:57 4.57347e-05
68 *3151:A *884:65 4.66108e-05
69 *3157:A *884:24 8.8266e-05
70 *3159:A *884:57 6.59587e-06
71 *3169:A *884:57 6.83659e-05
72 *3169:A *884:65 0.000155271
73 *3281:A *2643:S 9.50342e-06
74 *3284:A *884:34 4.82919e-05
75 *3288:A *884:24 3.90495e-05
76 *3288:A *884:34 4.82919e-05
77 *3296:A *884:34 4.82919e-05
78 *3298:A *884:34 0.0001249
79 *3309:A *884:20 8.23431e-05
80 *376:10 *884:44 4.51323e-05
81 *377:12 *884:65 4.99619e-05
82 *382:10 *884:20 0.000208891
83 *521:18 *2652:S 0
84 *811:60 *2645:S 4.80182e-05
85 *838:40 *884:20 0
86 *838:44 *884:20 0
87 *874:10 *884:44 2.23922e-05
88 *874:10 *884:57 0.000198737
89 *874:20 *884:44 5.16348e-05
90 *877:6 *2645:S 6.42013e-05
91 *877:8 *2645:S 5.07419e-05
92 *877:18 *2645:S 1.83847e-05
93 *877:18 *2657:S 0
*RES
1 *3177:X *884:4 1.6 
2 *884:4 *884:20 42.43 
3 *884:20 *884:24 11.16 
4 *884:24 *884:34 13.34 
5 *884:34 *884:38 6.935 
6 *884:38 *884:44 6.755 
7 *884:44 *2646:S 3.6 
8 *884:44 *884:57 6.155 
9 *884:57 *884:65 10.5 
10 *884:65 *884:71 3.83 
11 *884:71 *2657:S 6.51 
12 *884:71 *2645:S 10.53 
13 *884:65 *2653:S 1.6 
14 *884:57 *2654:S 1.96 
15 *884:38 *884:109 1.17 
16 *884:109 *2650:S 1.6 
17 *884:109 *2643:S 7.94 
18 *884:34 *2652:S 5.49 
19 *884:24 *2651:S 1.6 
20 *884:4 *2649:S 8.12 
*END

*D_NET *885 0.0292689
*CONN
*I *2389:B I *D sky130_fd_sc_hd__nand2_1
*I *2656:S I *D sky130_fd_sc_hd__mux2_1
*I *2647:S I *D sky130_fd_sc_hd__mux2_1
*I *2644:S I *D sky130_fd_sc_hd__mux2_1
*I *2439:A I *D sky130_fd_sc_hd__or2_1
*I *2648:S I *D sky130_fd_sc_hd__mux2_1
*I *3177:A I *D sky130_fd_sc_hd__clkbuf_4
*I *2658:S I *D sky130_fd_sc_hd__mux2_1
*I *2655:S I *D sky130_fd_sc_hd__mux2_1
*I *3178:X O *D sky130_fd_sc_hd__clkbuf_4
*CAP
1 *2389:B 5.51139e-05
2 *2656:S 2.08829e-05
3 *2647:S 5.38872e-05
4 *2644:S 0
5 *2439:A 0
6 *2648:S 0.000352455
7 *3177:A 0
8 *2658:S 0
9 *2655:S 0.00171546
10 *3178:X 3.83098e-05
11 *885:126 0.000182116
12 *885:115 0.00186108
13 *885:97 0.00357656
14 *885:36 0.00202341
15 *885:32 0.00131792
16 *885:26 0.00195092
17 *885:14 0.000952332
18 *885:8 0.00216985
19 *2389:B *931:34 4.82863e-05
20 *2647:S *2647:A0 0.000119756
21 *2647:S *992:16 0.000111892
22 *2655:S *2561:B1 0.000148611
23 *2655:S *2655:A1 4.40253e-05
24 *2655:S *2658:A0 0.000143109
25 *2655:S *2658:A1 2.75229e-05
26 *2655:S *916:111 0.000141483
27 *2655:S *916:115 0.000137571
28 *2655:S *932:49 1.90662e-05
29 *2656:S *2647:A0 0.000114024
30 *2656:S *992:16 7.35813e-05
31 *885:14 *2661:A0 0
32 *885:14 *982:8 0.000160635
33 *885:26 *1050:10 3.83902e-05
34 *885:32 *2515:A2 0
35 *885:32 *887:28 0
36 *885:32 *887:30 0
37 *885:32 *932:14 0
38 *885:32 *962:60 0
39 *885:36 *2649:A0 5.00612e-05
40 *885:36 *888:19 0.000538867
41 *885:97 *887:99 0.00031168
42 *885:97 *887:105 0.000574903
43 *885:115 *2644:A1 5.53249e-06
44 *885:115 *887:105 0.00029696
45 *885:115 *955:24 0
46 *885:115 *955:26 0
47 *885:115 *955:28 0
48 *885:115 *955:30 0
49 *885:126 *2644:A0 0.000137571
50 *885:126 *2644:A1 3.13381e-05
51 *2389:A *2389:B 2.99518e-06
52 *2516:A *2648:S 1.49498e-05
53 *2516:A *885:26 0.000108281
54 *2516:B *2648:S 4.82919e-05
55 *2516:B *885:26 0.000248544
56 *2516:B *885:32 1.52184e-05
57 *2526:A1 *885:32 0
58 *2529:B2 *2655:S 8.51589e-06
59 *2561:B2 *2655:S 7.20038e-05
60 *2632:B *885:26 0.000103974
61 *2633:B *885:32 4.18603e-06
62 *2633:B *885:36 6.5265e-05
63 *2635:B *885:32 0
64 *2635:B *885:36 0
65 *2647:A1 *2647:S 4.99619e-05
66 *2649:S *885:36 4.49498e-05
67 *2676:B *885:97 0.000184394
68 *2685:A *2389:B 9.68083e-06
69 *2697:A *885:115 5.39156e-06
70 *2701:A *885:115 0.000120149
71 *2748:B *885:26 0.000335071
72 *2758:B *885:8 0.000101789
73 *2758:B *885:14 1.7635e-05
74 *2797:D *885:36 0.000409921
75 *2805:GATE_N *885:26 0.000490544
76 *2805:GATE_N *885:32 0.000233918
77 *2812:D *2648:S 4.82863e-05
78 *2823:D *885:8 9.21507e-05
79 *2823:D *885:14 0.000191742
80 *2829:GATE_N *885:115 4.82863e-05
81 *2936:GATE_N *2655:S 2.88598e-05
82 *3093:D *885:115 0.000355005
83 *3161:A *885:32 0
84 *3162:A *2648:S 0.000237024
85 *3163:A *2648:S 0.00014781
86 *3165:A *885:115 0
87 *3165:A *885:126 0
88 *3178:A *885:14 0.00014288
89 *3178:A *885:26 5.13397e-05
90 *3214:A *885:32 0
91 *3228:A *885:115 3.09179e-05
92 *382:10 *2655:S 9.14035e-05
93 *383:10 *885:115 0.000633183
94 *433:10 *885:26 0.000300212
95 *433:16 *885:26 0.000410799
96 *503:16 *885:97 0.000959216
97 *510:46 *885:115 0.000195475
98 *551:40 *2655:S 6.53549e-05
99 *581:10 *885:32 0.000118951
100 *661:26 *885:32 0.000276232
101 *671:26 *885:36 0.000138242
102 *738:12 *885:26 0
103 *751:16 *885:115 1.93765e-05
104 *801:14 *885:115 1.79483e-05
105 *868:62 *885:97 0.00156215
106 *868:62 *885:115 0.000143103
107 *868:70 *885:115 0.000438633
108 *881:144 *885:26 0.000283515
*RES
1 *3178:X *885:8 4.8525 
2 *885:8 *885:14 9.8375 
3 *885:14 *885:26 21.32 
4 *885:26 *885:32 19.275 
5 *885:32 *885:36 12.305 
6 *885:36 *2655:S 28.94 
7 *885:36 *2658:S 1.6 
8 *885:32 *3177:A 3.6 
9 *885:26 *2648:S 10.515 
10 *885:14 *2439:A 1.6 
11 *885:8 *885:97 5.66547 
12 *885:97 *885:115 31.7976 
13 *885:115 *2644:S 3.6 
14 *885:115 *885:126 4.4 
15 *885:126 *2647:S 3.43 
16 *885:126 *2656:S 2.74 
17 *885:97 *2389:B 5.0375 
*END

*D_NET *886 0.00870326
*CONN
*I *2527:A I *D sky130_fd_sc_hd__nor2_1
*I *2615:A I *D sky130_fd_sc_hd__nor2_1
*I *2494:A I *D sky130_fd_sc_hd__nor2_1
*I *2626:A I *D sky130_fd_sc_hd__nor2_1
*I *2593:A I *D sky130_fd_sc_hd__nor2_1
*I *2571:A I *D sky130_fd_sc_hd__nor2_1
*I *2582:A I *D sky130_fd_sc_hd__nor2_1
*I *2560:A I *D sky130_fd_sc_hd__nor2_1
*I *2483:A I *D sky130_fd_sc_hd__nor2_1
*I *2461:A I *D sky130_fd_sc_hd__nor2_1
*I *3179:X O *D sky130_fd_sc_hd__buf_2
*CAP
1 *2527:A 0
2 *2615:A 1.30666e-05
3 *2494:A 3.15103e-05
4 *2626:A 0
5 *2593:A 1.3091e-05
6 *2571:A 0
7 *2582:A 3.07813e-05
8 *2560:A 0
9 *2483:A 2.51931e-05
10 *2461:A 0.000593987
11 *3179:X 0.000164368
12 *886:62 0.000749597
13 *886:54 0.000185237
14 *886:50 0.000378677
15 *886:46 0.000465122
16 *886:44 0.000556202
17 *886:40 0.000546681
18 *886:30 0.00037403
19 *886:18 0.000268108
20 *886:14 0.000252505
21 *2461:A *3352:A 5.85534e-05
22 *2461:A *1041:16 5.87405e-05
23 *2494:A *2641:A 0
24 *2593:A *2655:A1 1.83756e-05
25 *886:14 *2538:A 0.000114492
26 *886:14 *2549:A 2.49909e-05
27 *886:30 *1041:16 0.000185109
28 *886:40 *2538:A 0.000321522
29 *886:40 *2641:A 5.61451e-05
30 *886:44 *2538:A 9.50342e-06
31 *886:44 *1041:16 0
32 *886:46 *1041:16 0.00015001
33 *886:50 *1041:16 0.000201326
34 PWDATA[0] *2461:A 1.88797e-05
35 *2461:B *2461:A 0.000345353
36 *2494:B *2494:A 5.4155e-06
37 *2494:B *886:40 0.00037258
38 *2494:B *886:44 0.000560564
39 *2560:B *886:54 1.76403e-05
40 *2633:B *886:14 9.50342e-06
41 *2638:B *2461:A 3.90266e-05
42 *2638:B *886:50 2.95721e-05
43 *2638:B *886:62 0.000117831
44 *2641:B *886:18 4.66108e-05
45 *2641:B *886:30 0.000252551
46 *2794:D *886:46 4.49498e-05
47 *2797:D *2461:A 0.000116158
48 *2797:D *886:46 0
49 *2797:D *886:50 0
50 *2797:D *886:62 0.000110528
51 *2801:D *886:50 0
52 *2805:D *2494:A 3.66286e-05
53 *2805:D *886:40 8.8266e-05
54 *2805:GATE_N *886:30 8.09021e-06
55 *2809:D *2461:A 4.82919e-05
56 *2809:D *2483:A 4.66108e-05
57 *2810:D *2494:A 1.56428e-05
58 *2810:D *886:40 3.64998e-06
59 *2813:D *886:14 3.64998e-06
60 *2813:GATE_N *886:30 0.000139245
61 *2815:D *886:14 5.35181e-06
62 *2816:D *886:54 2.17931e-05
63 *2816:D *886:62 2.75229e-05
64 *2818:D *2582:A 2.75229e-05
65 *2818:D *886:54 5.83121e-06
66 *2819:D *2593:A 4.82863e-05
67 *2821:D *886:14 5.83121e-06
68 *551:40 *886:44 9.50342e-06
69 *551:40 *886:46 0
70 *581:10 *886:14 0.000117832
71 *631:18 *886:50 1.92979e-05
72 *661:26 *2615:A 5.4155e-06
73 *661:26 *886:14 4.66108e-05
74 *661:26 *886:18 2.28628e-05
75 *842:36 *886:50 1.54318e-05
76 *843:20 *886:30 0
*RES
1 *3179:X *886:14 8.57 
2 *886:14 *886:18 1.5 
3 *886:18 *886:30 8.845 
4 *886:30 *886:40 7.97 
5 *886:40 *886:44 7.62 
6 *886:44 *886:46 4.185 
7 *886:46 *886:50 8.225 
8 *886:50 *886:54 1.155 
9 *886:54 *886:62 5.3 
10 *886:62 *2461:A 13.26 
11 *886:62 *2483:A 4.05 
12 *886:54 *2560:A 1.6 
13 *886:50 *2582:A 2.41 
14 *886:46 *2571:A 3.6 
15 *886:44 *2593:A 4.05 
16 *886:40 *2626:A 3.6 
17 *886:30 *2494:A 2.41 
18 *886:18 *2615:A 1.96 
19 *886:14 *2527:A 1.6 
*END

*D_NET *887 0.0227088
*CONN
*I *2702:B1 I *D sky130_fd_sc_hd__o32a_1
*I *2701:B I *D sky130_fd_sc_hd__nor2_1
*I *2767:B I *D sky130_fd_sc_hd__nand2_1
*I *2671:A2 I *D sky130_fd_sc_hd__o31a_1
*I *2505:A I *D sky130_fd_sc_hd__nor2_1
*I *2604:A I *D sky130_fd_sc_hd__nor2_1
*I *2472:A I *D sky130_fd_sc_hd__nor2_1
*I *3179:A I *D sky130_fd_sc_hd__buf_2
*I *2549:A I *D sky130_fd_sc_hd__nor2_1
*I *2538:A I *D sky130_fd_sc_hd__nor2_1
*I *3180:X O *D sky130_fd_sc_hd__buf_2
*CAP
1 *2702:B1 1.21378e-05
2 *2701:B 0
3 *2767:B 0.000487597
4 *2671:A2 5.21848e-05
5 *2505:A 0.000120461
6 *2604:A 2.38054e-05
7 *2472:A 0
8 *3179:A 0
9 *2549:A 1.79017e-05
10 *2538:A 0.000380114
11 *3180:X 0
12 *887:105 0.00267972
13 *887:99 0.00295261
14 *887:64 0.000144267
15 *887:43 1.79017e-05
16 *887:30 0.000710853
17 *887:28 0.000684413
18 *887:22 0.00149953
19 *887:12 0.00146739
20 *887:6 0.00101771
21 *2538:A *2633:A 0.000139245
22 *2538:A *1041:16 0
23 *2702:B1 *956:26 4.18203e-05
24 *2702:B1 *1048:31 1.7309e-05
25 *2767:B *2766:S 0
26 *2767:B *889:56 4.82863e-05
27 *2767:B *889:62 0.000163204
28 *2767:B *889:75 0
29 *2767:B *955:59 0.00042877
30 *887:12 *2447:C 0.000197298
31 *887:12 *954:40 0.000322625
32 *887:22 *2388:A 2.75229e-05
33 *887:22 *2447:C 0.000206123
34 *887:22 *1050:10 8.58339e-06
35 *887:99 *2679:B 1.16467e-05
36 *887:99 *954:40 1.95013e-05
37 *887:105 *3104:A 0
38 *887:105 *889:75 0
39 *2381:A *887:99 0.000890159
40 *2388:B *887:22 4.92062e-05
41 *2438:A *887:22 8.49205e-05
42 *2438:B *887:22 1.19928e-05
43 *2494:B *2538:A 1.7902e-05
44 *2505:B *2505:A 4.82919e-05
45 *2505:B *887:22 0.000148477
46 *2505:B *887:28 8.53113e-06
47 *2631:B *887:22 1.05827e-05
48 *2633:B *2538:A 4.74383e-05
49 *2671:A1 *2671:A2 1.16578e-05
50 *2671:A1 *887:12 0.000145845
51 *2671:A1 *887:99 9.16887e-05
52 *2671:A3 *2671:A2 6.00864e-05
53 *2671:B1 *2671:A2 4.99619e-05
54 *2671:B1 *887:12 0.000128195
55 *2676:B *2671:A2 3.65344e-05
56 *2701:A *2767:B 5.53249e-06
57 *2701:A *887:105 5.65063e-05
58 *2749:A4 *887:99 4.03822e-05
59 *2764:A *887:105 6.31657e-05
60 *2797:D *2538:A 5.98004e-06
61 *2805:GATE_N *2538:A 0.000680861
62 *2805:GATE_N *887:22 0.000328233
63 *2805:GATE_N *887:28 0.0005225
64 *2805:GATE_N *887:30 0.000928173
65 *2811:D *2505:A 2.75229e-05
66 *2813:D *2538:A 0.000114492
67 *2815:D *2549:A 1.83756e-05
68 *2820:D *2505:A 1.53483e-05
69 *2820:D *2604:A 1.83847e-05
70 *2820:D *887:28 1.26548e-05
71 *2825:D *887:22 0
72 *2828:D *887:22 0.000139238
73 *2829:GATE_N *887:105 5.78379e-05
74 *3140:A *887:28 0.000305266
75 *3165:A *2767:B 0.000136838
76 *3178:A *887:22 8.72029e-05
77 *3180:A *887:12 0
78 *3180:A *887:22 0
79 *431:10 *887:22 0
80 *433:10 *887:22 5.65627e-05
81 *433:16 *887:22 0.000106665
82 *503:16 *887:99 0.00027656
83 *510:46 *887:105 6.3087e-05
84 *581:10 *2538:A 2.68721e-05
85 *581:10 *887:30 0.000240144
86 *671:26 *2538:A 0.000115669
87 *671:26 *887:30 0.000118376
88 *672:21 *887:12 9.23395e-05
89 *751:16 *2767:B 2.96553e-05
90 *751:22 *2767:B 6.14689e-05
91 *843:12 *887:28 5.12017e-06
92 *868:20 *2702:B1 9.50342e-06
93 *868:35 *887:99 0.00013637
94 *881:144 *887:22 0.000409819
95 *885:32 *887:28 0
96 *885:32 *887:30 0
97 *885:97 *887:99 0.00031168
98 *885:97 *887:105 0.000574903
99 *885:115 *887:105 0.00029696
100 *886:14 *2538:A 0.000114492
101 *886:14 *2549:A 2.49909e-05
102 *886:40 *2538:A 0.000321522
103 *886:44 *2538:A 9.50342e-06
*RES
1 *3180:X *887:6 3.6 
2 *887:6 *887:12 7.89 
3 *887:12 *887:22 25.9 
4 *887:22 *887:28 9.165 
5 *887:28 *887:30 10.56 
6 *887:30 *2538:A 14.445 
7 *887:30 *887:43 2 
8 *887:43 *2549:A 2.05 
9 *887:43 *3179:A 1.6 
10 *887:28 *2472:A 3.6 
11 *887:22 *887:64 2 
12 *887:64 *2604:A 2.05 
13 *887:64 *2505:A 3.805 
14 *887:12 *2671:A2 5.1 
15 *887:6 *887:99 3.82983 
16 *887:99 *887:105 8.12783 
17 *887:105 *2767:B 14.085 
18 *887:105 *2701:B 3.6 
19 *887:99 *2702:B1 4.5875 
*END

*D_NET *888 0.010505
*CONN
*I *2633:A I *D sky130_fd_sc_hd__nor2_1
*I *2634:A I *D sky130_fd_sc_hd__nor2_1
*I *2637:A I *D sky130_fd_sc_hd__nor2_1
*I *2629:A I *D sky130_fd_sc_hd__nor2_1
*I *2642:A I *D sky130_fd_sc_hd__nor2_1
*I *2636:A I *D sky130_fd_sc_hd__nor2_1
*I *2638:A I *D sky130_fd_sc_hd__nor2_1
*I *2627:A I *D sky130_fd_sc_hd__nor2_1
*I *2630:A I *D sky130_fd_sc_hd__nor2_1
*I *2635:A I *D sky130_fd_sc_hd__nor2_1
*I *3181:X O *D sky130_fd_sc_hd__buf_2
*CAP
1 *2633:A 0.000171849
2 *2634:A 0
3 *2637:A 4.61528e-05
4 *2629:A 0
5 *2642:A 2.08101e-05
6 *2636:A 0.000250477
7 *2638:A 4.95957e-05
8 *2627:A 0.000102698
9 *2630:A 4.04099e-05
10 *2635:A 0
11 *3181:X 0.000152265
12 *888:86 0.000381599
13 *888:78 0.000372805
14 *888:42 0.000334193
15 *888:36 0.000776147
16 *888:34 0.000519258
17 *888:21 0.000257718
18 *888:19 0.000313041
19 *888:15 0.000428514
20 *888:8 0.000171847
21 *2633:A *2641:A 0.000182931
22 *2638:A *3352:A 4.82863e-05
23 *888:8 *2641:A 6.02216e-05
24 *888:15 *2641:A 4.77719e-05
25 *888:19 *2649:A0 0.000214391
26 *888:21 *2649:A0 1.61461e-05
27 *888:34 *2482:A2 1.86833e-05
28 *888:36 *2482:A2 0.000480056
29 *888:86 *2658:A0 0.000183738
30 PWDATA[5] *2627:A 5.47189e-05
31 rdata[11] *2638:A 1.61831e-05
32 rdata[11] *888:42 7.67415e-06
33 *2473:A1 *2636:A 5.30673e-05
34 *2474:C1 *2636:A 4.99619e-05
35 *2474:C1 *888:86 0.000151541
36 *2494:B *2633:A 7.58604e-05
37 *2538:A *2633:A 0.000139245
38 *2593:B *2630:A 8.40269e-05
39 *2593:B *888:21 1.79536e-05
40 *2629:B *888:78 0.000235568
41 *2634:B *888:19 0.000156871
42 *2634:B *888:21 5.53249e-06
43 *2642:B *888:86 0.00015806
44 *2649:A1 *2633:A 4.00541e-06
45 *2794:GATE_N *888:34 0.000185405
46 *2794:GATE_N *888:36 0.000178255
47 *2797:D *2633:A 6.18754e-05
48 *2797:D *888:19 7.16181e-05
49 *2797:D *888:21 7.8831e-05
50 *2797:D *888:34 9.766e-05
51 *2797:GATE_N *2638:A 2.26862e-05
52 *2797:GATE_N *888:42 0.000152328
53 *2798:D *888:21 7.68063e-05
54 *2798:D *888:34 6.74407e-05
55 *2798:D *888:36 0.000142003
56 *2798:D *888:42 1.94805e-05
57 *2802:D *2638:A 5.98942e-05
58 *2806:GATE_N *888:78 5.4155e-06
59 *2807:GATE_N *2638:A 0
60 *2813:D *2633:A 4.82863e-05
61 *3315:A *888:86 3.96653e-05
62 *621:20 *2637:A 8.23457e-05
63 *621:20 *888:34 0.00013994
64 *671:26 *888:19 8.41703e-06
65 *838:54 *2636:A 0.000164352
66 *880:32 *888:78 6.11003e-05
67 *880:54 *888:42 4.66108e-05
68 *880:54 *888:78 0.000176655
69 *880:62 *2627:A 0
70 *880:62 *888:42 2.92496e-05
71 *880:86 *888:36 0.000227543
72 *880:86 *888:42 2.07184e-05
73 *880:99 *888:36 0.000664303
74 *884:20 *888:86 0.000185398
75 *885:36 *888:19 0.000538867
*RES
1 *3181:X *888:8 3.7 
2 *888:8 *2635:A 1.6 
3 *888:8 *888:15 0.45 
4 *888:15 *888:19 10.265 
5 *888:19 *888:21 2.4 
6 *888:21 *2630:A 4.395 
7 *888:21 *888:34 4.635 
8 *888:34 *888:36 12.345 
9 *888:36 *888:42 4.79 
10 *888:42 *2627:A 6.98 
11 *888:42 *2638:A 3.22 
12 *888:36 *888:78 7.52 
13 *888:78 *888:86 8.32 
14 *888:86 *2636:A 6.55 
15 *888:86 *2642:A 1.96 
16 *888:78 *2629:A 1.6 
17 *888:34 *2637:A 4.395 
18 *888:19 *2634:A 3.6 
19 *888:15 *2633:A 9.875 
*END

*D_NET *889 0.0197831
*CONN
*I *2767:A I *D sky130_fd_sc_hd__nand2_1
*I *3104:A I *D sky130_fd_sc_hd__clkinvlp_2
*I *2442:A I *D sky130_fd_sc_hd__inv_12
*I *2666:S I *D sky130_fd_sc_hd__mux2_1
*I *3181:A I *D sky130_fd_sc_hd__buf_2
*I *2641:A I *D sky130_fd_sc_hd__nor2_1
*I *3182:X O *D sky130_fd_sc_hd__buf_12
*CAP
1 *2767:A 0
2 *3104:A 0.000470069
3 *2442:A 0
4 *2666:S 0
5 *3181:A 0
6 *2641:A 0.000251248
7 *3182:X 0
8 *889:75 0.000791427
9 *889:62 0.000510473
10 *889:56 0.00307571
11 *889:26 0.00238035
12 *889:6 0.00501569
13 *3104:A *972:36 3.77036e-05
14 *889:26 *2515:A2 0.000151645
15 *889:26 *2632:A 1.54862e-05
16 *889:26 *932:14 0.000131533
17 *889:26 *932:22 1.92979e-05
18 *889:56 *2498:A2 0.0001056
19 *889:56 *2594:B1 0
20 *889:56 *2632:A 2.24767e-05
21 *889:56 *899:23 0
22 *889:56 *919:35 0.00039284
23 *2392:A *3104:A 4.82863e-05
24 *2392:C *3104:A 0.000234482
25 *2494:A *2641:A 0
26 *2494:B *2641:A 2.4511e-05
27 *2594:B2 *889:56 7.12774e-05
28 *2595:C1 *889:56 0
29 *2596:A1 *889:56 0
30 *2602:A *889:56 0
31 *2633:A *2641:A 0.000182931
32 *2648:A1 *889:26 0.00123358
33 *2677:A3 *3104:A 8.5917e-05
34 *2678:A *3104:A 9.0336e-05
35 *2697:A *3104:A 7.99768e-05
36 *2764:A *3104:A 0.00048586
37 *2764:D *889:62 0
38 *2764:D *889:75 0
39 *2767:B *889:56 4.82863e-05
40 *2767:B *889:62 0.000163204
41 *2767:B *889:75 0
42 *2799:D *2641:A 0.0001249
43 *2804:D *889:26 0
44 *2804:D *889:56 0
45 *3042:D *889:56 3.37406e-06
46 *3111:A *889:56 0.000338279
47 *3136:A *889:26 1.98547e-06
48 *3165:A *889:56 3.66286e-05
49 *3165:A *889:62 0.000164874
50 *3175:A *889:75 0
51 *3214:A *889:56 4.12303e-05
52 *3312:A *889:56 2.08086e-05
53 *382:10 *889:26 0.000142653
54 *483:8 *3104:A 9.80032e-06
55 *651:26 *889:26 1.31187e-05
56 *651:26 *889:56 0
57 *671:26 *889:26 0.000542353
58 *680:10 *3104:A 0.0002224
59 *751:16 *3104:A 3.14807e-05
60 *751:16 *889:75 7.42457e-05
61 *783:26 *3104:A 4.66108e-05
62 *783:37 *3104:A 5.20905e-05
63 *784:14 *3104:A 4.66108e-05
64 *785:14 *3104:A 0.000159741
65 *804:10 *3104:A 0.000159747
66 *828:18 *889:56 0
67 *829:20 *889:56 0.000677827
68 *839:16 *889:56 0.000126553
69 *870:85 *889:56 0
70 *881:31 *889:56 0
71 *881:120 *889:56 0.000461441
72 *886:40 *2641:A 5.61451e-05
73 *887:105 *3104:A 0
74 *887:105 *889:75 0
75 *888:8 *2641:A 6.02216e-05
76 *888:15 *2641:A 4.77719e-05
*RES
1 *3182:X *889:6 3.6 
2 *889:6 *889:26 9.94627 
3 *889:26 *2641:A 6.91 
4 *889:26 *3181:A 1.6 
5 *889:6 *889:56 17.4153 
6 *889:56 *889:62 5.63 
7 *889:62 *2666:S 3.6 
8 *889:62 *889:75 4.995 
9 *889:75 *2442:A 3.6 
10 *889:75 *3104:A 17.775 
11 *889:56 *2767:A 1.6 
*END

*D_NET *890 0.0014988
*CONN
*I *2659:A1 I *D sky130_fd_sc_hd__mux2_1
*I *3252:X O *D sky130_fd_sc_hd__clkbuf_1
*CAP
1 *2659:A1 0.000364612
2 *3252:X 0.000364612
3 *2659:A1 *2757:A1 0.000293032
4 *2659:A1 *2759:A2 8.08777e-06
5 *2659:A1 *3325:A 0.000198597
6 *2659:A1 *3327:A 0.0001654
7 *3092:D *2659:A1 0.000104463
*RES
1 *3252:X *2659:A1 14.835 
*END

*D_NET *891 0.0151627
*CONN
*I *2703:A1 I *D sky130_fd_sc_hd__o211a_4
*I *2750:B I *D sky130_fd_sc_hd__nor2_1
*I *2717:B1 I *D sky130_fd_sc_hd__a21oi_1
*I *2753:B1 I *D sky130_fd_sc_hd__a21o_1
*I *2756:A I *D sky130_fd_sc_hd__and2_1
*I *2696:B I *D sky130_fd_sc_hd__nor3_1
*I *2709:B1 I *D sky130_fd_sc_hd__a21oi_1
*I *2432:B I *D sky130_fd_sc_hd__nand2_1
*I *2704:B1 I *D sky130_fd_sc_hd__o2bb2a_1
*I *2762:A1 I *D sky130_fd_sc_hd__a31o_1
*I *3183:X O *D sky130_fd_sc_hd__buf_2
*CAP
1 *2703:A1 1.88809e-05
2 *2750:B 5.03597e-05
3 *2717:B1 0
4 *2753:B1 0.000229402
5 *2756:A 4.34949e-05
6 *2696:B 0.00010994
7 *2709:B1 0.000580524
8 *2432:B 1.65033e-05
9 *2704:B1 0
10 *2762:A1 0.000752079
11 *3183:X 0
12 *891:127 9.44838e-05
13 *891:110 0.000509563
14 *891:84 0.000234662
15 *891:80 0.000808629
16 *891:72 0.00123483
17 *891:32 0.000800899
18 *891:23 0.000640254
19 *891:6 0.00139247
20 *891:4 0.000928588
21 *2432:B *2721:A 4.66108e-05
22 *2696:B *2696:A 8.51862e-05
23 *2696:B *954:38 0.000122699
24 *2709:B1 *3235:A 0.000463956
25 *2709:B1 *957:54 4.75576e-05
26 *2709:B1 *968:24 0
27 *2709:B1 *981:18 0.00032825
28 *2709:B1 *1018:12 0
29 *2756:A *982:52 6.77501e-05
30 *891:23 *2378:A 0
31 *891:23 *2700:A2_N 4.61744e-05
32 *891:23 *982:75 0
33 *891:23 *1018:12 0
34 *891:23 *1047:8 0
35 *891:32 *2745:A1 0.000132842
36 *891:32 *2745:B1 7.21296e-06
37 *891:32 *981:18 0.000175214
38 *891:32 *1018:12 0
39 *891:32 *1047:8 0
40 *891:72 *2702:A1 0.000137363
41 *891:72 *950:80 0.000113797
42 *891:72 *1048:31 1.07797e-05
43 *891:84 *997:20 4.62396e-05
44 *891:110 *997:20 0
45 *891:110 *1050:37 0
46 *2381:A *2696:B 2.01504e-05
47 *2384:A *2762:A1 0.000128059
48 *2680:A *891:72 9.14049e-05
49 *2680:C *2756:A 6.71882e-05
50 *2683:B2 *2762:A1 0
51 *2703:B1 *891:72 8.49205e-05
52 *2703:C1 *891:72 5.83121e-06
53 *2710:C1 *2709:B1 1.16578e-05
54 *2717:A1 *891:80 0.000172962
55 *2717:A1 *891:110 0.000269987
56 *2718:C1 *2750:B 4.9253e-06
57 *2723:A2 *2703:A1 5.4155e-06
58 *2723:A2 *891:72 4.78585e-05
59 *2723:A2 *891:80 2.96334e-05
60 *2750:A *2753:B1 8.14868e-05
61 *2750:A *891:110 3.25997e-05
62 *2750:A *891:127 2.96763e-05
63 *2751:A1 *2753:B1 2.55587e-05
64 *2751:C1 *2750:B 0
65 *2754:A *891:110 0.000108322
66 *2754:B *2753:B1 1.03423e-05
67 *2754:B *891:110 7.53115e-05
68 *2759:B1 *2753:B1 8.8266e-05
69 *2762:A2 *2762:A1 0.000305645
70 *3100:A *2762:A1 0.000617721
71 *3100:A *891:6 0.000235573
72 *3101:A *891:6 7.40446e-05
73 *3233:A *891:72 0.000597179
74 *3251:A *2753:B1 4.66108e-05
75 *3274:A *2709:B1 3.09164e-05
76 *3277:A *2709:B1 8.8266e-05
77 *3299:A *2709:B1 0
78 *3365:A *2432:B 2.49909e-05
79 *115:26 *2753:B1 0
80 *115:34 *2753:B1 3.21718e-05
81 *472:14 *891:23 3.68769e-05
82 *475:38 *2762:A1 7.16255e-05
83 *501:8 *891:72 7.06865e-05
84 *501:17 *891:23 0
85 *504:12 *2696:B 0.000116748
86 *672:43 *2696:B 0.000222244
87 *672:43 *2756:A 4.66108e-05
88 *672:43 *891:84 2.92496e-05
89 *674:30 *891:80 0.000313983
90 *675:10 *891:80 4.82863e-05
91 *701:34 *891:72 6.07575e-06
92 *730:25 *891:32 6.5525e-05
93 *739:10 *2756:A 1.47347e-05
94 *739:10 *891:84 0
95 *739:10 *891:110 9.78082e-05
96 *770:10 *891:72 3.86529e-05
97 *772:43 *891:80 2.10134e-05
98 *772:43 *891:110 2.96334e-05
99 *788:16 *891:110 3.09233e-05
100 *788:16 *891:127 0.000107341
101 *868:20 *891:72 5.55371e-05
102 *882:25 *891:127 1.7306e-05
*RES
1 *3183:X *891:4 1.6 
2 *891:4 *891:6 2.865 
3 *891:6 *2762:A1 17.315 
4 *891:6 *891:23 8.735 
5 *891:23 *2704:B1 3.6 
6 *891:23 *891:32 4.44 
7 *891:32 *2432:B 4.05 
8 *891:32 *2709:B1 15.51 
9 *891:4 *891:72 19.835 
10 *891:72 *891:80 7.83 
11 *891:80 *891:84 3.635 
12 *891:84 *2696:B 7.395 
13 *891:84 *2756:A 5.085 
14 *891:80 *891:110 8.78 
15 *891:110 *2753:B1 7.62 
16 *891:110 *891:127 3.38 
17 *891:127 *2717:B1 1.6 
18 *891:127 *2750:B 2.41 
19 *891:72 *2703:A1 1.96 
*END

*D_NET *892 0.0285242
*CONN
*I *2530:B1 I *D sky130_fd_sc_hd__a22o_1
*I *2539:B1 I *D sky130_fd_sc_hd__a22o_1
*I *2584:B1 I *D sky130_fd_sc_hd__a221o_1
*I *2550:B1 I *D sky130_fd_sc_hd__a22o_1
*I *2473:B1 I *D sky130_fd_sc_hd__a22o_1
*I *2485:B1 I *D sky130_fd_sc_hd__a221o_1
*I *2564:B1 I *D sky130_fd_sc_hd__a221o_1
*I *2575:B1 I *D sky130_fd_sc_hd__a221o_1
*I *2454:B1 I *D sky130_fd_sc_hd__a221o_1
*I *2468:B1 I *D sky130_fd_sc_hd__a221o_1
*I *3184:X O *D sky130_fd_sc_hd__clkbuf_4
*CAP
1 *2530:B1 0
2 *2539:B1 0.000248695
3 *2584:B1 7.21272e-05
4 *2550:B1 9.73191e-06
5 *2473:B1 0.000927251
6 *2485:B1 0.00031938
7 *2564:B1 0.000131001
8 *2575:B1 7.79909e-05
9 *2454:B1 0.000192774
10 *2468:B1 0.000186524
11 *3184:X 0
12 *892:121 0.00164551
13 *892:105 0.00163976
14 *892:88 0.00131186
15 *892:86 0.00149649
16 *892:49 0.000886136
17 *892:43 0.000948535
18 *892:39 0.00170261
19 *892:33 0.00203274
20 *892:4 0.00183324
21 *2454:B1 *2453:A2 0
22 *2454:B1 *2475:B1 5.53249e-06
23 *2454:B1 *898:50 0.000167493
24 *2468:B1 *2598:B1 1.7635e-05
25 *2468:B1 *936:20 3.14155e-05
26 *2468:B1 *936:24 1.56477e-05
27 *2473:B1 *2473:A2 5.53249e-06
28 *2485:B1 *896:92 1.85235e-05
29 *2485:B1 *896:98 6.20667e-05
30 *2564:B1 *2564:A2 3.90266e-05
31 *2564:B1 *898:31 1.22762e-05
32 *2564:B1 *898:50 0.000199833
33 *2575:B1 *916:50 5.77162e-05
34 *2584:B1 *916:103 2.52672e-05
35 *2584:B1 *916:111 0
36 *892:33 *2585:B1 0
37 *892:33 *898:20 0
38 *892:33 *922:47 9.06429e-05
39 *892:39 *2531:A2 3.90291e-05
40 *892:39 *2531:B1 4.04579e-05
41 *892:43 *898:31 0
42 *892:49 *898:50 0.000602644
43 *892:86 *2484:A2 0.000421062
44 *892:86 *2531:A2 0.000231012
45 *892:86 *916:95 0.000207064
46 *892:86 *918:21 0.000572603
47 *892:88 *898:118 0
48 *892:121 *2550:A2 5.3653e-05
49 *892:121 *2551:B1 3.06212e-05
50 *892:121 *896:48 5.53686e-05
51 *892:121 *896:50 0.00035564
52 *892:121 *932:49 0.000325823
53 *2454:B2 *2454:B1 8.53113e-06
54 *2454:C1 *2454:B1 4.20519e-05
55 *2465:B2 *892:33 1.9541e-05
56 *2473:B2 *2473:B1 5.53249e-06
57 *2474:C1 *2473:B1 0
58 *2485:A1 *2485:B1 1.80024e-05
59 *2485:B2 *2485:B1 0
60 *2492:A *2564:B1 0
61 *2492:A *892:49 0.000179015
62 *2493:B1 *2485:B1 0.000111012
63 *2530:A1 *892:33 9.50342e-06
64 *2530:A1 *892:39 0.000315818
65 *2531:A1 *892:43 1.22676e-05
66 *2531:B2 *892:39 0.000120012
67 *2531:C1 *892:43 0
68 *2536:A *892:43 1.7635e-05
69 *2540:A1 *2539:B1 4.99619e-05
70 *2540:C1 *2539:B1 4.99619e-05
71 *2550:A1 *2473:B1 9.97548e-05
72 *2550:B2 *2473:B1 0.000165094
73 *2550:B2 *892:121 8.53113e-06
74 *2551:B2 *892:121 0.000116645
75 *2551:C1 *892:121 0.000111061
76 *2564:A1 *2564:B1 9.50342e-06
77 *2564:A1 *892:49 0
78 *2575:B2 *2575:B1 2.66464e-05
79 *2575:B2 *892:49 0.000112837
80 *2575:C1 *2575:B1 4.82863e-05
81 *2581:A1 *892:121 0.000134375
82 *2584:B2 *2584:B1 1.20741e-05
83 *2584:B2 *892:105 3.09088e-05
84 *2585:B2 *892:33 0.000153845
85 *2800:GATE_N *2473:B1 2.8185e-05
86 *2806:D *2473:B1 0
87 *2833:D *2485:B1 0.000113797
88 *2833:D *892:88 4.21314e-05
89 *2879:D *892:33 0.00015486
90 *2891:D *892:33 0.000175858
91 *2891:GATE_N *892:33 4.43682e-05
92 *2900:GATE_N *892:33 3.95269e-05
93 *2932:GATE_N *892:33 0.000285668
94 *2937:GATE_N *892:49 0
95 *2938:GATE_N *892:33 0
96 *2944:GATE_N *892:121 7.70828e-05
97 *2945:GATE_N *892:49 0
98 *2948:GATE_N *892:33 0
99 *3035:GATE_N *892:33 0.000195279
100 *3041:D *892:105 0.000381088
101 *3066:GATE_N *892:33 0.000107333
102 *3067:D *892:33 0.000195771
103 *3079:D *2473:B1 1.17409e-05
104 *3079:GATE_N *2473:B1 4.82863e-05
105 *3082:D *892:105 0.000171935
106 *3154:A *2550:B1 4.82863e-05
107 *3174:A *2473:B1 0.000162074
108 *3185:A *2468:B1 8.43862e-05
109 *3185:A *892:33 4.82919e-05
110 *3196:A *2468:B1 0
111 *3304:A *892:33 8.40269e-05
112 *499:18 *892:33 7.9642e-06
113 *551:40 *892:121 0.000136604
114 *590:24 *2564:B1 6.47192e-05
115 *631:18 *892:121 2.97206e-06
116 *805:34 *892:39 4.45301e-05
117 *805:148 *892:105 2.84703e-05
118 *805:148 *892:121 0
119 *807:22 *892:43 0
120 *809:20 *2539:B1 0.000323504
121 *809:20 *892:88 7.20869e-05
122 *822:117 *892:121 0.0006627
123 *825:61 *2454:B1 0
124 *829:69 *2485:B1 0.000104287
125 *829:69 *2539:B1 0.000335988
126 *829:69 *892:88 0.000284587
127 *829:73 *2485:B1 0.000163985
128 *831:18 *892:33 4.90031e-05
129 *831:22 *892:33 0.000287415
130 *831:28 *892:33 0.000103228
131 *831:28 *892:39 0.000317485
132 *834:72 *892:33 0.000234431
133 *838:70 *2550:B1 4.82863e-05
134 *840:44 *892:33 0.000230851
135 *851:20 *2539:B1 5.10957e-05
136 *851:20 *892:105 6.38806e-05
137 *854:25 *892:49 0.000159964
138 *854:42 *892:49 4.38051e-05
139 *856:60 *2485:B1 3.83305e-05
140 *859:56 *892:121 7.70758e-05
141 *859:69 *2473:B1 0
142 *864:10 *892:33 0
143 *866:41 *892:33 4.14782e-05
144 *874:20 *2473:B1 1.36454e-05
145 *875:10 *892:33 0
146 *875:81 *892:33 0
147 *876:21 *892:33 0.000530016
148 *880:23 *2473:B1 0.000153778
149 *881:79 *2473:B1 1.37328e-05
150 *884:20 *2473:B1 0
*RES
1 *3184:X *892:4 1.6 
2 *892:4 *2468:B1 8.21 
3 *892:4 *892:33 37.625 
4 *892:33 *892:39 9.575 
5 *892:39 *892:43 5.165 
6 *892:43 *892:49 12.9 
7 *892:49 *2454:B1 7.53 
8 *892:49 *2575:B1 5.085 
9 *892:43 *2564:B1 11.065 
10 *892:39 *892:86 16.94 
11 *892:86 *892:88 3.42 
12 *892:88 *2485:B1 10.05 
13 *892:88 *892:105 12.8 
14 *892:105 *892:121 21.365 
15 *892:121 *2473:B1 21.175 
16 *892:121 *2550:B1 4.05 
17 *892:105 *2584:B1 2.755 
18 *892:86 *2539:B1 10.395 
19 *892:33 *2530:B1 3.6 
*END

*D_NET *893 0.0200775
*CONN
*I *2496:B1 I *D sky130_fd_sc_hd__a22o_1
*I *2518:B1 I *D sky130_fd_sc_hd__a221o_1
*I *2606:B1 I *D sky130_fd_sc_hd__a221o_1
*I *2619:B1 I *D sky130_fd_sc_hd__a221o_1
*I *2506:B1 I *D sky130_fd_sc_hd__a22o_1
*I *2425:B I *D sky130_fd_sc_hd__nand2_1
*I *2598:B1 I *D sky130_fd_sc_hd__a221o_1
*I *3185:X O *D sky130_fd_sc_hd__buf_2
*CAP
1 *2496:B1 0
2 *2518:B1 0.000422462
3 *2606:B1 0.000376038
4 *2619:B1 0.00017887
5 *2506:B1 0.000745568
6 *2425:B 0
7 *2598:B1 0.000193475
8 *3185:X 5.70077e-05
9 *893:114 0.00105422
10 *893:97 0.000936243
11 *893:63 0.000776426
12 *893:59 0.00139757
13 *893:37 0.00186037
14 *893:12 0.00124579
15 *2506:B1 *2506:A2 4.66108e-05
16 *2506:B1 *917:73 0
17 *2598:B1 *3212:A 0
18 *2598:B1 *936:18 2.15594e-05
19 *2598:B1 *936:20 5.98701e-05
20 *2606:B1 *2507:A2 0
21 *2606:B1 *2606:A2 2.0851e-06
22 *893:12 *936:20 9.58678e-06
23 *893:37 *895:40 0.00155182
24 *893:37 *912:10 0.000121541
25 *893:59 *2405:B 0.000421434
26 *893:59 *2496:A2 2.49909e-05
27 *893:63 *915:48 9.14098e-06
28 *893:97 *2409:B 0.000108259
29 *893:97 *915:48 0.000168553
30 *2468:B1 *2598:B1 1.7635e-05
31 *2496:B2 *893:37 0.0001947
32 *2504:B1 *893:59 2.937e-05
33 *2504:B2 *893:59 2.75145e-05
34 *2518:A1 *2518:B1 0.000164358
35 *2518:B2 *2518:B1 0.000113105
36 *2526:B2 *2518:B1 8.85103e-05
37 *2526:B2 *2619:B1 0.000384816
38 *2526:B2 *893:114 0.000178584
39 *2598:A1 *2598:B1 9.50342e-06
40 *2614:B1 *2606:B1 0
41 *2619:B2 *2619:B1 2.66464e-05
42 *2619:C1 *2619:B1 4.34986e-05
43 *2899:GATE_N *893:97 0.000348827
44 *2907:GATE_N *893:37 5.8023e-05
45 *2911:GATE_N *893:37 0.000655403
46 *2914:GATE_N *893:59 0
47 *2916:D *2518:B1 0.000164733
48 *2916:GATE_N *2518:B1 0.000163204
49 *2941:GATE_N *893:97 7.23533e-05
50 *3044:GATE_N *2606:B1 3.47668e-05
51 *3051:GATE_N *893:59 0.000325995
52 *3060:GATE_N *2606:B1 0.000203755
53 *3076:GATE_N *2606:B1 0.00015788
54 *3083:GATE_N *893:12 0.000219046
55 *3083:GATE_N *893:37 0.00107029
56 *3106:A *893:59 4.09223e-05
57 *3106:A *893:97 9.58678e-06
58 *3107:A *2506:B1 0.000215463
59 *3111:A *2506:B1 6.06649e-05
60 *3111:A *893:59 4.65385e-05
61 *3112:A *2506:B1 0
62 *3124:A *2606:B1 0
63 *3127:A *893:59 5.00763e-05
64 *3138:A *893:59 1.35771e-05
65 *3192:A *893:12 1.17114e-05
66 *3196:A *2598:B1 1.43867e-05
67 *3196:A *893:12 0.000209993
68 *3196:A *893:37 0.000136824
69 *3201:A *893:37 3.57349e-05
70 *492:14 *893:37 0.000236448
71 *499:18 *893:37 0.000233004
72 *500:10 *2598:B1 0
73 *651:26 *893:59 9.53978e-06
74 *806:14 *893:59 2.35067e-05
75 *806:48 *893:63 1.94811e-05
76 *806:48 *893:97 0.000218693
77 *806:50 *2619:B1 5.4003e-05
78 *806:50 *893:97 0.000296677
79 *808:20 *2506:B1 0.000250709
80 *808:54 *893:59 0.000216512
81 *810:14 *2506:B1 0.000286164
82 *810:16 *2506:B1 9.04308e-05
83 *810:84 *893:59 7.14699e-05
84 *811:26 *2619:B1 0
85 *811:26 *893:97 0
86 *834:72 *893:37 5.92535e-05
87 *840:10 *893:59 7.59573e-06
88 *849:87 *893:37 4.75959e-05
89 *849:98 *893:37 7.3151e-05
90 *865:6 *2518:B1 3.15722e-05
91 *866:35 *893:37 0.000252713
92 *866:35 *893:59 6.07575e-06
93 *866:41 *893:37 0.000205435
*RES
1 *3185:X *893:12 4.66183 
2 *893:12 *2598:B1 7.1375 
3 *893:12 *893:37 23.422 
4 *893:37 *893:59 13.2264 
5 *893:59 *893:63 2.4875 
6 *893:63 *2425:B 1.6 
7 *893:63 *2506:B1 18.395 
8 *893:59 *893:97 12.7125 
9 *893:97 *2619:B1 8.13 
10 *893:97 *893:114 6.245 
11 *893:114 *2606:B1 12.785 
12 *893:114 *2518:B1 9.64 
13 *893:37 *2496:B1 1.6 
*END

*D_NET *894 0.021036
*CONN
*I *2528:B1 I *D sky130_fd_sc_hd__a22o_1
*I *2562:B1 I *D sky130_fd_sc_hd__a221o_1
*I *2546:B1 I *D sky130_fd_sc_hd__a22o_1
*I *2608:B1 I *D sky130_fd_sc_hd__a221o_1
*I *2487:B1 I *D sky130_fd_sc_hd__a221o_1
*I *2551:B1 I *D sky130_fd_sc_hd__a221o_1
*I *2451:B1 I *D sky130_fd_sc_hd__a22o_1
*I *2476:B1 I *D sky130_fd_sc_hd__a221o_1
*I *2574:B1 I *D sky130_fd_sc_hd__a22o_1
*I *2586:B1 I *D sky130_fd_sc_hd__a221o_1
*I *3186:X O *D sky130_fd_sc_hd__clkbuf_4
*CAP
1 *2528:B1 0
2 *2562:B1 0.000565277
3 *2546:B1 2.08101e-05
4 *2608:B1 0
5 *2487:B1 0
6 *2551:B1 0.00054555
7 *2451:B1 2.6214e-05
8 *2476:B1 7.5616e-05
9 *2574:B1 0.000115014
10 *2586:B1 0.000276505
11 *3186:X 0
12 *894:142 0.00119345
13 *894:127 0.00140057
14 *894:112 0.00198124
15 *894:69 0.00110261
16 *894:50 0.00116474
17 *894:37 0.00094891
18 *894:29 0.000700392
19 *894:21 0.00168477
20 *894:4 0.00030686
21 *2451:B1 *2451:A2 4.87465e-06
22 *2476:B1 *2476:A2 2.8531e-05
23 *2551:B1 *2451:A2 0.000162575
24 *2551:B1 *2452:B1 8.16123e-05
25 *2551:B1 *2473:A2 1.27748e-05
26 *2551:B1 *2550:A2 7.22104e-05
27 *2551:B1 *2559:A2 0.000192125
28 *2551:B1 *911:92 1.88658e-05
29 *2562:B1 *2529:B1 9.2741e-05
30 *2562:B1 *2561:B1 0
31 *2562:B1 *2562:A2 2.49909e-05
32 *2562:B1 *2655:A1 1.65553e-05
33 *2562:B1 *916:111 3.90266e-05
34 *2574:B1 *2574:A2 4.82863e-05
35 *2586:B1 *2586:A2 0.000102263
36 *894:29 *914:95 0.000433372
37 *894:29 *918:109 1.63407e-05
38 *894:37 *2486:B1 1.65105e-05
39 *894:37 *916:32 0
40 *894:50 *2553:B1 0.000335156
41 *894:112 *2540:A2 5.90847e-05
42 *894:112 *2608:A2 0.000141489
43 *894:112 *914:118 0.000220671
44 *894:112 *914:151 0.00037319
45 *894:127 *2605:A2 4.49415e-05
46 *894:127 *914:151 0.000140911
47 *894:142 *2561:B1 4.43871e-06
48 *894:142 *914:157 0
49 *2451:B2 *2451:B1 1.55953e-05
50 *2451:B2 *894:69 2.15864e-05
51 *2452:C1 *2551:B1 0.000124895
52 *2476:A1 *2476:B1 0.000135889
53 *2476:A1 *894:69 4.66108e-05
54 *2476:B2 *2476:B1 0
55 *2486:B2 *894:37 0.000112123
56 *2487:A1 *894:37 0.000136884
57 *2487:B2 *894:37 0.000105607
58 *2528:A1 *2562:B1 0
59 *2528:B2 *2562:B1 4.75576e-05
60 *2528:B2 *894:142 5.53249e-06
61 *2529:C1 *2562:B1 0.000160635
62 *2546:B2 *894:127 2.31329e-05
63 *2546:B2 *894:142 5.6937e-05
64 *2547:C1 *894:142 3.25792e-05
65 *2551:B2 *2551:B1 9.61848e-05
66 *2553:B2 *2476:B1 3.18737e-05
67 *2553:B2 *894:50 6.2893e-05
68 *2562:B2 *2562:B1 5.54274e-05
69 *2562:C1 *2562:B1 5.83121e-06
70 *2581:A1 *2551:B1 0.000110946
71 *2606:C1 *894:127 7.9642e-06
72 *2607:B2 *894:112 0.000170316
73 *2608:A1 *894:112 2.15271e-05
74 *2608:A1 *894:127 0.000196376
75 *2608:B2 *894:127 2.66464e-05
76 *2613:A *894:112 1.60922e-05
77 *2614:A1 *894:127 0.000130256
78 *3030:D *894:29 0
79 *3030:GATE_N *894:29 0
80 *3040:GATE_N *2562:B1 0.000142738
81 *3046:GATE_N *894:142 4.62396e-05
82 *3054:D *894:69 3.03684e-05
83 *3054:GATE_N *894:69 5.85626e-05
84 *3084:D *894:127 0.000232116
85 *3145:A *2586:B1 8.80711e-05
86 *3156:A *894:142 5.83121e-06
87 *3159:A *2476:B1 9.34171e-06
88 *3159:A *894:50 0.000278814
89 *3202:A *2586:B1 8.80711e-05
90 *631:18 *2551:B1 0.000226967
91 *811:26 *894:127 0.000114506
92 *811:36 *894:29 0
93 *822:49 *894:112 0
94 *825:41 *894:29 0.000894135
95 *825:43 *894:37 0.000399726
96 *827:44 *894:127 2.19562e-06
97 *838:34 *2562:B1 0.000100603
98 *838:34 *894:142 0
99 *838:40 *2562:B1 0.000298971
100 *847:131 *2586:B1 0.00013749
101 *847:131 *894:21 2.68464e-05
102 *847:131 *894:112 0.00014615
103 *848:16 *894:112 1.33293e-05
104 *848:27 *894:112 3.69909e-05
105 *854:42 *2574:B1 8.05167e-05
106 *854:42 *894:50 0.000378005
107 *858:15 *2551:B1 4.72151e-05
108 *858:15 *894:69 5.801e-05
109 *860:16 *894:142 0
110 *860:34 *894:127 0.000100139
111 *872:12 *894:29 0.000182534
112 *872:12 *894:37 3.09233e-05
113 *892:121 *2551:B1 3.06212e-05
*RES
1 *3186:X *894:4 1.6 
2 *894:4 *2586:B1 10.04 
3 *894:4 *894:21 0.45 
4 *894:21 *894:29 14.135 
5 *894:29 *894:37 9.29 
6 *894:37 *2574:B1 3.43 
7 *894:37 *894:50 14.195 
8 *894:50 *2476:B1 5.49 
9 *894:50 *894:69 9.14 
10 *894:69 *2451:B1 2.215 
11 *894:69 *2551:B1 17.12 
12 *894:29 *2487:B1 3.6 
13 *894:21 *894:112 22.225 
14 *894:112 *2608:B1 1.6 
15 *894:112 *894:127 17.62 
16 *894:127 *2546:B1 1.96 
17 *894:127 *894:142 12.265 
18 *894:142 *2562:B1 18.02 
19 *894:142 *2528:B1 1.6 
*END

*D_NET *895 0.0167213
*CONN
*I *2423:B I *D sky130_fd_sc_hd__nand2_1
*I *2506:A2 I *D sky130_fd_sc_hd__a22o_1
*I *2617:B1 I *D sky130_fd_sc_hd__a221o_1
*I *2517:B1 I *D sky130_fd_sc_hd__a22o_1
*I *2496:A2 I *D sky130_fd_sc_hd__a22o_1
*I *2600:B1 I *D sky130_fd_sc_hd__a22o_1
*I *2467:B1 I *D sky130_fd_sc_hd__a22o_1
*I *3187:X O *D sky130_fd_sc_hd__clkbuf_2
*CAP
1 *2423:B 0
2 *2506:A2 0.000418402
3 *2617:B1 9.41527e-05
4 *2517:B1 0.000386366
5 *2496:A2 0.000136509
6 *2600:B1 0.000124551
7 *2467:B1 7.97386e-05
8 *3187:X 0
9 *895:81 0.000782919
10 *895:71 0.00131653
11 *895:63 0.00125085
12 *895:40 0.00213585
13 *895:8 0.000359492
14 *895:4 0.00149942
15 *2467:B1 *922:27 0.000131773
16 *2517:B1 *2507:A2 0.000274167
17 *2600:B1 *2600:A2 4.66108e-05
18 *2600:B1 *922:16 3.57349e-05
19 *2600:B1 *922:27 2.92496e-05
20 *2617:B1 *917:90 4.78603e-05
21 *895:81 *2507:A2 7.89034e-05
22 *895:81 *962:10 5.53249e-06
23 *2405:A *895:63 0.000194694
24 *2425:A *895:63 2.49909e-05
25 *2503:C *895:40 0.000172857
26 *2504:B1 *2496:A2 8.53113e-06
27 *2506:B1 *2506:A2 4.66108e-05
28 *2506:B2 *2506:A2 0.000240107
29 *2509:C1 *895:81 7.67415e-06
30 *2517:B2 *2517:B1 0.00017584
31 *2600:A1 *2600:B1 4.82919e-05
32 *2600:A1 *895:8 1.65804e-05
33 *2617:B2 *2617:B1 2.49708e-05
34 *2617:C1 *2617:B1 4.66108e-05
35 *2859:GATE_N *2467:B1 8.34458e-05
36 *2859:GATE_N *895:8 6.91271e-05
37 *2915:D *895:81 3.64998e-06
38 *2915:GATE_N *895:81 2.05056e-05
39 *2950:GATE_N *2517:B1 0.000877065
40 *3051:GATE_N *2496:A2 4.66108e-05
41 *3058:D *2496:A2 0
42 *3058:D *895:63 7.74785e-05
43 *3059:D *2506:A2 3.3657e-05
44 *3074:D *895:40 1.55649e-05
45 *3074:GATE_N *2496:A2 5.75434e-05
46 *3105:A *895:81 2.67275e-05
47 *3108:A *895:71 8.7152e-06
48 *3109:A *895:63 0.000146188
49 *3109:A *895:71 4.91032e-05
50 *3122:A *895:71 8.35106e-05
51 *3123:A *895:71 0.000480612
52 *3129:A *2496:A2 0.000216318
53 *3138:A *895:63 2.30776e-05
54 *3162:A *895:71 4.82863e-05
55 *3186:A *2600:B1 6.04355e-05
56 *3186:A *895:8 0.000120684
57 *3209:A *2600:B1 0.000158072
58 *440:8 *895:63 4.82919e-05
59 *448:8 *895:63 4.66108e-05
60 *806:48 *895:63 0.000154903
61 *806:48 *895:71 4.7878e-05
62 *808:54 *895:63 1.77575e-05
63 *808:80 *2600:B1 7.67415e-06
64 *808:80 *895:40 1.8498e-05
65 *808:80 *895:63 0.00010166
66 *810:22 *2506:A2 0
67 *810:22 *895:81 0
68 *823:8 *895:71 7.26176e-06
69 *823:51 *895:71 2.8185e-05
70 *823:68 *2517:B1 0.000145349
71 *823:68 *895:81 0.000155928
72 *826:12 *2496:A2 0
73 *828:60 *2506:A2 0.000686357
74 *828:60 *895:81 0.0001305
75 *828:70 *895:81 2.75229e-05
76 *839:75 *895:81 2.42236e-05
77 *840:10 *895:63 1.6408e-05
78 *849:31 *2600:B1 0
79 *849:31 *895:8 1.88904e-05
80 *849:35 *895:8 4.0932e-05
81 *866:8 *2506:A2 7.89689e-05
82 *866:19 *2506:A2 7.99552e-05
83 *867:28 *2506:A2 1.97442e-05
84 *867:28 *895:71 2.0514e-05
85 *867:28 *895:81 5.4851e-05
86 *869:35 *895:40 4.23703e-05
87 *881:39 *895:40 0.000174517
88 *893:37 *895:40 0.00155182
89 *893:59 *2496:A2 2.49909e-05
*RES
1 *3187:X *895:4 1.6 
2 *895:4 *895:8 5.2925 
3 *895:8 *2467:B1 5.6175 
4 *895:8 *2600:B1 6.6225 
5 *895:4 *895:40 22.915 
6 *895:40 *2496:A2 8.705 
7 *895:40 *895:63 12.74 
8 *895:63 *895:71 11.965 
9 *895:71 *895:81 9.865 
10 *895:81 *2517:B1 15.69 
11 *895:81 *2617:B1 5.085 
12 *895:71 *2506:A2 13.62 
13 *895:63 *2423:B 3.6 
*END

*D_NET *896 0.020478
*CONN
*I *2546:A2 I *D sky130_fd_sc_hd__a22o_1
*I *2529:B1 I *D sky130_fd_sc_hd__a221o_1
*I *2572:B1 I *D sky130_fd_sc_hd__a22o_1
*I *2485:A2 I *D sky130_fd_sc_hd__a221o_1
*I *2553:B1 I *D sky130_fd_sc_hd__a221o_1
*I *2563:B1 I *D sky130_fd_sc_hd__a22o_1
*I *2474:B1 I *D sky130_fd_sc_hd__a221o_1
*I *2452:B1 I *D sky130_fd_sc_hd__a221o_1
*I *2583:B1 I *D sky130_fd_sc_hd__a22o_1
*I *2607:B1 I *D sky130_fd_sc_hd__a22o_1
*I *3188:X O *D sky130_fd_sc_hd__clkbuf_4
*CAP
1 *2546:A2 0.000216831
2 *2529:B1 0.0003117
3 *2572:B1 0
4 *2485:A2 0
5 *2553:B1 0.000304068
6 *2563:B1 3.07559e-05
7 *2474:B1 0.00124664
8 *2452:B1 0.00036425
9 *2583:B1 0
10 *2607:B1 8.25468e-05
11 *3188:X 0.00037667
12 *896:98 0.000519609
13 *896:92 0.000845979
14 *896:82 0.00082463
15 *896:50 0.0019672
16 *896:48 0.000916868
17 *896:44 0.000811422
18 *896:40 0.00057392
19 *896:33 0.000457252
20 *896:12 0.00066198
21 *2452:B1 *2559:A2 5.86071e-05
22 *2452:B1 *2573:A2 0.000115621
23 *2452:B1 *911:92 0.000489178
24 *2474:B1 *2473:A2 2.4361e-05
25 *2474:B1 *2559:A2 0.000449089
26 *2474:B1 *2649:A0 9.14157e-05
27 *2529:B1 *2529:A2 0.00101251
28 *2529:B1 *914:157 0.000120655
29 *2553:B1 *2486:B1 2.97004e-06
30 *2553:B1 *918:29 0
31 *896:33 *2605:A2 0
32 *896:33 *911:54 0
33 *896:40 *2529:A2 4.82863e-05
34 *896:40 *911:159 4.21973e-05
35 *896:44 *2605:A2 0.000111096
36 *896:48 *2605:A2 7.5326e-05
37 *896:48 *932:49 0.000588052
38 *2452:B2 *2452:B1 2.49764e-05
39 *2482:A1 *2474:B1 3.03775e-05
40 *2485:B1 *896:92 1.85235e-05
41 *2485:B1 *896:98 6.20667e-05
42 *2485:B2 *896:98 2.66464e-05
43 *2529:B2 *2529:B1 6.30415e-05
44 *2529:C1 *2529:B1 3.6537e-05
45 *2546:A1 *2546:A2 0.000141365
46 *2551:A1 *896:50 8.8191e-05
47 *2551:B1 *2452:B1 8.16123e-05
48 *2551:B2 *2452:B1 8.44343e-05
49 *2551:B2 *896:50 6.28498e-05
50 *2551:C1 *2452:B1 1.15688e-05
51 *2553:B2 *2553:B1 4.43871e-06
52 *2562:B1 *2529:B1 9.2741e-05
53 *2563:A1 *2563:B1 2.78441e-05
54 *2563:B2 *2563:B1 1.16578e-05
55 *2563:B2 *896:98 4.99619e-05
56 *2584:A1 *896:48 0.000312083
57 *2584:C1 *896:40 5.43769e-05
58 *2592:A1 *896:48 5.73518e-05
59 *2607:A1 *2607:B1 5.16348e-05
60 *2607:A1 *896:12 4.57897e-05
61 *2607:B2 *2607:B1 2.97561e-05
62 *2607:B2 *896:12 0
63 *2608:B2 *896:12 0.000133528
64 *2608:C1 *896:12 6.17633e-05
65 *2608:C1 *896:33 8.8266e-05
66 *2639:B *896:48 3.03464e-05
67 *2639:B *896:50 0
68 *2799:D *2474:B1 0.000137894
69 *2832:D *2474:B1 8.30545e-05
70 *2841:D *2452:B1 4.94474e-05
71 *2844:D *896:33 0
72 *2844:GATE_N *896:33 1.70935e-05
73 *2922:GATE_N *896:12 0
74 *2922:GATE_N *896:33 0
75 *2924:D *896:12 0
76 *2924:GATE_N *896:12 0
77 *2936:GATE_N *896:48 6.12267e-05
78 *3031:GATE_N *896:50 2.67306e-05
79 *3036:GATE_N *896:12 0.000448967
80 *3064:D *2563:B1 2.74401e-05
81 *3064:D *896:50 9.16315e-05
82 *3064:D *896:82 0.000301905
83 *3064:D *896:92 3.55677e-05
84 *3064:D *896:98 0.000232482
85 *3126:A *896:12 0
86 *3126:A *896:33 5.39961e-05
87 *3153:A *2563:B1 0
88 *3154:A *2452:B1 9.37731e-05
89 *3154:A *896:50 7.23602e-05
90 *3159:A *2553:B1 6.57205e-05
91 *641:10 *896:48 7.086e-05
92 *811:26 *2529:B1 0.000161529
93 *811:26 *896:44 0
94 *811:26 *896:48 0
95 *825:18 *896:12 6.06649e-05
96 *825:130 *2546:A2 1.82563e-05
97 *825:130 *896:48 0
98 *827:8 *896:33 8.60799e-05
99 *827:44 *896:33 0.000109603
100 *827:48 *2546:A2 7.36562e-05
101 *827:62 *896:50 3.86529e-05
102 *838:54 *2474:B1 8.03844e-05
103 *856:60 *896:48 1.88656e-05
104 *856:60 *896:92 0.000819648
105 *856:60 *896:98 6.9114e-05
106 *859:56 *896:50 7.5416e-05
107 *859:67 *896:50 1.73877e-05
108 *860:34 *2546:A2 0.00019637
109 *860:34 *2607:B1 0.000122331
110 *860:34 *896:33 0.000260147
111 *860:34 *896:44 1.22676e-05
112 *863:38 *2529:B1 8.18626e-05
113 *865:59 *896:12 1.56428e-05
114 *874:24 *2474:B1 1.83847e-05
115 *892:121 *896:48 5.53686e-05
116 *892:121 *896:50 0.00035564
117 *894:50 *2553:B1 0.000335156
*RES
1 *3188:X *896:12 13.295 
2 *896:12 *2607:B1 7.355 
3 *896:12 *896:33 9.355 
4 *896:33 *2583:B1 1.6 
5 *896:33 *896:40 3.9 
6 *896:40 *896:44 4.4 
7 *896:44 *896:48 11.01 
8 *896:48 *896:50 9.54 
9 *896:50 *2452:B1 12.42 
10 *896:50 *2474:B1 23.485 
11 *896:48 *896:82 5.225 
12 *896:82 *896:92 9.9975 
13 *896:92 *896:98 4.8825 
14 *896:98 *2563:B1 2.515 
15 *896:98 *2553:B1 11.93 
16 *896:92 *2485:A2 1.6 
17 *896:82 *2572:B1 1.6 
18 *896:44 *2529:B1 13.74 
19 *896:40 *2546:A2 10.1 
*END

*D_NET *897 0.017331
*CONN
*I *2507:B1 I *D sky130_fd_sc_hd__a221o_1
*I *2497:B1 I *D sky130_fd_sc_hd__a22o_1
*I *2421:B I *D sky130_fd_sc_hd__nand2_1
*I *2517:A2 I *D sky130_fd_sc_hd__a22o_1
*I *2618:B1 I *D sky130_fd_sc_hd__a22o_1
*I *2463:B1 I *D sky130_fd_sc_hd__a22o_1
*I *2595:B1 I *D sky130_fd_sc_hd__a221o_1
*I *3189:X O *D sky130_fd_sc_hd__clkbuf_2
*CAP
1 *2507:B1 0.000551956
2 *2497:B1 2.66632e-05
3 *2421:B 1.36534e-05
4 *2517:A2 0.00129672
5 *2618:B1 0
6 *2463:B1 0.000206742
7 *2595:B1 0.000125418
8 *3189:X 0
9 *897:97 0.000889417
10 *897:47 0.000379067
11 *897:45 0.00186011
12 *897:31 0.000562022
13 *897:29 0.00127476
14 *897:4 0.000932087
15 *2463:B1 *2520:A2 4.47125e-05
16 *2463:B1 *919:51 0.000687527
17 *2463:B1 *933:24 8.20035e-05
18 *2497:B1 *915:48 5.06699e-05
19 *2507:B1 *2507:A2 0.000248272
20 *2507:B1 *917:62 8.52545e-05
21 *2507:B1 *917:73 6.12852e-05
22 *2595:B1 *2465:B1 3.86161e-05
23 *2595:B1 *917:8 0.000124488
24 *2595:B1 *919:35 0
25 *897:29 *2498:A2 6.34232e-05
26 *897:29 *917:8 0.000260427
27 *897:29 *917:62 7.67415e-06
28 *897:47 *2618:A2 4.66108e-05
29 *897:47 *915:81 0.000128445
30 *897:97 *917:62 0.00046026
31 *2405:A *2421:B 4.66108e-05
32 *2409:A *897:31 7.9642e-06
33 *2409:A *897:45 0.000147106
34 *2423:A *897:45 0.000122337
35 *2503:B *897:29 2.19562e-06
36 *2506:A1 *2507:B1 2.16833e-05
37 *2507:A1 *2507:B1 8.23457e-05
38 *2507:B2 *2507:B1 1.12643e-05
39 *2509:A1 *897:45 0.000109388
40 *2526:B2 *2463:B1 0.000764922
41 *2595:A1 *2595:B1 5.10477e-05
42 *2619:A1 *897:47 0.000121536
43 *2899:GATE_N *2517:A2 0.000107415
44 *2930:GATE_N *897:29 4.08514e-05
45 *2950:GATE_N *2517:A2 0.000662497
46 *3042:D *897:29 9.7579e-06
47 *3059:D *2507:B1 4.66108e-05
48 *3059:GATE_N *2507:B1 4.82919e-05
49 *3069:GATE_N *2517:A2 5.07419e-05
50 *3110:A *897:45 0.00067418
51 *3111:A *897:29 9.67081e-06
52 *3111:A *897:31 0.000367657
53 *3111:A *897:45 6.69679e-05
54 *3112:A *2507:B1 4.43212e-06
55 *3124:A *2497:B1 1.79722e-05
56 *3126:A *897:45 0.000726291
57 *3138:A *2421:B 4.66108e-05
58 *3205:A *2595:B1 0.00012657
59 *3205:A *897:29 0.000196364
60 *808:14 *2507:B1 0.000165202
61 *808:20 *2507:B1 8.73389e-06
62 *811:10 *2507:B1 1.99941e-05
63 *812:36 *2463:B1 0.000157631
64 *823:8 *897:45 0.000120655
65 *828:60 *897:29 0
66 *830:90 *2517:A2 3.70572e-05
67 *830:90 *897:45 0
68 *838:28 *2517:A2 0.000351041
69 *841:21 *897:29 0.000175216
70 *841:21 *897:31 0.000367657
71 *844:6 *2517:A2 0.00015409
72 *869:66 *897:29 0.000528382
73 *869:106 *897:29 4.58166e-05
*RES
1 *3189:X *897:4 1.6 
2 *897:4 *2595:B1 8.15 
3 *897:4 *897:29 15.065 
4 *897:29 *897:31 4.695 
5 *897:31 *897:45 18.165 
6 *897:45 *897:47 3.21 
7 *897:47 *2463:B1 14.855 
8 *897:47 *2618:B1 1.6 
9 *897:45 *2517:A2 26.345 
10 *897:31 *2421:B 4.05 
11 *897:29 *897:97 6.245 
12 *897:97 *2497:B1 6.215 
13 *897:97 *2507:B1 13.015 
*END

*D_NET *898 0.0322935
*CONN
*I *2507:A2 I *D sky130_fd_sc_hd__a221o_1
*I *2539:A2 I *D sky130_fd_sc_hd__a22o_1
*I *2572:A2 I *D sky130_fd_sc_hd__a22o_1
*I *2550:A2 I *D sky130_fd_sc_hd__a22o_1
*I *2484:B1 I *D sky130_fd_sc_hd__a22o_1
*I *2585:B1 I *D sky130_fd_sc_hd__a22o_1
*I *2454:A2 I *D sky130_fd_sc_hd__a221o_1
*I *2475:B1 I *D sky130_fd_sc_hd__a22o_1
*I *2564:A2 I *D sky130_fd_sc_hd__a221o_1
*I *2530:A2 I *D sky130_fd_sc_hd__a22o_1
*I *3190:X O *D sky130_fd_sc_hd__clkbuf_4
*CAP
1 *2507:A2 0.00198625
2 *2539:A2 0
3 *2572:A2 0
4 *2550:A2 0.000422429
5 *2484:B1 9.99184e-05
6 *2585:B1 6.45039e-05
7 *2454:A2 4.53842e-06
8 *2475:B1 0.000511659
9 *2564:A2 7.2229e-05
10 *2530:A2 2.12116e-05
11 *3190:X 4.57285e-05
12 *898:118 0.0017125
13 *898:95 0.00156327
14 *898:93 0.000354264
15 *898:89 0.00261587
16 *898:50 0.00129625
17 *898:31 0.00113569
18 *898:20 0.000566778
19 *898:14 0.000454162
20 *898:10 0.000621872
21 *2475:B1 *2654:A0 0.000335863
22 *2475:B1 *2654:A1 9.56731e-05
23 *2507:A2 *914:157 0
24 *2550:A2 *2655:A0 5.82102e-05
25 *898:118 *2655:A0 7.42982e-05
26 *898:118 *911:72 0
27 *2454:A1 *2475:B1 0.000126143
28 *2454:B1 *2475:B1 5.53249e-06
29 *2454:B1 *898:50 0.000167493
30 *2454:B2 *2475:B1 5.11148e-06
31 *2460:B2 *2475:B1 0.000407648
32 *2482:B2 *2475:B1 0.000428174
33 *2484:A1 *2484:B1 9.50342e-06
34 *2484:A1 *898:118 3.09128e-05
35 *2485:B2 *898:118 7.23602e-05
36 *2485:C1 *898:118 0.00024756
37 *2506:A1 *2507:A2 0.000160641
38 *2507:B1 *2507:A2 0.000248272
39 *2507:B2 *2507:A2 1.12643e-05
40 *2517:B1 *2507:A2 0.000274167
41 *2517:B2 *2507:A2 0.000177723
42 *2530:A1 *898:31 0.000180192
43 *2531:B2 *898:31 9.30787e-05
44 *2531:C1 *898:31 0.000287321
45 *2539:A1 *898:95 0.000139238
46 *2540:A1 *898:93 0.000304647
47 *2540:B2 *898:93 7.01332e-05
48 *2540:C1 *898:93 6.43909e-05
49 *2545:C *898:14 0.000324448
50 *2545:C *898:89 0.00111119
51 *2545:C *898:93 5.02126e-06
52 *2548:B1 *2507:A2 0.000477495
53 *2550:A1 *2550:A2 4.43871e-06
54 *2551:B1 *2550:A2 7.22104e-05
55 *2564:A1 *2564:A2 4.43871e-06
56 *2564:B1 *2564:A2 3.90266e-05
57 *2564:B1 *898:31 1.22762e-05
58 *2564:B1 *898:50 0.000199833
59 *2564:B2 *2564:A2 6.00562e-05
60 *2572:A1 *2550:A2 0.000135533
61 *2581:A1 *2550:A2 2.97872e-06
62 *2585:A1 *2585:B1 9.57555e-05
63 *2586:C1 *2585:B1 1.13002e-05
64 *2586:C1 *898:20 2.97206e-06
65 *2591:A *2530:A2 4.82863e-05
66 *2591:A *898:20 0.000238137
67 *2606:B1 *2507:A2 0
68 *2613:A *898:14 0.000121416
69 *2613:A *898:89 0.000183967
70 *2614:B1 *2507:A2 3.86529e-05
71 *2639:B *2550:A2 0.000799693
72 *2833:GATE_N *898:118 0.000813828
73 *2842:D *898:118 0
74 *2844:GATE_N *2507:A2 0.000184533
75 *2906:GATE_N *898:20 3.72916e-05
76 *2913:GATE_N *2564:A2 3.08098e-05
77 *2916:GATE_N *2507:A2 0
78 *2926:D *2454:A2 6.8725e-06
79 *2938:D *898:20 0.000330352
80 *2938:GATE_N *2585:B1 1.03592e-05
81 *2938:GATE_N *898:20 0.000132099
82 *2944:GATE_N *2550:A2 3.17398e-05
83 *2950:GATE_N *2507:A2 0
84 *3044:GATE_N *2507:A2 0
85 *3076:GATE_N *2507:A2 0
86 *3105:A *2507:A2 0.000431486
87 *3151:A *2475:B1 3.87296e-05
88 *3154:A *2550:A2 4.82919e-05
89 *3202:A *898:10 5.54796e-05
90 *377:12 *2475:B1 0.0001453
91 *377:12 *898:50 0.000885317
92 *590:24 *898:50 1.64405e-05
93 *631:18 *2550:A2 3.9141e-05
94 *805:148 *2550:A2 0.00039528
95 *805:148 *898:118 0.000393677
96 *807:18 *898:10 5.54796e-05
97 *807:22 *898:50 8.38703e-05
98 *807:115 *2507:A2 0.00156842
99 *808:14 *2507:A2 2.84067e-05
100 *809:20 *898:93 0
101 *809:20 *898:95 0
102 *809:20 *898:118 0
103 *822:117 *2550:A2 4.50153e-05
104 *823:68 *2507:A2 2.9576e-05
105 *825:18 *2507:A2 0.000111777
106 *825:18 *898:89 2.7693e-05
107 *825:51 *2454:A2 1.2818e-05
108 *828:60 *2507:A2 0.000122234
109 *830:35 *898:89 0.000270771
110 *830:71 *2507:A2 0.00136426
111 *830:71 *898:89 0.000212849
112 *831:28 *2564:A2 0
113 *831:28 *898:31 0
114 *838:70 *2550:A2 3.00381e-05
115 *838:105 *898:118 0.0003106
116 *839:75 *2507:A2 0.000881639
117 *844:10 *2507:A2 1.38718e-05
118 *844:101 *2507:A2 2.82764e-05
119 *852:16 *898:20 8.53113e-06
120 *852:16 *898:31 0
121 *854:25 *898:50 0.000159964
122 *854:42 *898:50 5.16348e-05
123 *861:14 *2507:A2 7.84029e-05
124 *861:79 *2507:A2 4.01535e-05
125 *872:24 *898:50 0.000207516
126 *872:62 *898:118 4.21973e-05
127 *881:57 *2484:B1 6.1994e-05
128 *881:57 *898:93 1.52776e-05
129 *881:57 *898:95 5.42196e-05
130 *892:33 *2585:B1 0
131 *892:33 *898:20 0
132 *892:43 *898:31 0
133 *892:49 *898:50 0.000602644
134 *892:88 *898:118 0
135 *892:121 *2550:A2 5.3653e-05
136 *895:81 *2507:A2 7.89034e-05
*RES
1 *3190:X *898:10 5.3525 
2 *898:10 *898:14 1.00413 
3 *898:14 *898:20 8.4875 
4 *898:20 *2530:A2 2.05 
5 *898:20 *898:31 8.99 
6 *898:31 *2564:A2 5.2575 
7 *898:31 *898:50 23.125 
8 *898:50 *2475:B1 12.0151 
9 *898:50 *2454:A2 3.72375 
10 *898:14 *2585:B1 5.1075 
11 *898:10 *898:89 1.84427 
12 *898:89 *898:93 4.8125 
13 *898:93 *898:95 3.5475 
14 *898:95 *2484:B1 5.1375 
15 *898:95 *898:118 24.2575 
16 *898:118 *2550:A2 16.395 
17 *898:118 *2572:A2 3.6 
18 *898:93 *2539:A2 3.6 
19 *898:89 *2507:A2 37.1105 
*END

*D_NET *899 0.0180592
*CONN
*I *2419:B I *D sky130_fd_sc_hd__nand2_1
*I *2495:B1 I *D sky130_fd_sc_hd__a22o_1
*I *2467:A2 I *D sky130_fd_sc_hd__a22o_1
*I *2618:A2 I *D sky130_fd_sc_hd__a22o_1
*I *2605:B1 I *D sky130_fd_sc_hd__a22o_1
*I *2520:B1 I *D sky130_fd_sc_hd__a221o_1
*I *2596:B1 I *D sky130_fd_sc_hd__a22o_1
*I *3191:X O *D sky130_fd_sc_hd__clkbuf_2
*CAP
1 *2419:B 0.00105426
2 *2495:B1 7.28764e-05
3 *2467:A2 0
4 *2618:A2 2.31531e-05
5 *2605:B1 0.000406541
6 *2520:B1 0.000106834
7 *2596:B1 6.99483e-05
8 *3191:X 0.000107081
9 *899:85 0.00146188
10 *899:52 0.00131464
11 *899:33 0.00118259
12 *899:29 0.00104482
13 *899:23 0.00124729
14 *899:6 0.000235568
15 *2419:B *919:29 3.77368e-05
16 *2419:B *1012:16 0.000224599
17 *2495:B1 *919:29 7.21296e-06
18 *2520:B1 *2520:A2 1.56428e-05
19 *2605:B1 *919:49 3.87901e-05
20 *2605:B1 *933:24 0.000274343
21 *2618:A2 *915:81 4.66108e-05
22 *2618:A2 *919:49 7.96104e-06
23 *2618:A2 *933:24 9.67081e-06
24 *899:29 *2519:B1 0.000134836
25 *899:29 *3206:A 0.00010347
26 *899:29 *912:10 0.000146405
27 *899:29 *912:12 0.000218738
28 *899:29 *929:83 3.85204e-05
29 *899:33 *922:27 0.000353527
30 *899:33 *922:47 6.86767e-05
31 *2466:A1 *2520:B1 1.61696e-05
32 *2466:A1 *899:33 6.3875e-05
33 *2495:A1 *2495:B1 0
34 *2495:B2 *2495:B1 5.04265e-05
35 *2495:B2 *899:85 0.000124895
36 *2594:A1 *899:85 0.000234674
37 *2596:A1 *2596:B1 5.16418e-05
38 *2596:A1 *899:23 0.000175894
39 *2596:A1 *899:29 9.54399e-05
40 *2602:A *899:23 8.97564e-05
41 *2602:A *899:29 0.000230671
42 *2602:C *899:29 4.61178e-05
43 *2619:C1 *2605:B1 7.12477e-05
44 *2624:A *2605:B1 2.66852e-05
45 *2624:A *899:52 0.00122228
46 *2831:GATE_N *899:29 0
47 *2866:D *899:85 0.000351268
48 *2866:GATE_N *899:85 8.67923e-05
49 *2907:GATE_N *899:29 0.000488389
50 *2911:GATE_N *899:29 9.58678e-06
51 *2939:GATE_N *899:29 0.000120345
52 *2943:GATE_N *2520:B1 6.95739e-05
53 *3036:GATE_N *2605:B1 6.63219e-06
54 *3112:A *2419:B 4.88555e-05
55 *3113:A *2419:B 0.000175207
56 *3125:A *2419:B 9.85032e-05
57 *3126:A *2605:B1 0
58 *3128:A *2419:B 0.000139478
59 *3186:A *2520:B1 0.000100134
60 *3186:A *899:33 0.000548799
61 *3190:A *899:29 0
62 *3191:A *2596:B1 1.94805e-05
63 *3203:A *2596:B1 8.23457e-05
64 *3203:A *899:6 0.000239813
65 *3205:A *899:29 6.03407e-05
66 *812:36 *2605:B1 0
67 *826:10 *2419:B 6.66464e-05
68 *828:18 *899:29 6.11658e-05
69 *844:20 *899:52 0.00217628
70 *865:59 *2605:B1 0.00024417
71 *869:10 *2419:B 3.26084e-05
72 *869:19 *2419:B 7.8936e-05
73 *869:19 *899:85 0.000113237
74 *869:29 *2419:B 3.99879e-05
75 *881:31 *2495:B1 0
76 *889:56 *899:23 0
77 *897:47 *2618:A2 4.66108e-05
*RES
1 *3191:X *899:6 3.775 
2 *899:6 *2596:B1 7.01 
3 *899:6 *899:23 4.145 
4 *899:23 *899:29 20.465 
5 *899:29 *899:33 8.6075 
6 *899:33 *2520:B1 5.6625 
7 *899:33 *899:52 4.30093 
8 *899:52 *2605:B1 11.8125 
9 *899:52 *2618:A2 4.2825 
10 *899:29 *2467:A2 1.6 
11 *899:23 *899:85 11.695 
12 *899:85 *2495:B1 4.98 
13 *899:85 *2419:B 23.215 
*END

*D_NET *900 0.0196171
*CONN
*I *2590:A2 I *D sky130_fd_sc_hd__a211o_1
*I *2544:A2 I *D sky130_fd_sc_hd__a211o_1
*I *2533:B1 I *D sky130_fd_sc_hd__a221o_1
*I *2576:B1 I *D sky130_fd_sc_hd__a22o_1
*I *2554:B1 I *D sky130_fd_sc_hd__a22o_1
*I *2455:B1 I *D sky130_fd_sc_hd__a22o_1
*I *2480:A2 I *D sky130_fd_sc_hd__a211o_1
*I *2565:B1 I *D sky130_fd_sc_hd__a22o_1
*I *2489:B1 I *D sky130_fd_sc_hd__a221o_1
*I *2612:A2 I *D sky130_fd_sc_hd__a211o_1
*I *3192:X O *D sky130_fd_sc_hd__clkbuf_4
*CAP
1 *2590:A2 0
2 *2544:A2 0.00014039
3 *2533:B1 0.000457381
4 *2576:B1 0.000162733
5 *2554:B1 0.000209016
6 *2455:B1 0.000728939
7 *2480:A2 0
8 *2565:B1 0.000509817
9 *2489:B1 0.000249136
10 *2612:A2 1.31277e-05
11 *3192:X 0.000110695
12 *900:81 0.000728939
13 *900:79 0.000616879
14 *900:71 0.000679595
15 *900:52 0.00103535
16 *900:48 0.00123141
17 *900:42 0.000684909
18 *900:38 0.000490474
19 *900:21 0.000824716
20 *900:6 0.000395958
21 *2455:B1 *2455:A2 1.06624e-05
22 *2455:B1 *2456:A2 1.2818e-05
23 *2489:B1 *2611:B1 9.61344e-05
24 *2489:B1 *921:26 0.000217399
25 *2489:B1 *923:26 0.000207192
26 *2533:B1 *2587:A2 9.30787e-05
27 *2533:B1 *923:80 8.53113e-06
28 *2544:A2 *904:22 0.000137195
29 *2544:A2 *906:93 4.82919e-05
30 *2554:B1 *2554:A2 7.31574e-05
31 *2554:B1 *904:91 0.000525235
32 *2554:B1 *923:63 1.92979e-05
33 *2554:B1 *928:63 0.000608374
34 *2565:B1 *2565:A2 0.000119242
35 *2576:B1 *2576:A2 5.4155e-06
36 *900:6 *3216:A 0.0001249
37 *900:6 *934:6 1.12578e-05
38 *900:21 *2611:B1 0.000103592
39 *900:21 *2612:C1 4.92971e-05
40 *900:21 *921:26 0.000105712
41 *900:21 *923:16 2.15594e-05
42 *900:21 *923:26 5.72301e-05
43 *900:38 *934:22 0.000277223
44 *900:42 *934:22 7.79931e-05
45 *900:48 *908:34 0
46 *900:52 *904:53 7.89034e-05
47 *900:52 *908:34 0
48 *900:52 *908:62 0
49 *900:52 *908:68 0
50 *900:52 *908:83 0.00033517
51 *900:79 *2480:C1 0
52 *900:79 *908:83 7.59348e-05
53 *900:79 *908:125 4.48373e-06
54 *2455:A1 *2455:B1 1.56428e-05
55 *2456:A1 *2455:B1 8.2334e-05
56 *2456:B2 *2455:B1 1.12643e-05
57 *2456:C1 *2455:B1 0.000271663
58 *2459:A *2554:B1 6.13486e-05
59 *2459:B *2455:B1 6.15324e-05
60 *2459:C *900:79 0.000108257
61 *2480:A1 *900:79 9.50342e-06
62 *2481:A *900:79 4.17687e-05
63 *2481:B *900:79 0.000337531
64 *2481:C *2455:B1 8.65905e-05
65 *2481:C *900:79 8.05007e-05
66 *2489:A1 *2489:B1 9.50342e-06
67 *2536:A *2489:B1 0
68 *2542:B2 *2544:A2 0.000134516
69 *2544:A1 *2544:A2 4.43871e-06
70 *2545:C *2544:A2 6.57653e-06
71 *2554:B2 *2554:B1 4.82919e-05
72 *2565:A1 *2565:B1 2.20014e-05
73 *2569:A *900:52 2.42236e-05
74 *2569:B *900:52 0.000183043
75 *2569:C *900:52 0.000116158
76 *2570:B2 *900:52 0
77 *2576:B2 *2576:B1 6.35016e-05
78 *2576:B2 *900:71 0
79 *2579:B1 *2554:B1 4.99619e-05
80 *2591:A *900:38 0.000419386
81 *2591:C *900:38 1.34503e-05
82 *2611:B2 *900:38 0.00015806
83 *2612:A1 *2612:A2 3.26889e-05
84 *2612:A1 *900:21 8.49205e-05
85 *2612:B1 *900:21 0.00013013
86 *2613:C *900:6 0.000237249
87 *2855:GATE_N *2554:B1 5.05066e-06
88 *2965:D *900:52 0.000112971
89 *2972:GATE_N *900:38 0.000200615
90 *2972:GATE_N *900:42 9.53428e-06
91 *2977:GATE_N *900:79 0.000156098
92 *2983:GATE_N *900:79 8.89829e-05
93 *3002:D *900:48 0.000112123
94 *3002:D *900:52 5.07362e-05
95 *3002:GATE_N *2533:B1 4.80182e-05
96 *3017:D *900:79 8.97642e-05
97 *3192:A *2612:A2 0
98 *3192:A *900:6 0.000141323
99 *3192:A *900:21 9.80943e-06
100 *805:42 *2489:B1 0.000157316
101 *814:37 *2544:A2 4.82919e-05
102 *814:45 *2544:A2 1.8901e-05
103 *814:72 *2565:B1 8.73389e-06
104 *814:72 *2576:B1 0.000173136
105 *814:72 *900:71 4.61857e-05
106 *814:80 *2565:B1 0.00102703
107 *814:110 *900:52 7.47145e-05
108 *814:116 *900:52 3.09233e-05
109 *816:20 *900:48 0
110 *816:38 *2455:B1 0.000160121
111 *816:44 *2455:B1 4.21579e-05
112 *818:56 *900:79 3.84331e-05
113 *820:20 *2533:B1 9.30787e-05
114 *820:104 *900:38 9.80032e-06
115 *820:104 *900:42 0.000203231
116 *820:104 *900:48 0.000223194
117 *831:53 *900:52 5.12017e-06
118 *847:131 *900:21 2.99293e-05
119 *851:53 *2544:A2 9.16314e-05
120 *851:57 *2544:A2 0.000163019
121 *853:65 *900:79 0
122 *862:79 *900:48 4.31189e-05
123 *862:79 *900:52 0.000138777
124 *862:81 *900:52 8.44359e-05
*RES
1 *3192:X *900:6 5.155 
2 *900:6 *2612:A2 1.96 
3 *900:6 *900:21 7.94 
4 *900:21 *2489:B1 10.59 
5 *900:21 *900:38 9.815 
6 *900:38 *900:42 3.915 
7 *900:42 *900:48 8.975 
8 *900:48 *900:52 13.325 
9 *900:52 *2565:B1 12.79 
10 *900:52 *900:71 1.95 
11 *900:71 *900:79 12.605 
12 *900:79 *900:81 2 
13 *900:81 *2480:A2 1.6 
14 *900:81 *2455:B1 13.24 
15 *900:79 *2554:B1 7.2295 
16 *900:71 *2576:B1 5.635 
17 *900:48 *2533:B1 13.315 
18 *900:42 *2544:A2 10.49 
19 *900:38 *2590:A2 1.6 
*END

*D_NET *901 0.0013479
*CONN
*I *2653:A1 I *D sky130_fd_sc_hd__mux2_1
*I *3253:X O *D sky130_fd_sc_hd__clkbuf_1
*CAP
1 *2653:A1 0.000278714
2 *3253:X 0.000278714
3 *2653:A1 *2653:A0 1.7902e-05
4 *2653:A1 *2657:A0 0.00022515
5 *2454:B2 *2653:A1 0.000283133
6 *2459:A *2653:A1 4.66108e-05
7 *2657:S *2653:A1 0.000133465
8 *884:65 *2653:A1 2.49909e-05
9 *884:71 *2653:A1 5.92257e-05
*RES
1 *3253:X *2653:A1 13.905 
*END

*D_NET *902 0.0028182
*CONN
*I *2759:A1 I *D sky130_fd_sc_hd__a221o_1
*I *3254:X O *D sky130_fd_sc_hd__clkbuf_1
*CAP
1 *2759:A1 0.000835432
2 *3254:X 0.000835432
3 *2759:A1 *2759:A2 2.37587e-05
4 *2759:A1 *2759:B2 0.000150959
5 *2759:A1 *3322:A 0.00015858
6 *2759:A1 *1047:123 6.21996e-05
7 PADDR[1] *2759:A1 4.82863e-05
8 arready *2759:A1 0
9 *2444:A *2759:A1 0.000243539
10 *2753:A2 *2759:A1 3.97461e-05
11 *2758:B *2759:A1 3.25831e-05
12 *2759:B1 *2759:A1 2.06762e-05
13 *2759:C1 *2759:A1 4.66108e-05
14 *2760:B2 *2759:A1 5.66699e-05
15 *3267:A *2759:A1 0
16 *3278:A *2759:A1 0
17 *115:22 *2759:A1 9.30787e-05
18 *116:57 *2759:A1 0.000170645
*RES
1 *3254:X *2759:A1 21.93 
*END

*D_NET *903 0.0149909
*CONN
*I *2597:B1 I *D sky130_fd_sc_hd__a22o_1
*I *2417:B I *D sky130_fd_sc_hd__nand2_1
*I *2512:B1 I *D sky130_fd_sc_hd__a22o_1
*I *2502:A2 I *D sky130_fd_sc_hd__a211o_1
*I *2462:B1 I *D sky130_fd_sc_hd__a22o_1
*I *2622:B1 I *D sky130_fd_sc_hd__a22o_1
*I *2521:B1 I *D sky130_fd_sc_hd__a22o_1
*I *3193:X O *D sky130_fd_sc_hd__clkbuf_2
*CAP
1 *2597:B1 1.19549e-05
2 *2417:B 7.63914e-05
3 *2512:B1 0.000514226
4 *2502:A2 0
5 *2462:B1 0.000561451
6 *2622:B1 1.17375e-05
7 *2521:B1 0.00103463
8 *3193:X 0.000124011
9 *903:102 0.000672992
10 *903:91 0.00032998
11 *903:28 0.00121358
12 *903:24 0.00117757
13 *903:18 0.00113514
14 *903:12 0.000574597
15 *2417:B *2413:B 1.19315e-05
16 *2462:B1 *2462:A2 0.00038648
17 *2462:B1 *2622:A2 1.88904e-05
18 *2462:B1 *2623:C1 1.7635e-05
19 *2462:B1 *906:20 1.88602e-05
20 *2512:B1 *2512:A2 0.000235049
21 *2521:B1 *2521:A2 7.29911e-05
22 *2597:B1 *2597:A2 9.53428e-06
23 *903:12 *2597:A2 5.38551e-05
24 *903:12 *3211:A 4.85494e-05
25 *903:18 *2500:A2 4.19797e-05
26 *903:18 *2597:A2 0.000293237
27 *903:18 *3211:A 8.73389e-06
28 *903:18 *907:12 0.000484929
29 *903:24 *2500:A2 8.39677e-05
30 *903:24 *907:12 4.9968e-05
31 *903:24 *909:28 6.36356e-05
32 *903:24 *909:30 0.000136112
33 *903:91 *907:12 1.91597e-05
34 *903:91 *907:14 0.000142798
35 *903:102 *904:16 7.44453e-05
36 *903:102 *907:48 0
37 *2415:A *2417:B 4.82863e-05
38 *2462:B2 *2462:B1 4.21973e-05
39 *2500:A1 *903:91 3.56128e-06
40 *2501:A1 *2512:B1 0.000203178
41 *2502:A1 *903:102 9.50342e-06
42 *2502:C1 *903:91 0
43 *2512:A1 *2512:B1 1.9872e-05
44 *2513:B1 *2512:B1 9.02259e-05
45 *2514:A *2462:B1 0.000282214
46 *2515:B2 *2462:B1 0.000284201
47 *2599:B1 *903:12 4.82863e-05
48 *2622:A1 *2622:B1 2.75229e-05
49 *2850:D *2512:B1 4.66108e-05
50 *2850:D *903:102 0
51 *2852:GATE_N *2521:B1 0.000274468
52 *2991:GATE_N *903:18 0
53 *3007:D *2462:B1 4.82919e-05
54 *3007:GATE_N *2462:B1 3.59784e-05
55 *3007:GATE_N *903:24 7.20129e-05
56 *3019:D *903:18 8.26696e-05
57 *3116:A *2521:B1 0.000244919
58 *3116:A *903:28 0.000469027
59 *3121:A *903:91 4.82863e-05
60 *3132:A *2521:B1 0.000540365
61 *3135:A *2512:B1 0.000352156
62 *3209:A *2462:B1 0.000120655
63 *445:8 *2417:B 0.000105587
64 *819:23 *903:28 0.000158982
65 *821:6 *903:91 0.000194694
66 *821:10 *903:24 0.000372434
67 *832:33 *2521:B1 0.000110153
68 *832:33 *903:28 0.000170469
69 *832:37 *2521:B1 7.47215e-05
70 *834:44 *2622:B1 4.82919e-05
71 *837:27 *2512:B1 7.53809e-05
72 *840:87 *2417:B 4.39849e-05
73 *844:28 *2521:B1 0.000246788
74 *850:61 *903:18 5.34608e-05
75 *875:34 *2462:B1 0.000230429
*RES
1 *3193:X *903:12 4.255 
2 *903:12 *903:18 11.33 
3 *903:18 *903:24 12.605 
4 *903:24 *903:28 7.715 
5 *903:28 *2521:B1 20.67 
6 *903:28 *2622:B1 4.05 
7 *903:24 *2462:B1 15.6559 
8 *903:18 *903:91 6.86 
9 *903:91 *2502:A2 1.6 
10 *903:91 *903:102 5.635 
11 *903:102 *2512:B1 12.445 
12 *903:102 *2417:B 3.80125 
13 *903:12 *2597:B1 1.96 
*END

*D_NET *904 0.0223758
*CONN
*I *2500:B1 I *D sky130_fd_sc_hd__a22o_1
*I *2542:B1 I *D sky130_fd_sc_hd__a22o_1
*I *2589:B1 I *D sky130_fd_sc_hd__a22o_1
*I *2535:A2 I *D sky130_fd_sc_hd__a211o_1
*I *2491:A2 I *D sky130_fd_sc_hd__a211o_1
*I *2554:A2 I *D sky130_fd_sc_hd__a22o_1
*I *2578:B1 I *D sky130_fd_sc_hd__a22o_1
*I *2479:B1 I *D sky130_fd_sc_hd__a22o_1
*I *2455:A2 I *D sky130_fd_sc_hd__a22o_1
*I *2568:A2 I *D sky130_fd_sc_hd__a211o_1
*I *3194:X O *D sky130_fd_sc_hd__clkbuf_4
*CAP
1 *2500:B1 0
2 *2542:B1 5.7067e-05
3 *2589:B1 9.71884e-06
4 *2535:A2 0
5 *2491:A2 0.000816637
6 *2554:A2 0.00014661
7 *2578:B1 6.77972e-05
8 *2479:B1 0
9 *2455:A2 0.000622056
10 *2568:A2 4.20707e-05
11 *3194:X 0.00031808
12 *904:91 0.000622511
13 *904:61 0.000810067
14 *904:53 0.000958916
15 *904:38 0.000826027
16 *904:28 0.00140536
17 *904:24 0.000298266
18 *904:22 0.000785984
19 *904:16 0.00150649
20 *904:10 0.00112193
21 *2491:A2 *2490:A2 1.12578e-05
22 *2491:A2 *2491:C1 0.000158492
23 *2554:A2 *2556:A2 5.39254e-05
24 *2554:A2 *928:59 2.75754e-05
25 *2554:A2 *928:63 8.29922e-05
26 *2568:A2 *2568:C1 3.95698e-05
27 *2578:B1 *923:63 1.7635e-05
28 *2589:B1 *908:28 4.82919e-05
29 *904:10 *925:33 2.75538e-05
30 *904:16 *2415:B 7.16263e-05
31 *904:16 *2609:B1 5.65627e-05
32 *904:22 *908:28 7.04362e-06
33 *904:22 *908:34 0
34 *904:24 *908:28 4.12825e-05
35 *904:24 *908:62 0
36 *904:28 *2534:A2 0.000114492
37 *904:28 *908:68 0
38 *904:38 *2568:C1 0.00037702
39 *904:38 *908:68 9.72182e-05
40 *904:38 *908:83 0
41 *904:53 *2456:B1 7.90733e-05
42 *904:61 *2456:A2 3.27514e-05
43 *904:61 *2456:B1 6.43623e-05
44 *904:61 *2479:A2 0.000117669
45 *904:91 *928:63 0.000149622
46 *2455:A1 *2455:A2 3.13354e-05
47 *2455:B1 *2455:A2 1.06624e-05
48 *2456:A1 *904:61 0
49 *2456:C1 *2455:A2 4.77719e-05
50 *2459:A *2578:B1 1.56428e-05
51 *2479:A1 *904:61 9.28053e-05
52 *2479:B2 *904:61 6.94024e-05
53 *2481:A *904:91 2.77016e-05
54 *2482:B2 *2554:A2 0.000326589
55 *2482:B2 *904:91 0.000451485
56 *2489:B2 *2491:A2 7.35813e-05
57 *2491:B1 *2491:A2 7.54462e-05
58 *2492:A *2491:A2 0
59 *2500:A1 *904:10 2.14129e-05
60 *2500:A1 *904:16 0.000139245
61 *2502:A1 *904:16 3.04359e-05
62 *2535:B1 *904:28 2.15594e-05
63 *2536:B *904:24 0
64 *2542:A1 *2542:B1 6.25449e-05
65 *2542:B2 *904:16 3.09233e-05
66 *2542:B2 *904:22 0.000455366
67 *2544:A2 *904:22 0.000137195
68 *2554:A1 *2554:A2 9.50342e-06
69 *2554:B1 *2554:A2 7.31574e-05
70 *2554:B1 *904:91 0.000525235
71 *2568:A1 *2568:A2 3.26889e-05
72 *2570:B2 *904:38 8.66541e-06
73 *2578:B2 *2578:B1 1.67131e-05
74 *2589:A1 *2589:B1 4.82919e-05
75 *2589:A1 *904:22 8.13092e-05
76 *2591:B *904:22 0.000142037
77 *2860:GATE_N *2542:B1 6.97118e-05
78 *2966:D *904:16 0
79 *2966:D *904:22 0
80 *2967:GATE_N *2554:A2 2.56373e-05
81 *3006:GATE_N *2455:A2 0.000133284
82 *3009:GATE_N *2491:A2 0.000181104
83 *3018:GATE_N *904:22 2.16389e-05
84 *3019:GATE_N *904:10 6.35048e-05
85 *3114:A *904:16 0.0015025
86 *3115:A *904:10 7.4642e-05
87 *3115:A *904:16 0.000334635
88 *3120:A *904:16 0.0014594
89 *3132:A *904:16 0
90 *3194:A *904:10 2.10034e-05
91 *3213:A *904:10 0.000197633
92 *814:12 *904:16 0
93 *814:37 *904:22 2.75707e-05
94 *814:45 *904:22 0
95 *814:66 *904:22 1.77621e-05
96 *814:66 *904:24 0.000112526
97 *814:66 *904:28 0.000151786
98 *814:66 *904:38 0
99 *814:72 *904:38 0
100 *814:110 *904:53 6.45236e-05
101 *814:116 *904:53 0.000802921
102 *814:116 *904:61 2.3531e-05
103 *815:12 *904:10 0.000387985
104 *816:38 *2455:A2 3.50152e-06
105 *816:44 *2455:A2 0.000120919
106 *816:54 *2455:A2 1.94284e-05
107 *816:54 *904:91 0
108 *831:53 *904:53 0.00038133
109 *831:63 *904:53 0.000489651
110 *833:18 *2578:B1 1.7635e-05
111 *836:67 *2455:A2 0.00015466
112 *837:31 *904:16 0
113 *851:57 *904:22 6.36273e-05
114 *861:47 *904:22 0
115 *870:26 *904:10 0
116 *873:50 *2455:A2 1.4399e-05
117 *873:50 *904:61 0.000133662
118 *900:52 *904:53 7.89034e-05
119 *903:102 *904:16 7.44453e-05
*RES
1 *3194:X *904:10 10.59 
2 *904:10 *904:16 25.395 
3 *904:16 *904:22 13.335 
4 *904:22 *904:24 2.4 
5 *904:24 *904:28 5.42 
6 *904:28 *904:38 11.095 
7 *904:38 *2568:A2 2.41 
8 *904:38 *904:53 14.4125 
9 *904:53 *904:61 7.1225 
10 *904:61 *2455:A2 16.61 
11 *904:61 *2479:B1 1.6 
12 *904:53 *904:91 1.7616 
13 *904:91 *2578:B1 5.1425 
14 *904:91 *2554:A2 5.34663 
15 *904:28 *2491:A2 13.135 
16 *904:24 *2535:A2 3.6 
17 *904:22 *2589:B1 4.05 
18 *904:16 *2542:B1 5.1 
19 *904:10 *2500:B1 3.6 
*END

*D_NET *905 0.0155091
*CONN
*I *2599:A2 I *D sky130_fd_sc_hd__a211o_1
*I *2462:A2 I *D sky130_fd_sc_hd__a22o_1
*I *2610:B1 I *D sky130_fd_sc_hd__a221o_1
*I *2524:A2 I *D sky130_fd_sc_hd__a211o_1
*I *2415:B I *D sky130_fd_sc_hd__nand2_1
*I *2510:B1 I *D sky130_fd_sc_hd__a22o_1
*I *2620:B1 I *D sky130_fd_sc_hd__a22o_1
*I *3195:X O *D sky130_fd_sc_hd__clkbuf_2
*CAP
1 *2599:A2 0.000654908
2 *2462:A2 0.000222521
3 *2610:B1 0.000537736
4 *2524:A2 0.000441831
5 *2415:B 0.000212981
6 *2510:B1 0
7 *2620:B1 0
8 *3195:X 0
9 *905:94 0.00108937
10 *905:47 0.000495335
11 *905:33 0.00092914
12 *905:20 0.000617321
13 *905:10 0.000932388
14 *905:6 0.000845813
15 *2415:B *2501:C1 0
16 *2415:B *907:48 0
17 *2415:B *909:66 0.000360988
18 *2462:A2 *2469:A2 2.23922e-05
19 *2462:A2 *3212:A 0.000178041
20 *2462:A2 *906:20 4.23835e-05
21 *2599:A2 *907:12 0.000352349
22 *2599:A2 *938:14 3.05373e-05
23 *2610:B1 *2469:A2 5.23362e-05
24 *2610:B1 *2609:B1 9.0336e-05
25 *2610:B1 *3212:A 0.00035259
26 *2610:B1 *906:20 0
27 *2610:B1 *921:10 0.000127373
28 *2610:B1 *921:14 6.2706e-05
29 *2610:B1 *921:26 0.000130098
30 *2610:B1 *928:14 8.88534e-05
31 *905:20 *2469:A2 1.80164e-05
32 *905:47 *2401:B 1.19928e-05
33 *905:47 *2513:A2 4.66108e-05
34 *905:94 *2469:A2 0.00020419
35 *2462:B1 *2462:A2 0.00038648
36 *2462:B2 *2462:A2 0.000120655
37 *2468:A1 *905:94 2.54522e-05
38 *2468:B2 *905:10 6.28765e-05
39 *2469:A1 *2610:B1 3.23391e-05
40 *2469:B1 *905:94 8.49936e-05
41 *2470:C *2610:B1 7.4027e-05
42 *2510:A1 *905:47 0.000136884
43 *2515:B2 *905:47 1.88904e-05
44 *2524:A1 *2524:A2 3.26889e-05
45 *2597:A1 *2599:A2 4.48319e-05
46 *2610:A1 *2610:B1 0.000135201
47 *2620:A1 *905:20 1.47347e-05
48 *2620:A1 *905:33 0.000127615
49 *2620:B2 *2524:A2 7.63125e-05
50 *2620:B2 *905:33 0.000131409
51 *2624:A *2610:B1 0.000293383
52 *2624:B *2610:B1 5.99925e-05
53 *2625:B2 *2610:B1 2.05641e-05
54 *2850:GATE_N *2415:B 5.4003e-05
55 *2877:GATE_N *2524:A2 0.000116165
56 *2989:D *2524:A2 0.000119212
57 *2989:D *905:33 7.32549e-05
58 *2989:D *905:47 8.65905e-05
59 *2991:D *905:10 0.000198753
60 *3021:GATE_N *2524:A2 0.000181615
61 *3083:D *2599:A2 8.5225e-05
62 *3083:GATE_N *2599:A2 2.68721e-05
63 *3083:GATE_N *905:10 3.38178e-05
64 *3117:A *2599:A2 2.0514e-05
65 *3119:A *2599:A2 0.000222119
66 *3120:A *2524:A2 0
67 *3134:A *2524:A2 3.65695e-05
68 *3134:A *905:47 0.0002497
69 *3135:A *2415:B 0.000180675
70 *3135:A *905:47 6.45236e-05
71 *3192:A *905:10 8.19829e-05
72 *3195:A *2599:A2 0.000487276
73 *3197:A *2599:A2 0.000122337
74 *437:26 *2524:A2 4.17687e-05
75 *817:24 *2599:A2 0.000119163
76 *819:23 *2599:A2 5.34356e-05
77 *819:27 *905:20 4.23703e-05
78 *819:27 *905:94 0
79 *819:35 *905:20 0.000381498
80 *819:35 *905:33 1.48096e-05
81 *832:25 *2415:B 0.000302893
82 *832:33 *2599:A2 4.92128e-05
83 *832:33 *905:10 5.84456e-05
84 *834:8 *2524:A2 0.000199932
85 *837:31 *2415:B 0.000112123
86 *837:31 *2524:A2 6.08246e-05
87 *837:31 *905:47 0
88 *844:56 *2524:A2 8.44437e-05
89 *850:31 *2599:A2 0
90 *850:33 *2599:A2 7.70938e-05
91 *850:57 *2599:A2 2.39856e-05
92 *864:47 *2524:A2 2.8185e-05
93 *870:24 *2599:A2 0.000122337
94 *875:24 *905:20 1.16578e-05
95 *875:24 *905:94 2.05056e-05
96 *875:30 *905:10 0.000112816
97 *875:30 *905:20 4.82919e-05
98 *904:16 *2415:B 7.16263e-05
*RES
1 *3195:X *905:6 3.6 
2 *905:6 *905:10 6.95 
3 *905:10 *905:20 7.755 
4 *905:20 *2620:B1 1.6 
5 *905:20 *905:33 3.69 
6 *905:33 *905:47 11.37 
7 *905:47 *2510:B1 3.6 
8 *905:47 *2415:B 14.755 
9 *905:33 *2524:A2 15.965 
10 *905:10 *905:94 7.91 
11 *905:94 *2610:B1 17.985 
12 *905:94 *2462:A2 9.3 
13 *905:6 *2599:A2 23.335 
*END

*D_NET *906 0.0236239
*CONN
*I *2468:A2 I *D sky130_fd_sc_hd__a221o_1
*I *2543:B1 I *D sky130_fd_sc_hd__a221o_1
*I *2588:B1 I *D sky130_fd_sc_hd__a221o_1
*I *2565:A2 I *D sky130_fd_sc_hd__a22o_1
*I *2457:B1 I *D sky130_fd_sc_hd__a22o_1
*I *2477:B1 I *D sky130_fd_sc_hd__a22o_1
*I *2532:B1 I *D sky130_fd_sc_hd__a22o_1
*I *2490:B1 I *D sky130_fd_sc_hd__a22o_1
*I *2555:B1 I *D sky130_fd_sc_hd__a221o_1
*I *2577:B1 I *D sky130_fd_sc_hd__a221o_1
*I *3196:X O *D sky130_fd_sc_hd__clkbuf_4
*CAP
1 *2468:A2 0
2 *2543:B1 1.26851e-05
3 *2588:B1 0
4 *2565:A2 4.64552e-05
5 *2457:B1 0.000403301
6 *2477:B1 0.000376534
7 *2532:B1 0.000314362
8 *2490:B1 4.06787e-05
9 *2555:B1 0.000804929
10 *2577:B1 0.000345078
11 *3196:X 7.88987e-05
12 *906:116 0.000933488
13 *906:114 0.00071022
14 *906:99 0.00113476
15 *906:93 0.00128891
16 *906:75 0.00145868
17 *906:26 0.00127685
18 *906:22 0.00089077
19 *906:20 0.00202836
20 *906:10 0.000916623
21 *2457:B1 *923:71 0.000134509
22 *2477:B1 *2477:A2 0.000154054
23 *2555:B1 *2555:A2 0.000199833
24 *2555:B1 *923:36 0
25 *2577:B1 *2555:A2 0.00026389
26 *2577:B1 *2576:A2 0.000196376
27 *2577:B1 *928:51 4.94326e-05
28 *906:10 *2395:A 8.21821e-05
29 *906:20 *2395:A 6.8725e-06
30 *906:20 *2609:B1 0
31 *906:20 *3212:A 0
32 *906:20 *921:26 0.000126041
33 *906:22 *2490:A2 0
34 *906:22 *908:12 7.97919e-05
35 *906:22 *921:26 0.000322846
36 *906:22 *923:36 0.000215343
37 *906:26 *923:36 0.000124752
38 *906:75 *2543:A2 2.87433e-05
39 *906:75 *2543:C1 0.000438708
40 *906:75 *928:33 2.67503e-05
41 *906:93 *2543:C1 1.56428e-05
42 *906:93 *2587:A2 0.000117116
43 *906:93 *2587:B1 0
44 *906:93 *2588:A2 5.18317e-06
45 *906:99 *2588:A2 0.000154554
46 *2462:A1 *906:10 0.000250719
47 *2462:A1 *906:20 6.8725e-06
48 *2462:A2 *906:20 4.23835e-05
49 *2462:B1 *906:20 1.88602e-05
50 *2468:A1 *906:20 0.000296329
51 *2468:B2 *906:10 0
52 *2469:A1 *906:20 7.65808e-05
53 *2469:C1 *906:20 2.60908e-05
54 *2477:A1 *2477:B1 2.04902e-05
55 *2478:A1 *2477:B1 0.000371598
56 *2488:A1 *906:22 0.000312077
57 *2489:B2 *906:22 0.000106476
58 *2489:C1 *906:22 4.03082e-05
59 *2490:A1 *906:22 0
60 *2490:A1 *906:26 0
61 *2490:B2 *2490:B1 3.29384e-05
62 *2491:A1 *2490:B1 3.23663e-05
63 *2491:A1 *906:22 0
64 *2532:A1 *2532:B1 2.93678e-05
65 *2533:C1 *2532:B1 1.77611e-05
66 *2543:A1 *906:93 0.000194694
67 *2543:B2 *2543:B1 4.92433e-06
68 *2544:A1 *906:93 9.14049e-05
69 *2544:A2 *906:93 4.82919e-05
70 *2544:B1 *906:93 9.14049e-05
71 *2555:B2 *2555:B1 7.18727e-05
72 *2555:C1 *2555:B1 0
73 *2565:A1 *2565:A2 4.77719e-05
74 *2565:A1 *906:114 2.05583e-05
75 *2565:B1 *2565:A2 0.000119242
76 *2566:C1 *906:114 0.000543977
77 *2566:C1 *906:116 5.39961e-05
78 *2581:B2 *2555:B1 0
79 *2588:B2 *906:99 0
80 *2588:C1 *906:93 3.81244e-05
81 *2588:C1 *906:99 3.60024e-06
82 *2610:B1 *906:20 0
83 *2623:B1 *906:20 0.000134229
84 *2624:A *906:20 0
85 *2624:B *906:20 4.28396e-05
86 *2624:C *906:20 3.24463e-05
87 *2849:GATE_N *2577:B1 9.47454e-05
88 *2853:GATE_N *2532:B1 3.29947e-05
89 *2854:D *906:93 8.65905e-05
90 *2878:GATE_N *2477:B1 3.21081e-06
91 *3000:GATE_N *906:114 4.22574e-05
92 *3004:D *906:75 8.40213e-05
93 *3070:GATE_N *2555:B1 3.96263e-05
94 *3070:GATE_N *906:26 0
95 *3071:GATE_N *906:20 0.00122557
96 *3071:GATE_N *906:22 0.000653191
97 *3134:A *906:93 5.87405e-05
98 *3196:A *906:10 8.65905e-05
99 *3196:A *906:20 4.43871e-06
100 *590:24 *906:22 7.23533e-05
101 *805:78 *906:26 0
102 *814:37 *906:93 0.00030767
103 *816:18 *906:93 4.6608e-05
104 *820:24 *2457:B1 7.09921e-05
105 *831:63 *2477:B1 3.24984e-05
106 *831:69 *2477:B1 0.00022866
107 *836:38 *906:114 0.000584285
108 *836:95 *2457:B1 0.00015639
109 *836:152 *906:93 3.23663e-05
110 *847:51 *906:75 0.000114024
111 *851:53 *906:22 9.82856e-06
112 *855:20 *2490:B1 8.73142e-05
113 *862:35 *2532:B1 1.56428e-05
114 *862:35 *906:99 7.50574e-05
115 *862:43 *906:114 0.000155928
116 *877:68 *2477:B1 8.30853e-06
117 *877:79 *2477:B1 0.000189217
*RES
1 *3196:X *906:10 4.56625 
2 *906:10 *906:20 21.9988 
3 *906:20 *906:22 18.21 
4 *906:22 *906:26 4.655 
5 *906:26 *2577:B1 10.97 
6 *906:26 *2555:B1 17.45 
7 *906:22 *2490:B1 5.1 
8 *906:20 *906:75 10.16 
9 *906:75 *906:93 22.095 
10 *906:93 *906:99 7.25 
11 *906:99 *2532:B1 5.785 
12 *906:99 *906:114 15.11 
13 *906:114 *906:116 2.655 
14 *906:116 *2477:B1 13.35 
15 *906:116 *2457:B1 13.135 
16 *906:114 *2565:A2 4.74 
17 *906:93 *2588:B1 3.6 
18 *906:75 *2543:B1 1.96 
19 *906:10 *2468:A2 1.6 
*END

*D_NET *907 0.0154967
*CONN
*I *2597:A2 I *D sky130_fd_sc_hd__a22o_1
*I *2413:B I *D sky130_fd_sc_hd__nand2_1
*I *2620:A2 I *D sky130_fd_sc_hd__a22o_1
*I *2522:B1 I *D sky130_fd_sc_hd__a221o_1
*I *2609:B1 I *D sky130_fd_sc_hd__a22o_1
*I *2501:B1 I *D sky130_fd_sc_hd__a221o_1
*I *2512:A2 I *D sky130_fd_sc_hd__a22o_1
*I *3197:X O *D sky130_fd_sc_hd__clkbuf_2
*CAP
1 *2597:A2 0.000140303
2 *2413:B 7.8967e-05
3 *2620:A2 0
4 *2522:B1 0.000255936
5 *2609:B1 0.00100078
6 *2501:B1 0
7 *2512:A2 0.000432204
8 *3197:X 0
9 *907:56 0.00183677
10 *907:48 0.00122816
11 *907:16 0.000535371
12 *907:14 0.000931199
13 *907:12 0.000480139
14 *907:6 0.000361548
15 *2512:A2 *2501:C1 8.65961e-05
16 *2522:B1 *2522:A2 6.9114e-05
17 *2597:A2 *3211:A 0.000113542
18 *2597:A2 *938:14 0.000180668
19 *2609:B1 *921:26 5.86739e-05
20 *907:12 *938:14 9.50342e-06
21 *907:16 *2501:A2 1.2818e-05
22 *907:48 *909:30 0
23 *907:48 *929:18 0.000289023
24 *907:48 *936:49 0.000376033
25 *907:56 *909:30 0
26 *2399:A *2413:B 0.000123701
27 *2401:A *907:48 0.000201114
28 *2415:B *907:48 0
29 *2417:B *2413:B 1.19315e-05
30 *2500:A1 *2512:A2 3.07153e-05
31 *2500:A1 *907:14 4.54499e-05
32 *2500:A1 *907:16 3.47997e-05
33 *2501:B2 *2512:A2 2.66464e-05
34 *2502:C1 *907:14 2.68526e-05
35 *2502:C1 *907:16 5.83121e-06
36 *2503:D *907:12 0.00025697
37 *2503:D *907:14 0.00015639
38 *2512:B1 *2512:A2 0.000235049
39 *2522:C1 *2522:B1 0.00014969
40 *2525:B *2522:B1 7.08882e-05
41 *2542:A1 *2609:B1 8.8266e-05
42 *2597:B1 *2597:A2 9.53428e-06
43 *2599:A2 *907:12 0.000352349
44 *2610:B1 *2609:B1 9.0336e-05
45 *2621:B2 *907:56 9.10513e-05
46 *2621:C1 *907:56 0.000136877
47 *2622:A1 *907:56 0
48 *2622:B2 *907:56 0
49 *2850:D *907:48 0.000137578
50 *2850:GATE_N *907:48 1.94723e-05
51 *2860:D *2609:B1 2.49909e-05
52 *2860:GATE_N *2609:B1 0.00019745
53 *2978:GATE_N *2512:A2 7.89767e-05
54 *3021:D *907:56 0.000157595
55 *3114:A *2609:B1 4.9968e-05
56 *3114:A *907:48 7.00327e-05
57 *3114:A *907:56 0.000225691
58 *3118:A *907:48 0.000267992
59 *3119:A *2413:B 3.18113e-06
60 *3119:A *907:12 6.90055e-05
61 *3121:A *2413:B 0.000123701
62 *3121:A *907:14 4.82863e-05
63 *3132:A *2609:B1 0
64 *3132:A *907:56 0
65 *445:8 *2413:B 3.18857e-05
66 *580:16 *2522:B1 0.000497665
67 *821:6 *907:12 0.000230429
68 *821:10 *907:12 2.92496e-05
69 *832:47 *2522:B1 0.0010616
70 *837:31 *907:48 8.52744e-05
71 *840:59 *907:48 4.9968e-05
72 *844:45 *907:56 0.000201114
73 *847:57 *2609:B1 0.000113247
74 *903:12 *2597:A2 5.38551e-05
75 *903:18 *2597:A2 0.000293237
76 *903:18 *907:12 0.000484929
77 *903:24 *907:12 4.9968e-05
78 *903:91 *907:12 1.91597e-05
79 *903:91 *907:14 0.000142798
80 *903:102 *907:48 0
81 *904:16 *2609:B1 5.65627e-05
82 *906:20 *2609:B1 0
*RES
1 *3197:X *907:6 3.6 
2 *907:6 *907:12 10.745 
3 *907:12 *907:14 3.9 
4 *907:14 *907:16 1.485 
5 *907:16 *2512:A2 13.31 
6 *907:16 *2501:B1 1.6 
7 *907:14 *907:48 19.455 
8 *907:48 *907:56 11.4 
9 *907:56 *2609:B1 21.07 
10 *907:56 *2522:B1 14.34 
11 *907:48 *2620:A2 3.6 
12 *907:12 *2413:B 7.7525 
13 *907:6 *2597:A2 8.385 
*END

*D_NET *908 0.0202685
*CONN
*I *2611:B1 I *D sky130_fd_sc_hd__a22o_1
*I *2488:B1 I *D sky130_fd_sc_hd__a22o_1
*I *2534:B1 I *D sky130_fd_sc_hd__a22o_1
*I *2557:A2 I *D sky130_fd_sc_hd__a211o_1
*I *2579:A2 I *D sky130_fd_sc_hd__a211o_1
*I *2477:A2 I *D sky130_fd_sc_hd__a22o_1
*I *2458:A2 I *D sky130_fd_sc_hd__a211o_1
*I *2567:B1 I *D sky130_fd_sc_hd__a22o_1
*I *2542:A2 I *D sky130_fd_sc_hd__a22o_1
*I *2587:B1 I *D sky130_fd_sc_hd__a22o_1
*I *3198:X O *D sky130_fd_sc_hd__clkbuf_4
*CAP
1 *2611:B1 0.000120995
2 *2488:B1 0
3 *2534:B1 0
4 *2557:A2 0.000698099
5 *2579:A2 1.85694e-05
6 *2477:A2 0.000604241
7 *2458:A2 0
8 *2567:B1 0.000319578
9 *2542:A2 0.000359471
10 *2587:B1 0.00103553
11 *3198:X 0
12 *908:125 0.00109547
13 *908:85 0.000664762
14 *908:83 0.000863831
15 *908:68 0.000991494
16 *908:62 0.000422552
17 *908:34 0.00193759
18 *908:28 0.0013594
19 *908:12 0.000972637
20 *908:4 0.000451964
21 *2477:A2 *2458:C1 9.21168e-05
22 *2557:A2 *2555:A2 6.8725e-06
23 *2611:B1 *921:26 0.0002014
24 *908:28 *923:36 5.83121e-06
25 *908:62 *2534:A2 1.73877e-05
26 *908:68 *2534:A2 4.18603e-06
27 *908:83 *934:70 0.000137571
28 *908:85 *2458:C1 0.000232105
29 *908:125 *2579:C1 0.000198051
30 *2456:B2 *2477:A2 8.09157e-05
31 *2459:C *908:85 2.16917e-05
32 *2459:C *908:125 0.000171511
33 *2477:A1 *2477:A2 3.13354e-05
34 *2477:B1 *2477:A2 0.000154054
35 *2481:A *908:125 5.53249e-06
36 *2481:B *908:83 0.000186635
37 *2481:C *908:83 4.43871e-06
38 *2489:B1 *2611:B1 9.61344e-05
39 *2534:B2 *908:68 0.000149108
40 *2535:B1 *908:62 6.20952e-05
41 *2536:A *908:28 0.000247621
42 *2536:B *908:28 0.000137279
43 *2536:B *908:34 6.24571e-05
44 *2542:B2 *2542:A2 0
45 *2544:B1 *2542:A2 0.000116747
46 *2545:C *2542:A2 6.32637e-06
47 *2555:A1 *2557:A2 3.48638e-05
48 *2555:B2 *2557:A2 1.34967e-05
49 *2555:C1 *2557:A2 0.000148596
50 *2557:A1 *2557:A2 7.82661e-05
51 *2568:B1 *2567:B1 0.000237243
52 *2569:A *908:68 0
53 *2569:B *908:62 0
54 *2569:C *2567:B1 8.40269e-05
55 *2569:C *908:68 1.16578e-05
56 *2570:B2 *908:68 8.41703e-06
57 *2570:B2 *908:83 0
58 *2579:A1 *2579:A2 9.53428e-06
59 *2579:A1 *908:125 3.74359e-05
60 *2580:C *2557:A2 4.3807e-05
61 *2589:A1 *908:28 3.518e-05
62 *2589:B1 *908:28 4.82919e-05
63 *2589:B2 *908:28 4.43467e-05
64 *2590:B1 *908:28 4.82919e-05
65 *2591:A *908:12 8.39965e-05
66 *2591:B *908:34 0.000360611
67 *2591:C *908:12 0
68 *2592:B2 *908:12 1.37226e-05
69 *2611:A1 *2611:B1 4.21973e-05
70 *2870:GATE_N *2611:B1 0.000230435
71 *2887:GATE_N *2557:A2 3.00381e-05
72 *2890:GATE_N *2587:B1 0
73 *2965:D *2567:B1 0.000238919
74 *2967:GATE_N *2557:A2 0.000151541
75 *2967:GATE_N *908:125 0.000601497
76 *2977:GATE_N *908:83 0
77 *2993:GATE_N *908:12 0
78 *2998:D *908:34 0.000112097
79 *3002:D *908:34 5.65266e-05
80 *3017:D *908:83 0.000162332
81 *3018:GATE_N *908:34 0.000136182
82 *3071:GATE_N *908:12 0.000118513
83 *3132:A *2542:A2 2.96383e-05
84 *814:37 *908:34 7.47145e-05
85 *814:116 *908:83 0.000300407
86 *816:20 *908:34 0
87 *820:30 *2477:A2 0.000234234
88 *820:73 *2477:A2 0.000195928
89 *820:73 *908:85 0.000245556
90 *820:73 *908:125 0.000155707
91 *831:63 *2477:A2 1.7592e-05
92 *847:131 *2611:B1 0.000132663
93 *853:67 *908:125 1.93834e-05
94 *861:14 *2542:A2 0.000374972
95 *861:14 *2587:B1 0.000100383
96 *861:18 *908:34 7.5157e-05
97 *900:21 *2611:B1 0.000103592
98 *900:48 *908:34 0
99 *900:52 *908:34 0
100 *900:52 *908:62 0
101 *900:52 *908:68 0
102 *900:52 *908:83 0.00033517
103 *900:79 *908:83 7.59348e-05
104 *900:79 *908:125 4.48373e-06
105 *904:22 *908:28 7.04362e-06
106 *904:22 *908:34 0
107 *904:24 *908:28 4.12825e-05
108 *904:24 *908:62 0
109 *904:28 *908:68 0
110 *904:38 *908:68 9.72182e-05
111 *904:38 *908:83 0
112 *906:22 *908:12 7.97919e-05
113 *906:93 *2587:B1 0
*RES
1 *3198:X *908:4 1.6 
2 *908:4 *908:12 9.34 
3 *908:12 *908:28 13.7075 
4 *908:28 *908:34 12.965 
5 *908:34 *2587:B1 7.33523 
6 *908:34 *2542:A2 7.1899 
7 *908:28 *908:62 2.7825 
8 *908:62 *908:68 6.83 
9 *908:68 *2567:B1 7.57 
10 *908:68 *908:83 16.195 
11 *908:83 *908:85 2.52 
12 *908:85 *2458:A2 1.6 
13 *908:85 *2477:A2 12.28 
14 *908:83 *908:125 13.885 
15 *908:125 *2579:A2 1.96 
16 *908:125 *2557:A2 13.885 
17 *908:62 *2534:B1 3.6 
18 *908:12 *2488:B1 1.6 
19 *908:4 *2611:B1 10.175 
*END

*D_NET *909 0.0136115
*CONN
*I *2598:A2 I *D sky130_fd_sc_hd__a221o_1
*I *2500:A2 I *D sky130_fd_sc_hd__a22o_1
*I *2411:B I *D sky130_fd_sc_hd__nand2_1
*I *2510:A2 I *D sky130_fd_sc_hd__a22o_1
*I *2523:B1 I *D sky130_fd_sc_hd__a22o_1
*I *2469:A2 I *D sky130_fd_sc_hd__a211o_1
*I *2621:B1 I *D sky130_fd_sc_hd__a221o_1
*I *3199:X O *D sky130_fd_sc_hd__clkbuf_2
*CAP
1 *2598:A2 0.000118127
2 *2500:A2 0.000312853
3 *2411:B 0
4 *2510:A2 1.17375e-05
5 *2523:B1 0.000565565
6 *2469:A2 0.000721345
7 *2621:B1 9.03083e-05
8 *3199:X 0.000609899
9 *909:66 0.000763394
10 *909:60 0.000364532
11 *909:30 0.00111359
12 *909:28 0.00055609
13 *909:26 0.000679481
14 *909:18 0.00101895
15 *2500:A2 *925:33 7.03824e-05
16 *2510:A2 *936:49 2.75229e-05
17 *2523:B1 *2524:C1 0.000329659
18 *2523:B1 *922:87 8.3326e-05
19 *2523:B1 *925:86 0.000291358
20 *909:18 *2400:C 8.65961e-05
21 *909:18 *2424:B 2.0514e-05
22 *909:18 *2424:D 3.37248e-05
23 *909:18 *2598:C1 0.000253423
24 *909:18 *947:14 0.000182184
25 *909:18 *947:34 2.97204e-05
26 *909:66 *2501:C1 7.36562e-05
27 *909:66 *2524:C1 1.1561e-05
28 *2411:A *909:60 4.95661e-05
29 *2415:B *909:66 0.000360988
30 *2462:A2 *2469:A2 2.23922e-05
31 *2469:A1 *2469:A2 7.47284e-05
32 *2500:B2 *2500:A2 0
33 *2502:B1 *2500:A2 5.5201e-05
34 *2503:D *2598:A2 7.92917e-05
35 *2503:D *909:18 5.13792e-05
36 *2510:A1 *2523:B1 0.000113125
37 *2510:A1 *909:66 4.43871e-06
38 *2510:B2 *2510:A2 4.82919e-05
39 *2511:C1 *2523:B1 0.000113797
40 *2523:A1 *2523:B1 8.80293e-06
41 *2598:B2 *2598:A2 0.000102788
42 *2598:B2 *909:18 4.21973e-05
43 *2610:B1 *2469:A2 5.23362e-05
44 *2621:B2 *2621:B1 4.43871e-06
45 *2621:C1 *2621:B1 4.71081e-05
46 *2852:GATE_N *2523:B1 1.05476e-05
47 *2980:GATE_N *2523:B1 0
48 *2991:GATE_N *2500:A2 0.000323285
49 *2991:GATE_N *909:28 0.00016979
50 *2991:GATE_N *909:30 0.000137578
51 *2996:GATE_N *2523:B1 0
52 *3003:GATE_N *2500:A2 3.73413e-05
53 *3083:D *909:26 1.83847e-05
54 *3083:GATE_N *2598:A2 4.66108e-05
55 *3083:GATE_N *909:26 6.47951e-05
56 *3118:A *909:30 8.27335e-05
57 *3119:A *909:26 0.000233004
58 *3121:A *909:60 0.000153816
59 *3131:A *909:60 1.08758e-05
60 *3131:A *909:66 0.000251114
61 *3199:A *909:18 2.49909e-05
62 *3304:A *909:18 0.000137571
63 *3308:A *909:18 0.000124895
64 *445:8 *909:26 6.62095e-05
65 *815:38 *2523:B1 0.000572708
66 *817:28 *2500:A2 2.0514e-05
67 *819:27 *2469:A2 0.000108886
68 *819:35 *2469:A2 0.000235568
69 *821:10 *2621:B1 0
70 *821:10 *909:30 0
71 *821:16 *2621:B1 0
72 *821:18 *2523:B1 0.000258374
73 *821:22 *2523:B1 7.1528e-05
74 *832:25 *909:60 2.59835e-05
75 *832:25 *909:66 8.82557e-05
76 *840:44 *909:60 3.96653e-05
77 *840:46 *909:60 6.00111e-05
78 *850:57 *2500:A2 3.64998e-06
79 *875:24 *2469:A2 1.34503e-05
80 *875:30 *2469:A2 2.11084e-05
81 *903:18 *2500:A2 4.19797e-05
82 *903:24 *2500:A2 8.39677e-05
83 *903:24 *909:28 6.36356e-05
84 *903:24 *909:30 0.000136112
85 *905:20 *2469:A2 1.80164e-05
86 *905:94 *2469:A2 0.00020419
87 *907:48 *909:30 0
88 *907:56 *909:30 0
*RES
1 *3199:X *909:18 16.445 
2 *909:18 *909:26 7.055 
3 *909:26 *909:28 2.145 
4 *909:28 *909:30 6.48 
5 *909:30 *2621:B1 5.235 
6 *909:30 *2469:A2 17.2 
7 *909:28 *909:60 5.57 
8 *909:60 *909:66 8.135 
9 *909:66 *2523:B1 23.545 
10 *909:66 *2510:A2 4.05 
11 *909:60 *2411:B 1.6 
12 *909:26 *2500:A2 10.89 
13 *909:18 *2598:A2 4.8175 
*END

*D_NET *910 0.00490816
*CONN
*I *3198:A I *D sky130_fd_sc_hd__clkbuf_4
*I *3304:X O *D sky130_fd_sc_hd__clkbuf_1
*CAP
1 *3198:A 0.00111259
2 *3304:X 0.00111259
3 *3198:A *3210:A 0.00167609
4 *3198:A *3216:A 0
5 *3198:A *921:26 0
6 *3198:A *923:16 0.000122584
7 *3198:A *923:26 5.85162e-05
8 *2591:A *3198:A 0.0001249
9 *2611:B2 *3198:A 0.000183445
10 *2911:GATE_N *3198:A 0.000517452
11 *3034:GATE_N *3198:A 0
12 *3208:A *3198:A 0
*RES
1 *3304:X *3198:A 33.945 
*END

*D_NET *911 0.0263364
*CONN
*I *2607:A2 I *D sky130_fd_sc_hd__a22o_1
*I *2529:A2 I *D sky130_fd_sc_hd__a221o_1
*I *2583:A2 I *D sky130_fd_sc_hd__a22o_1
*I *2562:A2 I *D sky130_fd_sc_hd__a221o_1
*I *2573:B1 I *D sky130_fd_sc_hd__a221o_1
*I *2451:A2 I *D sky130_fd_sc_hd__a22o_1
*I *2473:A2 I *D sky130_fd_sc_hd__a22o_1
*I *2551:A2 I *D sky130_fd_sc_hd__a221o_1
*I *2486:B1 I *D sky130_fd_sc_hd__a22o_1
*I *2466:B1 I *D sky130_fd_sc_hd__a221o_1
*I *3200:X O *D sky130_fd_sc_hd__clkbuf_4
*CAP
1 *2607:A2 2.08101e-05
2 *2529:A2 0.000876091
3 *2583:A2 0
4 *2562:A2 0.000908522
5 *2573:B1 1.85694e-05
6 *2451:A2 9.55956e-05
7 *2473:A2 0.000672174
8 *2551:A2 0
9 *2486:B1 0.000856438
10 *2466:B1 0.000124425
11 *3200:X 0
12 *911:159 0.00104014
13 *911:131 0.00101625
14 *911:92 0.00129129
15 *911:78 0.000850138
16 *911:72 0.00125018
17 *911:54 0.00144272
18 *911:46 0.000814109
19 *911:25 0.00291858
20 *911:4 0.00164634
21 *2466:B1 *2465:B1 9.02803e-05
22 *2466:B1 *2466:A2 1.2818e-05
23 *2466:B1 *922:47 4.41506e-05
24 *2473:A2 *2559:A2 0.000305834
25 *2486:B1 *2563:A2 2.75145e-05
26 *2486:B1 *916:19 4.18603e-06
27 *2486:B1 *916:32 0
28 *2486:B1 *918:25 0.0007169
29 *2486:B1 *918:29 2.50049e-05
30 *2529:A2 *2605:A2 0
31 *2562:A2 *2655:A1 0.000124413
32 *911:25 *2540:A2 5.92824e-05
33 *911:25 *914:118 0.00017076
34 *911:72 *2655:A0 0
35 *911:72 *932:70 0
36 *911:92 *2460:A2 1.38011e-05
37 *911:92 *2559:A2 2.04563e-05
38 *911:131 *2573:A2 1.2818e-05
39 *2451:B1 *2451:A2 4.87465e-06
40 *2452:B1 *911:92 0.000489178
41 *2452:C1 *911:92 0
42 *2473:A1 *2473:A2 9.14314e-05
43 *2473:B1 *2473:A2 5.53249e-06
44 *2473:B2 *2473:A2 0
45 *2474:B1 *2473:A2 2.4361e-05
46 *2474:C1 *2473:A2 0
47 *2484:B2 *2486:B1 0
48 *2486:B2 *2486:B1 5.53249e-06
49 *2529:B1 *2529:A2 0.00101251
50 *2539:B2 *2486:B1 0
51 *2539:B2 *911:25 0
52 *2541:A1 *911:25 5.68936e-05
53 *2551:B1 *2451:A2 0.000162575
54 *2551:B1 *2473:A2 1.27748e-05
55 *2551:B1 *911:92 1.88658e-05
56 *2553:B1 *2486:B1 2.97004e-06
57 *2559:B1 *2473:A2 5.38886e-05
58 *2559:B1 *911:92 2.53806e-05
59 *2562:A1 *2562:A2 5.20437e-05
60 *2562:B1 *2562:A2 2.49909e-05
61 *2562:B2 *2562:A2 0.000286055
62 *2563:B2 *2486:B1 4.7043e-05
63 *2570:B2 *911:72 0
64 *2572:B2 *911:72 0
65 *2573:A1 *911:72 0.000117009
66 *2573:A1 *911:131 5.89614e-05
67 *2573:B2 *2562:A2 3.68519e-05
68 *2573:B2 *2573:B1 9.53428e-06
69 *2573:B2 *911:131 2.54522e-05
70 *2581:B1 *911:78 0.000165299
71 *2581:B1 *911:92 2.8531e-05
72 *2581:B1 *911:131 8.40269e-05
73 *2581:B2 *911:72 0
74 *2581:B2 *911:92 1.88602e-05
75 *2583:A1 *2529:A2 9.16315e-05
76 *2583:B2 *911:54 1.71013e-05
77 *2583:B2 *911:72 0.000152667
78 *2584:C1 *2529:A2 0
79 *2831:GATE_N *911:25 3.00381e-05
80 *2832:D *2473:A2 0.000272978
81 *2841:D *911:72 0.00012792
82 *2841:D *911:78 0.000291715
83 *2841:D *911:92 0.000187749
84 *2841:GATE_N *911:92 5.19629e-05
85 *2842:D *911:72 0.000133737
86 *2895:D *911:25 9.27276e-05
87 *2902:D *911:25 0
88 *2905:D *911:72 0
89 *2922:GATE_N *911:54 0.000132089
90 *2922:GATE_N *911:72 0.000162325
91 *2934:GATE_N *911:25 0
92 *2942:GATE_N *911:92 0
93 *2953:D *911:72 0
94 *3030:D *2486:B1 0
95 *3030:GATE_N *2486:B1 0
96 *3039:GATE_N *911:25 3.84431e-05
97 *3040:GATE_N *2562:A2 0
98 *3064:D *2486:B1 0.000387003
99 *3149:A *911:72 0.000134517
100 *3153:A *2486:B1 0.000199833
101 *3159:A *2486:B1 0
102 *379:10 *911:72 0.000100487
103 *805:12 *2486:B1 0.000135533
104 *805:148 *2562:A2 0.000608349
105 *811:26 *2529:A2 0.000160439
106 *811:143 *911:72 0
107 *822:59 *911:78 0
108 *826:26 *911:25 3.9389e-05
109 *827:62 *2562:A2 3.38425e-05
110 *827:62 *911:131 7.79847e-05
111 *829:37 *911:25 0
112 *830:31 *911:25 0
113 *838:40 *2562:A2 0.000348152
114 *838:44 *2562:A2 0.000187766
115 *838:54 *2473:A2 3.11262e-05
116 *852:40 *911:72 0
117 *854:79 *911:72 4.11335e-06
118 *856:12 *2486:B1 1.4389e-05
119 *856:60 *911:72 7.18452e-06
120 *858:15 *2451:A2 0.000387891
121 *860:34 *2607:A2 0
122 *860:34 *911:46 0.000523248
123 *860:34 *911:54 9.01757e-05
124 *860:36 *911:46 0.000273878
125 *860:65 *2486:B1 0
126 *874:24 *2473:A2 2.0514e-05
127 *875:122 *2466:B1 4.99619e-05
128 *875:122 *911:25 0.000238562
129 *881:57 *2486:B1 0
130 *894:37 *2486:B1 1.65105e-05
131 *896:33 *911:54 0
132 *896:40 *2529:A2 4.82863e-05
133 *896:40 *911:159 4.21973e-05
134 *898:118 *911:72 0
*RES
1 *3200:X *911:4 1.6 
2 *911:4 *2466:B1 4.135 
3 *911:4 *911:25 24.65 
4 *911:25 *2486:B1 26.155 
5 *911:25 *911:46 11.765 
6 *911:46 *911:54 6.17 
7 *911:54 *911:72 17.7657 
8 *911:72 *911:78 4.23 
9 *911:78 *911:92 12.0837 
10 *911:92 *2551:A2 1.6 
11 *911:92 *2473:A2 16.3363 
12 *911:78 *2451:A2 7.515 
13 *911:72 *911:131 4.175 
14 *911:131 *2573:B1 1.96 
15 *911:131 *2562:A2 24.8188 
16 *911:54 *911:159 4.535 
17 *911:159 *2583:A2 1.6 
18 *911:159 *2529:A2 21.4438 
19 *911:46 *2607:A2 1.96 
*END

*D_NET *912 0.0165352
*CONN
*I *2601:B1 I *D sky130_fd_sc_hd__a221o_1
*I *2499:B1 I *D sky130_fd_sc_hd__a22o_1
*I *2508:B1 I *D sky130_fd_sc_hd__a22o_1
*I *2617:A2 I *D sky130_fd_sc_hd__a221o_1
*I *2547:B1 I *D sky130_fd_sc_hd__a221o_1
*I *2409:B I *D sky130_fd_sc_hd__nand2_1
*I *2519:B1 I *D sky130_fd_sc_hd__a22o_1
*I *3201:X O *D sky130_fd_sc_hd__clkbuf_2
*CAP
1 *2601:B1 0
2 *2499:B1 0
3 *2508:B1 4.18159e-05
4 *2617:A2 7.50458e-06
5 *2547:B1 0.00059058
6 *2409:B 6.37488e-05
7 *2519:B1 0.000582298
8 *3201:X 0.000122983
9 *912:62 0.000752163
10 *912:58 0.00101416
11 *912:43 0.00201907
12 *912:27 0.00133423
13 *912:12 0.000857084
14 *912:10 0.000200594
15 *2519:B1 *2519:A2 0.000101174
16 *2547:B1 *2518:A2 0
17 *2617:A2 *917:90 2.91343e-05
18 *912:27 *2499:A2 0.000835605
19 *912:43 *2464:A2 4.53578e-05
20 *912:62 *2508:A2 0
21 *2499:B2 *912:27 4.66108e-05
22 *2508:A1 *2508:B1 0.000124007
23 *2508:A1 *912:58 0
24 *2508:B2 *912:62 1.70935e-05
25 *2509:A1 *912:43 4.66108e-05
26 *2509:C1 *2508:B1 6.69341e-05
27 *2509:C1 *912:43 0.000233378
28 *2509:C1 *912:58 0.00103122
29 *2517:A1 *2547:B1 1.73877e-05
30 *2518:C1 *2547:B1 9.34411e-05
31 *2547:A1 *2547:B1 0.000272313
32 *2548:B1 *2547:B1 2.23342e-05
33 *2548:B2 *2547:B1 0
34 *2614:B2 *2519:B1 0.000342867
35 *2617:A1 *2617:A2 2.91343e-05
36 *2625:B1 *2547:B1 0.000164746
37 *2844:GATE_N *2547:B1 0.000409872
38 *2931:D *912:43 0.000319835
39 *2939:GATE_N *2519:B1 0.000461468
40 *2939:GATE_N *912:10 6.11203e-05
41 *2939:GATE_N *912:12 0.000193748
42 *3129:A *912:43 0.000198155
43 *3145:A *2519:B1 0.000161623
44 *3160:A *2519:B1 0.000330842
45 *3188:A *912:43 2.75473e-05
46 *3190:A *2519:B1 0
47 *671:26 *2547:B1 0
48 *806:48 *2409:B 5.07545e-05
49 *808:80 *912:27 9.09288e-05
50 *812:55 *2519:B1 1.17114e-05
51 *812:76 *2519:B1 0.000784156
52 *823:8 *912:27 0.000158445
53 *823:20 *912:27 2.20732e-05
54 *829:37 *2519:B1 0
55 *830:6 *912:43 0.000165471
56 *838:28 *2547:B1 8.11436e-05
57 *838:28 *912:62 2.46007e-05
58 *838:34 *2547:B1 0.00013752
59 *839:79 *2547:B1 0.00065276
60 *865:21 *2547:B1 0.000149759
61 *865:25 *2547:B1 0.000160658
62 *866:41 *912:10 4.56148e-05
63 *893:37 *912:10 0.000121541
64 *893:97 *2409:B 0.000108259
65 *899:29 *2519:B1 0.000134836
66 *899:29 *912:10 0.000146405
67 *899:29 *912:12 0.000218738
*RES
1 *3201:X *912:10 6.63 
2 *912:10 *912:12 2.655 
3 *912:12 *2519:B1 20.43 
4 *912:12 *912:27 9.695 
5 *912:27 *912:43 19.615 
6 *912:43 *2409:B 6.98 
7 *912:43 *912:58 10.815 
8 *912:58 *912:62 4.655 
9 *912:62 *2547:B1 21.555 
10 *912:62 *2617:A2 3.8775 
11 *912:58 *2508:B1 3.085 
12 *912:27 *2499:B1 1.6 
13 *912:10 *2601:B1 3.6 
*END

*D_NET *913 0.00128846
*CONN
*I *2660:A1 I *D sky130_fd_sc_hd__mux2_1
*I *3255:X O *D sky130_fd_sc_hd__clkbuf_1
*CAP
1 *2660:A1 0.000279589
2 *3255:X 0.000279589
3 *2660:A1 *2660:A0 0.000134938
4 *2660:A1 *2661:A1 0.000247143
5 PSEL4 *2660:A1 0.000100909
6 *3255:A *2660:A1 0.000129063
7 *3256:A *2660:A1 9.83495e-05
8 *3311:A *2660:A1 1.8884e-05
*RES
1 *3255:X *2660:A1 15.09 
*END

*D_NET *914 0.0223813
*CONN
*I *2606:A2 I *D sky130_fd_sc_hd__a221o_1
*I *2528:A2 I *D sky130_fd_sc_hd__a22o_1
*I *2561:B1 I *D sky130_fd_sc_hd__a22o_1
*I *2540:B1 I *D sky130_fd_sc_hd__a221o_1
*I *2585:A2 I *D sky130_fd_sc_hd__a22o_1
*I *2487:A2 I *D sky130_fd_sc_hd__a221o_1
*I *2574:A2 I *D sky130_fd_sc_hd__a22o_1
*I *2453:B1 I *D sky130_fd_sc_hd__a22o_1
*I *2552:B1 I *D sky130_fd_sc_hd__a22o_1
*I *2476:A2 I *D sky130_fd_sc_hd__a221o_1
*I *3202:X O *D sky130_fd_sc_hd__clkbuf_4
*CAP
1 *2606:A2 2.10093e-05
2 *2528:A2 0
3 *2561:B1 0.000328569
4 *2540:B1 1.86927e-05
5 *2585:A2 0.000289932
6 *2487:A2 8.4196e-06
7 *2574:A2 2.53735e-05
8 *2453:B1 0.000743307
9 *2552:B1 0
10 *2476:A2 0.000326501
11 *3202:X 6.42573e-05
12 *914:157 0.000727646
13 *914:151 0.0017522
14 *914:118 0.00165097
15 *914:95 0.00105227
16 *914:22 0.000413589
17 *914:18 0.00121311
18 *914:16 0.000741683
19 *914:10 0.000534106
20 *914:6 0.000718529
21 *2453:B1 *2453:A2 2.71759e-05
22 *2476:A2 *918:55 7.46142e-05
23 *2561:B1 *2474:A2 2.0851e-06
24 *2561:B1 *2655:A1 3.00381e-05
25 *2561:B1 *916:111 0
26 *2561:B1 *916:115 1.81525e-05
27 *2585:A2 *2540:A2 0.000107905
28 *2585:A2 *918:124 0.00012669
29 *914:10 *918:10 0.000196384
30 *914:95 *918:109 0
31 *914:118 *2540:A2 0.000470227
32 *914:118 *918:124 0.000257037
33 *914:151 *2509:A2 4.69668e-05
34 *914:151 *2608:A2 2.8185e-05
35 *2453:A1 *2453:B1 0
36 *2454:C1 *2453:B1 5.83121e-06
37 *2476:B1 *2476:A2 2.8531e-05
38 *2476:C1 *2476:A2 9.58678e-06
39 *2481:A *2476:A2 0.000762674
40 *2482:B2 *2476:A2 0.000740897
41 *2486:A1 *914:16 1.07797e-05
42 *2507:A2 *914:157 0
43 *2528:A1 *2561:B1 0.000264936
44 *2528:B2 *2561:B1 0
45 *2529:B1 *914:157 0.000120655
46 *2529:C1 *914:157 4.66742e-05
47 *2540:B2 *914:151 1.12643e-05
48 *2541:A1 *914:118 2.75919e-05
49 *2541:B2 *914:118 0.000110399
50 *2548:B1 *914:151 0.000732984
51 *2562:B1 *2561:B1 0
52 *2564:C1 *2487:A2 2.87433e-05
53 *2574:A1 *2574:A2 4.99619e-05
54 *2574:B1 *2574:A2 4.82863e-05
55 *2574:B2 *914:16 8.53113e-06
56 *2574:B2 *914:18 0.000114492
57 *2586:C1 *2585:A2 4.82919e-05
58 *2605:B2 *914:151 0
59 *2606:A1 *914:157 9.07407e-05
60 *2606:B1 *2606:A2 2.0851e-06
61 *2608:B2 *914:151 8.53411e-06
62 *2655:S *2561:B1 0.000148611
63 *2870:GATE_N *914:95 0
64 *2900:GATE_N *914:95 0
65 *2902:GATE_N *914:95 0
66 *2903:D *2476:A2 3.60648e-06
67 *2903:D *914:18 8.53692e-05
68 *2903:D *914:22 3.501e-05
69 *2926:D *2453:B1 1.5186e-05
70 *2937:GATE_N *2453:B1 4.82863e-05
71 *2942:GATE_N *2476:A2 7.93076e-08
72 *3030:D *914:95 0
73 *3036:GATE_N *914:151 0
74 *3046:GATE_N *2561:B1 0.000328392
75 *3046:GATE_N *914:157 7.3664e-05
76 *3047:GATE_N *914:22 0
77 *3084:D *914:151 3.45331e-05
78 *3124:A *914:157 0
79 *3157:A *914:157 3.29689e-05
80 *3159:A *2476:A2 3.16707e-06
81 *3159:A *914:95 3.03775e-05
82 *3186:A *2585:A2 0.000238214
83 *3186:A *914:95 4.40414e-05
84 *3202:A *914:6 2.75229e-05
85 *381:18 *914:10 0.000113595
86 *381:18 *914:16 0
87 *381:18 *914:18 0
88 *551:40 *2561:B1 0.000132713
89 *807:18 *914:118 5.6361e-05
90 *807:115 *914:151 3.25568e-05
91 *807:119 *914:157 0.000484941
92 *809:111 *2561:B1 3.23391e-05
93 *809:115 *2561:B1 0.000158297
94 *811:52 *914:16 0.000263269
95 *825:41 *914:10 0.000546324
96 *825:41 *914:16 0.000126679
97 *825:43 *914:16 0.000338739
98 *825:43 *914:18 0.000146779
99 *825:51 *2453:B1 0.000316477
100 *825:51 *914:18 4.21008e-05
101 *825:51 *914:22 1.02346e-05
102 *825:61 *2453:B1 0
103 *829:37 *914:95 0
104 *830:71 *914:151 3.82072e-05
105 *830:90 *914:151 4.2021e-05
106 *847:131 *914:118 4.78992e-05
107 *847:131 *914:151 0.000138801
108 *848:16 *914:151 0.000121437
109 *852:16 *914:6 0.000192125
110 *852:16 *914:95 0.000118081
111 *854:42 *2574:A2 0.000124895
112 *858:34 *2453:B1 2.96426e-05
113 *861:14 *2606:A2 8.41015e-06
114 *861:14 *914:151 0.000748195
115 *861:14 *914:157 5.28846e-05
116 *861:79 *914:157 0
117 *863:8 *914:6 3.89025e-05
118 *863:38 *914:6 8.73389e-06
119 *863:38 *914:95 6.07575e-06
120 *871:10 *914:10 3.60648e-05
121 *871:10 *914:16 1.82476e-05
122 *872:18 *2487:A2 2.87433e-05
123 *894:29 *914:95 0.000433372
124 *894:112 *914:118 0.000220671
125 *894:112 *914:151 0.00037319
126 *894:127 *914:151 0.000140911
127 *894:142 *2561:B1 4.43871e-06
128 *894:142 *914:157 0
129 *911:25 *914:118 0.00017076
*RES
1 *3202:X *914:6 3.43 
2 *914:6 *914:10 8.48 
3 *914:10 *914:16 7.38 
4 *914:16 *914:18 7.5 
5 *914:18 *914:22 1.32 
6 *914:22 *2476:A2 7.98382 
7 *914:22 *2552:B1 3.6 
8 *914:18 *2453:B1 17.485 
9 *914:16 *2574:A2 4.74 
10 *914:10 *2487:A2 3.8775 
11 *914:6 *914:95 12.895 
12 *914:95 *2585:A2 7.705 
13 *914:95 *914:118 13.945 
14 *914:118 *2540:B1 1.96 
15 *914:118 *914:151 24.3076 
16 *914:151 *914:157 11.2775 
17 *914:157 *2561:B1 14.315 
18 *914:157 *2528:A2 1.6 
19 *914:151 *2606:A2 3.95625 
*END

*D_NET *915 0.0169004
*CONN
*I *2407:B I *D sky130_fd_sc_hd__nand2_1
*I *2616:B1 I *D sky130_fd_sc_hd__a22o_1
*I *2464:B1 I *D sky130_fd_sc_hd__a221o_1
*I *2520:A2 I *D sky130_fd_sc_hd__a221o_1
*I *2509:B1 I *D sky130_fd_sc_hd__a221o_1
*I *2498:B1 I *D sky130_fd_sc_hd__a221o_1
*I *2594:B1 I *D sky130_fd_sc_hd__a22o_1
*I *3203:X O *D sky130_fd_sc_hd__clkbuf_2
*CAP
1 *2407:B 2.23244e-05
2 *2616:B1 0.000435843
3 *2464:B1 0
4 *2520:A2 0.000786202
5 *2509:B1 0.000241947
6 *2498:B1 0
7 *2594:B1 0.000228769
8 *3203:X 0
9 *915:81 0.00135958
10 *915:54 0.00128854
11 *915:48 0.00152947
12 *915:33 0.000795338
13 *915:27 0.00140863
14 *915:4 0.00144015
15 *2509:B1 *2509:A2 6.52551e-05
16 *2509:B1 *2639:A 1.88904e-05
17 *2509:B1 *919:49 0.000292156
18 *2509:B1 *962:16 6.85516e-05
19 *2520:A2 *2509:A2 0.000110784
20 *2520:A2 *919:51 0.000313857
21 *2594:B1 *919:29 1.83847e-05
22 *2616:B1 *917:79 0.000133821
23 *2616:B1 *962:16 2.02679e-05
24 *915:27 *919:29 4.85494e-05
25 *915:27 *1012:16 0.000283909
26 *915:33 *2498:A2 0.000218091
27 *915:33 *1012:16 0.000220863
28 *915:48 *1012:16 0
29 *915:54 *962:16 2.19179e-05
30 *915:81 *919:49 0.000133007
31 *2419:A *2407:B 2.49909e-05
32 *2423:A *2509:B1 4.74827e-05
33 *2463:A1 *2520:A2 0.000270415
34 *2463:B1 *2520:A2 4.47125e-05
35 *2464:B2 *915:81 6.48748e-05
36 *2464:C1 *2520:A2 0.000238137
37 *2497:B1 *915:48 5.06699e-05
38 *2497:B2 *915:48 0
39 *2498:B2 *915:33 6.22219e-05
40 *2498:B2 *915:48 4.99619e-05
41 *2503:B *915:33 0.000162311
42 *2520:B1 *2520:A2 1.56428e-05
43 *2520:B2 *2520:A2 1.12643e-05
44 *2526:B2 *2520:A2 0.000165471
45 *2594:A1 *2594:B1 9.5433e-05
46 *2617:C1 *2616:B1 0
47 *2618:A2 *915:81 4.66108e-05
48 *2895:D *2520:A2 8.49205e-05
49 *2895:GATE_N *2520:A2 8.8266e-05
50 *2899:GATE_N *915:48 0.000231564
51 *2932:GATE_N *2520:A2 0.000598435
52 *3037:GATE_N *915:54 0.000349189
53 *3109:A *915:48 0
54 *3113:A *915:27 0.00096564
55 *3122:A *2509:B1 0.000153816
56 *3124:A *915:48 0
57 *3126:A *2509:B1 0.000247102
58 *3126:A *915:54 1.88904e-05
59 *3126:A *915:81 0.000265557
60 *3188:A *2520:A2 0
61 *441:10 *2407:B 4.66108e-05
62 *580:16 *2520:A2 2.62192e-05
63 *811:10 *915:48 3.1922e-05
64 *811:26 *915:48 0.000395242
65 *839:75 *915:48 0
66 *841:17 *2407:B 1.22619e-05
67 *841:21 *915:33 0.000223334
68 *881:31 *2594:B1 0
69 *889:56 *2594:B1 0
70 *893:63 *915:48 9.14098e-06
71 *893:97 *915:48 0.000168553
72 *897:47 *915:81 0.000128445
*RES
1 *3203:X *915:4 1.6 
2 *915:4 *2594:B1 9.47 
3 *915:4 *915:27 20.4425 
4 *915:27 *915:33 7.5575 
5 *915:33 *2498:B1 1.6 
6 *915:33 *915:48 17.155 
7 *915:48 *915:54 7.8575 
8 *915:54 *2509:B1 10.6575 
9 *915:54 *915:81 11.9825 
10 *915:81 *2520:A2 23.3638 
11 *915:81 *2464:B1 1.6 
12 *915:48 *2616:B1 6.895 
13 *915:27 *2407:B 4.1925 
*END

*D_NET *916 0.0237091
*CONN
*I *2605:A2 I *D sky130_fd_sc_hd__a22o_1
*I *2584:A2 I *D sky130_fd_sc_hd__a221o_1
*I *2547:A2 I *D sky130_fd_sc_hd__a221o_1
*I *2561:A2 I *D sky130_fd_sc_hd__a22o_1
*I *2474:A2 I *D sky130_fd_sc_hd__a221o_1
*I *2553:A2 I *D sky130_fd_sc_hd__a221o_1
*I *2453:A2 I *D sky130_fd_sc_hd__a22o_1
*I *2575:A2 I *D sky130_fd_sc_hd__a221o_1
*I *2486:A2 I *D sky130_fd_sc_hd__a22o_1
*I *2531:B1 I *D sky130_fd_sc_hd__a221o_1
*I *3204:X O *D sky130_fd_sc_hd__clkbuf_4
*CAP
1 *2605:A2 0.000630857
2 *2584:A2 0
3 *2547:A2 0.000637275
4 *2561:A2 0
5 *2474:A2 0.00105147
6 *2553:A2 0.000141463
7 *2453:A2 0.000152953
8 *2575:A2 0
9 *2486:A2 9.79255e-06
10 *2531:B1 6.54435e-05
11 *3204:X 0
12 *916:115 0.00114888
13 *916:111 0.00120849
14 *916:103 0.000672729
15 *916:95 0.00164623
16 *916:50 0.000648762
17 *916:32 0.00101931
18 *916:19 0.000813331
19 *916:15 0.00147904
20 *916:4 0.000306539
21 *2531:B1 *2531:A2 0.000140589
22 *2605:A2 *2614:A2 1.73877e-05
23 *2605:A2 *932:49 7.9642e-06
24 *916:15 *2531:A2 0.000348704
25 *916:15 *918:21 0.00018927
26 *916:95 *2484:A2 0.000198162
27 *916:95 *918:21 8.82557e-05
28 *916:103 *932:49 0.000180789
29 *2453:B1 *2453:A2 2.71759e-05
30 *2454:B1 *2453:A2 0
31 *2474:A1 *2474:A2 0.000381979
32 *2484:B2 *916:95 8.49205e-05
33 *2486:B1 *916:19 4.18603e-06
34 *2486:B1 *916:32 0
35 *2486:B2 *916:19 0
36 *2487:C1 *2486:A2 2.75145e-05
37 *2487:C1 *916:19 0.000138222
38 *2529:A1 *2547:A2 0
39 *2529:A2 *2605:A2 0
40 *2531:B2 *2531:B1 5.4155e-06
41 *2536:A *2531:B1 4.66108e-05
42 *2537:B1 *2547:A2 9.44791e-05
43 *2537:B2 *916:95 3.84812e-05
44 *2547:B2 *2547:A2 4.43527e-05
45 *2553:A1 *2553:A2 8.47373e-05
46 *2553:B2 *2553:A2 1.12643e-05
47 *2553:C1 *2553:A2 0.000193801
48 *2553:C1 *916:50 2.59981e-05
49 *2558:A *2553:A2 1.91597e-05
50 *2558:A *916:50 0.00065928
51 *2560:B *2474:A2 2.76991e-05
52 *2561:A1 *2474:A2 9.17274e-05
53 *2561:B1 *2474:A2 2.0851e-06
54 *2561:B1 *916:111 0
55 *2561:B1 *916:115 1.81525e-05
56 *2562:B1 *916:111 3.90266e-05
57 *2575:A1 *916:50 5.0234e-05
58 *2575:B1 *916:50 5.77162e-05
59 *2575:B2 *2453:A2 2.97004e-06
60 *2575:B2 *916:50 2.49764e-05
61 *2575:C1 *916:50 0.000267846
62 *2583:A1 *916:95 4.99619e-05
63 *2583:B2 *916:95 4.94474e-05
64 *2584:B1 *916:103 2.52672e-05
65 *2584:B1 *916:111 0
66 *2584:B2 *916:103 1.19081e-05
67 *2584:B2 *916:111 0
68 *2584:C1 *2605:A2 0.000252582
69 *2584:C1 *916:103 0.000180688
70 *2592:B1 *916:111 4.71333e-05
71 *2606:C1 *2605:A2 8.49834e-05
72 *2614:A1 *2605:A2 0.000473167
73 *2655:S *916:111 0.000141483
74 *2655:S *916:115 0.000137571
75 *2844:D *2605:A2 0
76 *2919:D *916:50 7.92997e-05
77 *2921:D *2453:A2 4.43871e-06
78 *2937:GATE_N *2453:A2 0.000131334
79 *2944:GATE_N *2474:A2 0
80 *2952:GATE_N *2474:A2 0.000176715
81 *2952:GATE_N *2547:A2 3.64998e-06
82 *2952:GATE_N *916:115 0.000136418
83 *2954:D *916:95 0.000353049
84 *3030:GATE_N *916:19 1.79483e-05
85 *3040:D *2474:A2 0.000115779
86 *3040:GATE_N *2474:A2 0.000361254
87 *3040:GATE_N *2547:A2 4.66108e-05
88 *3040:GATE_N *916:111 2.92496e-05
89 *3040:GATE_N *916:115 3.32209e-05
90 *3045:D *916:111 0.000458392
91 *3050:GATE_N *916:95 0.000159313
92 *3054:GATE_N *916:50 0.00023434
93 *3063:GATE_N *2474:A2 0
94 *3084:GATE_N *2605:A2 0.000336626
95 *3151:A *916:32 0
96 *3151:A *916:50 0
97 *3153:A *2486:A2 4.99619e-05
98 *3167:A *916:19 0
99 *3167:A *916:95 0.000120655
100 *385:8 *916:19 0
101 *385:8 *916:32 0.00027188
102 *385:8 *916:50 1.07797e-05
103 *805:12 *916:95 0.000439452
104 *805:34 *2531:B1 0.000149007
105 *805:34 *916:15 0.000108761
106 *807:121 *2474:A2 0
107 *809:20 *916:95 8.247e-05
108 *811:36 *916:19 0.00035996
109 *825:43 *916:32 0
110 *825:61 *2453:A2 4.99619e-05
111 *830:71 *2605:A2 5.14158e-05
112 *838:34 *2547:A2 0
113 *838:40 *2547:A2 0
114 *852:47 *916:95 0.000308037
115 *856:12 *916:19 3.98757e-05
116 *858:34 *2453:A2 0.000160635
117 *859:24 *2553:A2 0.000329981
118 *859:24 *916:32 9.50342e-06
119 *859:24 *916:50 0.00018214
120 *860:34 *2605:A2 0
121 *865:59 *2605:A2 0.000120655
122 *872:12 *916:15 9.02174e-05
123 *872:12 *916:95 0.000162941
124 *874:53 *2474:A2 6.97034e-05
125 *884:20 *2547:A2 0.000656688
126 *892:39 *2531:B1 4.04579e-05
127 *892:86 *916:95 0.000207064
128 *894:37 *916:32 0
129 *894:127 *2605:A2 4.49415e-05
130 *896:33 *2605:A2 0
131 *896:44 *2605:A2 0.000111096
132 *896:48 *2605:A2 7.5326e-05
*RES
1 *3204:X *916:4 1.6 
2 *916:4 *2531:B1 4.135 
3 *916:4 *916:15 6.315 
4 *916:15 *916:19 10.01 
5 *916:19 *2486:A2 4.05 
6 *916:19 *916:32 6.765 
7 *916:32 *916:50 14.9038 
8 *916:50 *2575:A2 1.6 
9 *916:50 *2453:A2 9.08 
10 *916:32 *2553:A2 7.99875 
11 *916:15 *916:95 21.455 
12 *916:95 *916:103 6.26375 
13 *916:103 *916:111 10.6362 
14 *916:111 *916:115 2.85 
15 *916:115 *2474:A2 21.4688 
16 *916:115 *2561:A2 3.6 
17 *916:111 *2547:A2 20.0425 
18 *916:103 *2584:A2 1.6 
19 *916:95 *2605:A2 18.615 
*END

*D_NET *917 0.0179821
*CONN
*I *2405:B I *D sky130_fd_sc_hd__nand2_1
*I *2508:A2 I *D sky130_fd_sc_hd__a22o_1
*I *2518:A2 I *D sky130_fd_sc_hd__a221o_1
*I *2616:A2 I *D sky130_fd_sc_hd__a22o_1
*I *2497:A2 I *D sky130_fd_sc_hd__a22o_1
*I *2595:A2 I *D sky130_fd_sc_hd__a221o_1
*I *2465:B1 I *D sky130_fd_sc_hd__a22o_1
*I *3205:X O *D sky130_fd_sc_hd__clkbuf_2
*CAP
1 *2405:B 0.000259038
2 *2508:A2 0.000135796
3 *2518:A2 0.000329445
4 *2616:A2 1.88809e-05
5 *2497:A2 0
6 *2595:A2 0
7 *2465:B1 0.00152125
8 *3205:X 0
9 *917:90 0.000616523
10 *917:79 0.000603964
11 *917:73 0.000921602
12 *917:62 0.00104223
13 *917:8 0.00164578
14 *917:4 0.000938
15 *2465:B1 *2464:A2 0.000698082
16 *2465:B1 *2465:A2 3.2379e-05
17 *2465:B1 *2466:A2 1.2818e-05
18 *2465:B1 *2471:A2 0.000645712
19 *2465:B1 *919:35 0
20 *2465:B1 *922:47 3.18601e-05
21 *2465:B1 *933:82 7.37496e-05
22 *2508:A2 *2515:A2 0
23 *917:62 *933:10 8.35106e-05
24 *917:79 *962:16 0.000177127
25 *917:79 *962:60 0.000111924
26 *917:90 *962:60 0.00064497
27 *2465:A1 *2465:B1 4.42526e-05
28 *2466:B1 *2465:B1 9.02803e-05
29 *2466:B2 *2465:B1 2.48591e-05
30 *2466:C1 *2465:B1 4.82919e-05
31 *2470:A *2465:B1 0.000121815
32 *2471:A1 *2465:B1 0.000163199
33 *2496:B2 *2465:B1 0
34 *2497:A1 *917:62 4.49367e-05
35 *2497:B2 *917:62 0.000201508
36 *2503:A *917:62 5.83121e-06
37 *2503:B *917:62 0.000116622
38 *2504:B1 *917:62 9.387e-06
39 *2506:B1 *917:73 0
40 *2507:B1 *917:62 8.52545e-05
41 *2507:B1 *917:73 6.12852e-05
42 *2508:B2 *2508:A2 0
43 *2518:C1 *2518:A2 0
44 *2547:B1 *2518:A2 0
45 *2595:A1 *2465:B1 0.00013062
46 *2595:A1 *917:8 2.90881e-05
47 *2595:B1 *2465:B1 3.86161e-05
48 *2595:B1 *917:8 0.000124488
49 *2603:B1 *2465:B1 0
50 *2603:B2 *2465:B1 5.81098e-05
51 *2616:B1 *917:79 0.000133821
52 *2617:A1 *2518:A2 9.54399e-05
53 *2617:A1 *917:90 0.000140986
54 *2617:A2 *917:90 2.91343e-05
55 *2617:B1 *917:90 4.78603e-05
56 *2617:B2 *917:90 2.49708e-05
57 *2617:C1 *2616:A2 5.4155e-06
58 *2617:C1 *917:90 0.000120655
59 *2625:B1 *2518:A2 0
60 *2625:B2 *2518:A2 3.15789e-05
61 *2914:D *917:62 0.000190569
62 *2939:GATE_N *2465:B1 0.00015639
63 *3058:D *917:62 4.34827e-05
64 *3111:A *2405:B 1.88602e-05
65 *3112:A *917:62 3.93354e-06
66 *3112:A *917:73 5.39961e-05
67 *3124:A *917:73 0.000320218
68 *3124:A *917:79 0.000530342
69 *3143:A *2518:A2 0.000269059
70 *3143:A *917:90 4.77719e-05
71 *3188:A *2465:B1 0
72 *382:10 *2518:A2 0.000116853
73 *477:30 *917:62 8.51879e-05
74 *498:16 *2465:B1 8.26048e-06
75 *498:16 *917:8 0.00010698
76 *651:26 *2465:B1 8.50807e-05
77 *671:26 *2518:A2 4.18203e-05
78 *806:10 *917:73 6.15576e-06
79 *806:12 *2405:B 0.000382631
80 *806:14 *2405:B 0.000322163
81 *808:20 *917:73 0
82 *808:20 *917:79 0
83 *808:22 *917:79 0
84 *808:54 *2405:B 0.000119751
85 *811:10 *917:73 2.76356e-05
86 *826:26 *2465:B1 0.000614071
87 *828:48 *917:62 0.00015639
88 *830:31 *2465:B1 9.1566e-05
89 *839:16 *2465:B1 6.16226e-06
90 *839:50 *917:62 5.02221e-05
91 *839:75 *917:62 3.68828e-05
92 *845:8 *2518:A2 3.78981e-05
93 *865:6 *2518:A2 8.26048e-06
94 *869:66 *917:62 5.38192e-05
95 *869:74 *917:62 1.99427e-05
96 *875:122 *2465:B1 0.000247017
97 *893:59 *2405:B 0.000421434
98 *897:29 *917:8 0.000260427
99 *897:29 *917:62 7.67415e-06
100 *897:97 *917:62 0.00046026
101 *912:62 *2508:A2 0
*RES
1 *3205:X *917:4 1.6 
2 *917:4 *917:8 3.89625 
3 *917:8 *2465:B1 36.3988 
4 *917:8 *2595:A2 1.6 
5 *917:4 *917:62 19.54 
6 *917:62 *2497:A2 1.6 
7 *917:62 *917:73 6.8525 
8 *917:73 *917:79 12.2525 
9 *917:79 *2616:A2 1.96 
10 *917:79 *917:90 7.97 
11 *917:90 *2518:A2 10.5037 
12 *917:90 *2508:A2 5.745 
13 *917:73 *2405:B 5.9193 
*END

*D_NET *918 0.022289
*CONN
*I *2509:A2 I *D sky130_fd_sc_hd__a221o_1
*I *2541:B1 I *D sky130_fd_sc_hd__a22o_1
*I *2586:A2 I *D sky130_fd_sc_hd__a221o_1
*I *2484:A2 I *D sky130_fd_sc_hd__a22o_1
*I *2563:A2 I *D sky130_fd_sc_hd__a22o_1
*I *2573:A2 I *D sky130_fd_sc_hd__a221o_1
*I *2452:A2 I *D sky130_fd_sc_hd__a221o_1
*I *2552:A2 I *D sky130_fd_sc_hd__a22o_1
*I *2475:A2 I *D sky130_fd_sc_hd__a22o_1
*I *2531:A2 I *D sky130_fd_sc_hd__a221o_1
*I *3206:X O *D sky130_fd_sc_hd__clkbuf_4
*CAP
1 *2509:A2 0.00143984
2 *2541:B1 1.43655e-05
3 *2586:A2 5.1006e-05
4 *2484:A2 0.000103728
5 *2563:A2 2.61849e-05
6 *2573:A2 0.000623056
7 *2452:A2 0
8 *2552:A2 0.000167382
9 *2475:A2 0.00029725
10 *2531:A2 0.000103403
11 *3206:X 0
12 *918:124 0.00203424
13 *918:109 0.000780589
14 *918:55 0.00101121
15 *918:42 0.000555532
16 *918:29 0.000763047
17 *918:25 0.000735815
18 *918:21 0.000493236
19 *918:10 0.000403332
20 *918:6 0.000303804
21 *2475:A2 *2646:A0 0.000157714
22 *2475:A2 *2654:A0 0
23 *2509:A2 *2608:A2 7.79304e-05
24 *2509:A2 *933:18 0.000241638
25 *2573:A2 *2460:A2 8.53113e-06
26 *2573:A2 *2655:A0 0.00013521
27 *2573:A2 *932:70 0.000354222
28 *2573:A2 *932:72 0.000125603
29 *918:10 *3206:A 3.25831e-05
30 *918:109 *3206:A 2.05571e-05
31 *2423:A *2509:A2 0.000105235
32 *2452:B1 *2573:A2 0.000115621
33 *2452:B2 *2573:A2 8.53411e-06
34 *2464:C1 *2509:A2 5.40271e-05
35 *2476:A2 *918:55 7.46142e-05
36 *2476:B2 *918:29 0.000115253
37 *2476:B2 *918:55 7.73007e-05
38 *2476:C1 *2475:A2 0.000157015
39 *2476:C1 *918:29 8.69417e-06
40 *2484:B2 *2484:A2 8.49205e-05
41 *2486:B1 *2563:A2 2.75145e-05
42 *2486:B1 *918:25 0.0007169
43 *2486:B1 *918:29 2.50049e-05
44 *2503:C *2509:A2 2.09316e-05
45 *2509:B1 *2509:A2 6.52551e-05
46 *2520:A2 *2509:A2 0.000110784
47 *2531:B1 *2531:A2 0.000140589
48 *2541:A1 *2509:A2 2.02553e-05
49 *2541:A1 *2541:B1 1.20741e-05
50 *2541:A1 *918:124 2.0514e-05
51 *2545:B *2509:A2 1.1392e-05
52 *2553:B1 *918:29 0
53 *2553:B2 *918:29 7.60809e-05
54 *2553:C1 *2552:A2 6.15324e-05
55 *2564:C1 *918:25 0.000332414
56 *2573:A1 *2573:A2 1.2818e-05
57 *2585:A2 *918:124 0.00012669
58 *2586:B1 *2586:A2 0.000102263
59 *2646:A1 *2475:A2 0
60 *2841:D *2573:A2 0.000373292
61 *2926:D *2552:A2 0.00046681
62 *2926:D *918:55 0.000561733
63 *2942:GATE_N *2573:A2 6.9114e-05
64 *2942:GATE_N *918:55 0.00019171
65 *3030:GATE_N *918:25 0
66 *3036:GATE_N *2509:A2 0
67 *3052:GATE_N *2509:A2 8.49205e-05
68 *3068:D *2509:A2 8.08153e-06
69 *3108:A *2509:A2 0
70 *3110:A *2509:A2 1.26626e-05
71 *3122:A *2509:A2 0.000618679
72 *3129:A *2509:A2 0.000132942
73 *3145:A *918:109 0.000159697
74 *3145:A *918:124 0.000105856
75 *3167:A *2484:A2 3.57349e-05
76 *3167:A *918:21 8.49205e-05
77 *3167:A *918:25 0.000115796
78 *3186:A *2586:A2 4.66108e-05
79 *3186:A *918:124 9.28053e-05
80 *3188:A *2509:A2 0
81 *3214:A *2509:A2 0.000106067
82 *381:18 *918:10 0.000398706
83 *381:18 *918:109 0.000134861
84 *385:8 *2475:A2 0.000258863
85 *385:8 *918:25 7.71211e-05
86 *385:8 *918:29 0.000901024
87 *807:18 *2509:A2 2.02487e-05
88 *807:18 *918:124 5.35181e-06
89 *807:115 *2509:A2 0.000197683
90 *822:39 *2509:A2 0.00015639
91 *823:8 *2509:A2 5.41776e-05
92 *825:41 *918:10 9.05649e-05
93 *825:41 *918:109 8.73125e-05
94 *825:51 *2552:A2 7.00889e-06
95 *847:131 *2586:A2 0.000173733
96 *859:24 *2573:A2 8.40269e-05
97 *859:56 *2573:A2 1.16578e-05
98 *881:39 *2509:A2 0
99 *881:57 *2509:A2 0
100 *892:39 *2531:A2 3.90291e-05
101 *892:86 *2484:A2 0.000421062
102 *892:86 *2531:A2 0.000231012
103 *892:86 *918:21 0.000572603
104 *894:29 *918:109 1.63407e-05
105 *911:131 *2573:A2 1.2818e-05
106 *914:10 *918:10 0.000196384
107 *914:95 *918:109 0
108 *914:118 *918:124 0.000257037
109 *914:151 *2509:A2 4.69668e-05
110 *916:15 *2531:A2 0.000348704
111 *916:15 *918:21 0.00018927
112 *916:95 *2484:A2 0.000198162
113 *916:95 *918:21 8.82557e-05
*RES
1 *3206:X *918:6 3.6 
2 *918:6 *918:10 6.695 
3 *918:10 *2531:A2 6.0175 
4 *918:10 *918:21 5.64 
5 *918:21 *918:25 10.52 
6 *918:25 *918:29 11.265 
7 *918:29 *2475:A2 10.11 
8 *918:29 *918:42 2 
9 *918:42 *2552:A2 6.205 
10 *918:42 *918:55 9.2625 
11 *918:55 *2452:A2 1.6 
12 *918:55 *2573:A2 22.1812 
13 *918:25 *2563:A2 4.05 
14 *918:21 *2484:A2 5.86 
15 *918:6 *918:109 3.675 
16 *918:109 *2586:A2 5.2575 
17 *918:109 *918:124 10.0437 
18 *918:124 *2541:B1 2.06875 
19 *918:124 *2509:A2 34.5163 
*END

*D_NET *919 0.0175268
*CONN
*I *2403:B I *D sky130_fd_sc_hd__nand2_1
*I *2498:A2 I *D sky130_fd_sc_hd__a221o_1
*I *2619:A2 I *D sky130_fd_sc_hd__a221o_1
*I *2463:A2 I *D sky130_fd_sc_hd__a22o_1
*I *2519:A2 I *D sky130_fd_sc_hd__a22o_1
*I *2608:A2 I *D sky130_fd_sc_hd__a221o_1
*I *2596:A2 I *D sky130_fd_sc_hd__a22o_1
*I *3207:X O *D sky130_fd_sc_hd__buf_2
*CAP
1 *2403:B 3.82646e-05
2 *2498:A2 0.000245367
3 *2619:A2 2.98529e-05
4 *2463:A2 0
5 *2519:A2 0.000416729
6 *2608:A2 0.000536449
7 *2596:A2 4.50753e-05
8 *3207:X 0.000400908
9 *919:55 0.00111436
10 *919:51 0.000428824
11 *919:49 0.00121511
12 *919:35 0.00176945
13 *919:29 0.00115066
14 *919:14 0.000951906
15 *919:49 *2504:A2 0.00012106
16 *919:49 *933:24 0.00026288
17 *2419:B *919:29 3.77368e-05
18 *2423:A *919:49 0.000172844
19 *2463:A1 *919:55 9.50342e-06
20 *2463:B1 *919:51 0.000687527
21 *2464:C1 *919:51 6.27029e-05
22 *2465:B1 *919:35 0
23 *2495:B1 *919:29 7.21296e-06
24 *2495:B2 *919:29 0.000104176
25 *2495:B2 *919:35 8.7152e-06
26 *2498:B2 *2498:A2 0.000107418
27 *2503:B *2498:A2 8.1871e-05
28 *2504:A1 *919:49 0.000124191
29 *2504:B1 *2403:B 6.97118e-05
30 *2509:A2 *2608:A2 7.79304e-05
31 *2509:B1 *919:49 0.000292156
32 *2519:B1 *2519:A2 0.000101174
33 *2520:A2 *919:51 0.000313857
34 *2520:C1 *2519:A2 0.000123225
35 *2526:B2 *2619:A2 5.25277e-05
36 *2526:B2 *919:51 0.000107415
37 *2594:B1 *919:29 1.83847e-05
38 *2595:B1 *919:35 0
39 *2596:B2 *919:14 4.21973e-05
40 *2605:B1 *919:49 3.87901e-05
41 *2614:B2 *2519:A2 7.6192e-05
42 *2618:A2 *919:49 7.96104e-06
43 *2619:C1 *2619:A2 5.65828e-05
44 *2619:C1 *919:49 7.00225e-05
45 *2619:C1 *919:51 2.75145e-05
46 *2624:A *919:49 6.10352e-05
47 *2900:GATE_N *2519:A2 0.00028182
48 *3042:D *2498:A2 7.38213e-05
49 *3052:GATE_N *2608:A2 3.1835e-05
50 *3058:D *919:29 0.000201503
51 *3113:A *919:29 2.30292e-05
52 *3126:A *919:49 5.26522e-05
53 *3127:A *2498:A2 4.00045e-05
54 *3128:A *919:29 0
55 *3136:A *2498:A2 7.20641e-06
56 *3136:A *919:35 1.91992e-05
57 *3136:A *919:49 7.98277e-05
58 *3138:A *919:49 0.000240754
59 *3145:A *2519:A2 0.00091577
60 *3188:A *919:35 4.1977e-05
61 *3188:A *919:55 0.000131092
62 *3191:A *2596:A2 0.000164874
63 *3191:A *919:14 0.0004437
64 *3202:A *919:14 7.23533e-05
65 *3203:A *2596:A2 0.000203178
66 *3203:A *919:29 0.000111285
67 *3214:A *919:35 4.03791e-05
68 *477:30 *2403:B 4.65607e-05
69 *489:10 *919:14 6.37583e-05
70 *651:26 *2498:A2 1.7714e-05
71 *807:18 *2519:A2 6.27029e-05
72 *807:99 *2608:A2 4.9968e-05
73 *807:99 *919:55 8.53113e-06
74 *812:10 *919:29 0.000426195
75 *812:28 *919:29 0
76 *822:39 *2608:A2 2.16389e-05
77 *822:39 *919:55 4.70999e-05
78 *828:18 *919:35 0.000153093
79 *840:10 *919:49 7.70424e-07
80 *848:8 *2519:A2 4.82863e-05
81 *869:10 *919:29 0
82 *869:29 *919:29 0
83 *870:85 *919:29 0.000160635
84 *881:31 *919:29 0
85 *881:39 *919:29 1.79536e-05
86 *881:39 *919:35 0.000248752
87 *881:57 *2608:A2 4.19967e-05
88 *881:57 *919:55 0.000136178
89 *889:56 *2498:A2 0.0001056
90 *889:56 *919:35 0.00039284
91 *894:112 *2608:A2 0.000141489
92 *897:29 *2498:A2 6.34232e-05
93 *914:151 *2608:A2 2.8185e-05
94 *915:27 *919:29 4.85494e-05
95 *915:33 *2498:A2 0.000218091
96 *915:81 *919:49 0.000133007
*RES
1 *3207:X *919:14 12.35 
2 *919:14 *2596:A2 3.79 
3 *919:14 *919:29 13.445 
4 *919:29 *919:35 4.76997 
5 *919:35 *919:49 19.0954 
6 *919:49 *919:51 8.04 
7 *919:51 *919:55 6.44 
8 *919:55 *2608:A2 11.7525 
9 *919:55 *2519:A2 15.795 
10 *919:51 *2463:A2 1.6 
11 *919:49 *2619:A2 2.5675 
12 *919:35 *2498:A2 8.5252 
13 *919:29 *2403:B 4.74 
*END

*D_NET *920 0.00581305
*CONN
*I *3206:A I *D sky130_fd_sc_hd__clkbuf_4
*I *3371:X O *D sky130_fd_sc_hd__clkbuf_1
*CAP
1 *3206:A 0.00220228
2 *3371:X 0.00220228
3 *2939:GATE_N *3206:A 0.000195764
4 *3204:A *3206:A 0.000955382
5 *435:12 *3206:A 4.12356e-05
6 *825:41 *3206:A 4.13769e-05
7 *851:20 *3206:A 1.81196e-05
8 *899:29 *3206:A 0.00010347
9 *918:10 *3206:A 3.25831e-05
10 *918:109 *3206:A 2.05571e-05
*RES
1 *3371:X *3206:A 16.6973 
*END

*D_NET *921 0.025093
*CONN
*I *2609:A2 I *D sky130_fd_sc_hd__a22o_1
*I *2541:A2 I *D sky130_fd_sc_hd__a22o_1
*I *2489:A2 I *D sky130_fd_sc_hd__a221o_1
*I *2555:A2 I *D sky130_fd_sc_hd__a221o_1
*I *2576:A2 I *D sky130_fd_sc_hd__a22o_1
*I *2534:A2 I *D sky130_fd_sc_hd__a22o_1
*I *2588:A2 I *D sky130_fd_sc_hd__a221o_1
*I *2566:B1 I *D sky130_fd_sc_hd__a221o_1
*I *2456:B1 I *D sky130_fd_sc_hd__a221o_1
*I *2478:B1 I *D sky130_fd_sc_hd__a221o_1
*I *3208:X O *D sky130_fd_sc_hd__clkbuf_4
*CAP
1 *2609:A2 0
2 *2541:A2 0.00210477
3 *2489:A2 0.000135579
4 *2555:A2 0.000581243
5 *2576:A2 0.000274351
6 *2534:A2 5.20861e-05
7 *2588:A2 0.000367757
8 *2566:B1 0
9 *2456:B1 0.000409735
10 *2478:B1 0.000114561
11 *3208:X 0.000105702
12 *921:109 0.0012241
13 *921:46 0.000919986
14 *921:42 0.000506824
15 *921:34 0.00127691
16 *921:30 0.00143894
17 *921:28 0.00132396
18 *921:26 0.0013214
19 *921:14 0.00294152
20 *921:10 0.000123248
21 *2456:B1 *2478:A2 0.000102798
22 *2456:B1 *923:63 0.000163175
23 *2456:B1 *923:67 3.65279e-05
24 *2555:A2 *2557:C1 2.85032e-05
25 *2588:A2 *2587:A2 0.000139058
26 *2588:A2 *923:80 6.02104e-05
27 *921:10 *3212:A 0.000122177
28 *921:14 *3210:A 5.98004e-06
29 *921:14 *3212:A 5.53249e-06
30 *921:14 *928:14 4.13879e-05
31 *921:26 *2612:C1 5.05223e-05
32 *921:26 *923:16 0
33 *921:30 *2535:C1 0.000230435
34 *921:34 *2535:C1 0.000120655
35 *921:109 *923:36 0
36 *2456:B2 *2456:B1 6.10014e-05
37 *2457:B2 *2456:B1 8.09157e-06
38 *2458:A1 *2456:B1 4.83324e-05
39 *2458:B1 *2456:B1 0
40 *2478:A1 *2456:B1 9.13949e-06
41 *2481:B *2456:B1 0.000460265
42 *2489:A1 *921:26 1.15688e-05
43 *2489:B1 *921:26 0.000217399
44 *2489:B2 *921:26 5.23362e-05
45 *2489:B2 *921:28 6.03947e-06
46 *2489:C1 *921:26 0.000120907
47 *2490:A1 *2555:A2 7.646e-05
48 *2533:B2 *2588:A2 0.000109433
49 *2535:A1 *921:34 1.47256e-05
50 *2535:B1 *2534:A2 9.8201e-05
51 *2536:C *921:30 4.40325e-06
52 *2555:B1 *2555:A2 0.000199833
53 *2557:A1 *2555:A2 6.8725e-06
54 *2557:A2 *2555:A2 6.8725e-06
55 *2558:B *2555:A2 4.05358e-05
56 *2566:A1 *921:46 0.000139245
57 *2566:B2 *921:46 0.00030001
58 *2567:A1 *921:42 1.1392e-05
59 *2576:B1 *2576:A2 5.4155e-06
60 *2576:B2 *2576:A2 0
61 *2577:B1 *2555:A2 0.00026389
62 *2577:B1 *2576:A2 0.000196376
63 *2577:C1 *2576:A2 0.000161529
64 *2609:B1 *921:26 5.86739e-05
65 *2610:B1 *921:10 0.000127373
66 *2610:B1 *921:14 6.2706e-05
67 *2610:B1 *921:26 0.000130098
68 *2611:B1 *921:26 0.0002014
69 *2624:A *2541:A2 0
70 *2624:A *921:26 0
71 *2849:D *2576:A2 8.40269e-05
72 *2849:D *921:109 0.000206817
73 *2881:GATE_N *921:109 2.42236e-05
74 *2887:GATE_N *921:109 2.15594e-05
75 *2910:GATE_N *2555:A2 0
76 *2970:GATE_N *2588:A2 1.2818e-05
77 *2993:GATE_N *921:109 0
78 *3000:GATE_N *921:46 4.05127e-05
79 *3070:GATE_N *2555:A2 0.000685481
80 *3081:D *2555:A2 5.02217e-05
81 *3198:A *921:26 0
82 *590:24 *2489:A2 1.38613e-05
83 *590:24 *921:28 1.2583e-05
84 *805:42 *921:26 0.000158976
85 *807:18 *2541:A2 7.23602e-05
86 *811:60 *2555:A2 0
87 *812:55 *2541:A2 0.000629801
88 *816:30 *2588:A2 5.4003e-05
89 *816:30 *921:34 0.000246232
90 *816:30 *921:42 7.06865e-05
91 *816:30 *921:46 7.08727e-05
92 *818:54 *2456:B1 3.83194e-05
93 *820:24 *2456:B1 0
94 *827:70 *2555:A2 0
95 *830:31 *2541:A2 0.000293864
96 *831:40 *2534:A2 4.99619e-05
97 *831:63 *2456:B1 0.000315146
98 *836:22 *2588:A2 9.37731e-05
99 *836:57 *921:46 0.000505575
100 *836:67 *2478:B1 5.33085e-05
101 *836:67 *921:46 0.000115464
102 *851:53 *921:26 1.7635e-05
103 *851:102 *2588:A2 6.8725e-06
104 *861:14 *2541:A2 0
105 *861:14 *921:26 0
106 *864:47 *921:10 8.40213e-05
107 *871:51 *921:109 5.23362e-05
108 *871:75 *921:109 0.00020477
109 *871:77 *921:109 0.000154817
110 *881:57 *2541:A2 0.000118078
111 *900:21 *921:26 0.000105712
112 *904:28 *2534:A2 0.000114492
113 *904:53 *2456:B1 7.90733e-05
114 *904:61 *2456:B1 6.43623e-05
115 *906:20 *921:26 0.000126041
116 *906:22 *921:26 0.000322846
117 *906:93 *2588:A2 5.18317e-06
118 *906:99 *2588:A2 0.000154554
119 *908:62 *2534:A2 1.73877e-05
120 *908:68 *2534:A2 4.18603e-06
*RES
1 *3208:X *921:10 6.03 
2 *921:10 *921:14 1.2425 
3 *921:14 *921:26 19.5653 
4 *921:26 *921:28 3.9 
5 *921:28 *921:30 6.66 
6 *921:30 *921:34 11.42 
7 *921:34 *921:42 3.68 
8 *921:42 *921:46 12.305 
9 *921:46 *2478:B1 5.01 
10 *921:46 *2456:B1 19.12 
11 *921:42 *2566:B1 1.6 
12 *921:34 *2588:A2 12.4987 
13 *921:30 *2534:A2 7.43 
14 *921:28 *921:109 12.01 
15 *921:109 *2576:A2 6.895 
16 *921:109 *2555:A2 19.7038 
17 *921:26 *2489:A2 3.37375 
18 *921:14 *2541:A2 11.298 
19 *921:10 *2609:A2 3.6 
*END

*D_NET *922 0.0149452
*CONN
*I *2499:A2 I *D sky130_fd_sc_hd__a22o_1
*I *2466:A2 I *D sky130_fd_sc_hd__a221o_1
*I *2401:B I *D sky130_fd_sc_hd__nand2_1
*I *2513:A2 I *D sky130_fd_sc_hd__a211o_1
*I *2523:A2 I *D sky130_fd_sc_hd__a22o_1
*I *2623:A2 I *D sky130_fd_sc_hd__a211o_1
*I *2600:A2 I *D sky130_fd_sc_hd__a22o_1
*I *3209:X O *D sky130_fd_sc_hd__buf_2
*CAP
1 *2499:A2 0.000864833
2 *2466:A2 3.75469e-06
3 *2401:B 8.97652e-05
4 *2513:A2 0.000209211
5 *2523:A2 0.000480713
6 *2623:A2 0
7 *2600:A2 1.7883e-05
8 *3209:X 0
9 *922:87 0.000561674
10 *922:68 0.00191552
11 *922:47 0.002367
12 *922:27 0.00140114
13 *922:16 0.000352905
14 *922:4 0.000997364
15 *2513:A2 *2524:C1 1.73877e-05
16 *2513:A2 *929:26 0.000118527
17 *922:47 *2465:A2 2.11084e-05
18 *922:68 *2623:C1 6.71882e-05
19 *922:87 *2524:C1 0
20 *922:87 *925:86 0.000107666
21 *2465:B1 *2466:A2 1.2818e-05
22 *2465:B1 *922:47 3.18601e-05
23 *2465:B2 *922:47 7.1242e-05
24 *2466:A1 *922:47 7.03434e-05
25 *2466:B1 *2466:A2 1.2818e-05
26 *2466:B1 *922:47 4.41506e-05
27 *2466:B2 *922:47 8.34281e-06
28 *2466:C1 *922:47 2.11084e-05
29 *2467:B1 *922:27 0.000131773
30 *2499:B2 *2499:A2 0
31 *2510:A1 *922:87 9.30787e-05
32 *2511:A1 *2513:A2 9.5433e-05
33 *2511:C1 *2513:A2 0.000155491
34 *2513:A1 *2513:A2 3.50033e-05
35 *2514:B *2513:A2 0.000192125
36 *2514:C *2513:A2 6.27029e-05
37 *2523:A1 *2523:A2 3.13354e-05
38 *2523:B1 *922:87 8.3326e-05
39 *2600:B1 *2600:A2 4.66108e-05
40 *2600:B1 *922:16 3.57349e-05
41 *2600:B1 *922:27 2.92496e-05
42 *2622:A1 *922:68 4.82863e-05
43 *2623:A1 *922:47 3.26889e-05
44 *2623:A1 *922:68 4.7101e-05
45 *2624:C *922:47 7.55945e-06
46 *2624:C *922:68 8.65905e-05
47 *2852:GATE_N *2523:A2 0.00033061
48 *2852:GATE_N *922:68 0.000142194
49 *2859:GATE_N *922:27 0.000143024
50 *2911:D *922:47 4.66826e-05
51 *2948:GATE_N *922:47 0
52 *2980:GATE_N *2523:A2 1.06624e-05
53 *3118:A *2401:B 0.00021158
54 *3118:A *2513:A2 6.07575e-06
55 *3118:A *922:87 3.04064e-05
56 *3132:A *922:68 6.07575e-06
57 *3134:A *922:87 0.000615349
58 *3186:A *922:27 5.96023e-05
59 *3209:A *922:16 9.88492e-05
60 *808:80 *2499:A2 7.06349e-05
61 *808:80 *2600:A2 1.7824e-05
62 *808:80 *922:16 0.000163709
63 *823:8 *2499:A2 9.46525e-06
64 *831:22 *922:47 0
65 *834:72 *922:47 0.000158072
66 *837:56 *922:68 5.6361e-05
67 *837:83 *922:68 2.76356e-05
68 *844:28 *922:68 0.000252922
69 *892:33 *922:47 9.06429e-05
70 *899:33 *922:27 0.000353527
71 *899:33 *922:47 6.86767e-05
72 *905:47 *2401:B 1.19928e-05
73 *905:47 *2513:A2 4.66108e-05
74 *912:27 *2499:A2 0.000835605
*RES
1 *3209:X *922:4 1.6 
2 *922:4 *922:16 3.72 
3 *922:16 *2600:A2 2.05 
4 *922:16 *922:27 7.97 
5 *922:27 *922:47 21.435 
6 *922:47 *2623:A2 1.6 
7 *922:47 *922:68 16.95 
8 *922:68 *2523:A2 8.095 
9 *922:68 *922:87 12.055 
10 *922:87 *2513:A2 11.315 
11 *922:87 *2401:B 3.775 
12 *922:27 *2466:A2 3.72375 
13 *922:4 *2499:A2 13.015 
*END

*D_NET *923 0.0234935
*CONN
*I *2540:A2 I *D sky130_fd_sc_hd__a221o_1
*I *2611:A2 I *D sky130_fd_sc_hd__a22o_1
*I *2488:A2 I *D sky130_fd_sc_hd__a22o_1
*I *2556:B1 I *D sky130_fd_sc_hd__a22o_1
*I *2457:A2 I *D sky130_fd_sc_hd__a22o_1
*I *2478:A2 I *D sky130_fd_sc_hd__a221o_1
*I *2587:A2 I *D sky130_fd_sc_hd__a22o_1
*I *2532:A2 I *D sky130_fd_sc_hd__a22o_1
*I *2567:A2 I *D sky130_fd_sc_hd__a22o_1
*I *2578:A2 I *D sky130_fd_sc_hd__a22o_1
*I *3210:X O *D sky130_fd_sc_hd__clkbuf_4
*CAP
1 *2540:A2 0.000938081
2 *2611:A2 0
3 *2488:A2 0
4 *2556:B1 0.000349652
5 *2457:A2 1.04051e-05
6 *2478:A2 8.49532e-05
7 *2587:A2 0.000439917
8 *2532:A2 0.000608621
9 *2567:A2 0
10 *2578:A2 0
11 *3210:X 0
12 *923:80 0.00122959
13 *923:71 0.000514175
14 *923:67 0.000522288
15 *923:63 0.00109151
16 *923:50 0.00152502
17 *923:36 0.00211598
18 *923:26 0.00165349
19 *923:16 0.000925863
20 *923:4 0.00142866
21 *923:16 *2610:A2 6.8725e-06
22 *923:16 *3210:A 4.92062e-05
23 *2456:B1 *2478:A2 0.000102798
24 *2456:B1 *923:63 0.000163175
25 *2456:B1 *923:67 3.65279e-05
26 *2457:A1 *923:71 1.52184e-05
27 *2457:B1 *923:71 0.000134509
28 *2457:B2 *2478:A2 7.59392e-05
29 *2457:B2 *923:71 5.16418e-05
30 *2478:A1 *2478:A2 2.61183e-06
31 *2481:B *923:63 9.23485e-05
32 *2488:A1 *923:36 0.000289684
33 *2488:B2 *923:36 6.20952e-05
34 *2489:B1 *923:26 0.000207192
35 *2532:B2 *2532:A2 0
36 *2533:B1 *2587:A2 9.30787e-05
37 *2533:B1 *923:80 8.53113e-06
38 *2533:B2 *2532:A2 8.37791e-05
39 *2533:B2 *2587:A2 0.00010596
40 *2533:B2 *923:80 9.84957e-05
41 *2536:A *923:26 0.000152145
42 *2536:A *923:36 8.23457e-05
43 *2554:A1 *923:50 0
44 *2554:B1 *923:63 1.92979e-05
45 *2554:B2 *923:50 6.57325e-05
46 *2554:B2 *923:63 4.55864e-06
47 *2555:B1 *923:36 0
48 *2555:C1 *923:36 9.20976e-05
49 *2556:A1 *2556:B1 0.000134215
50 *2556:B2 *2556:B1 0.00013463
51 *2556:B2 *923:36 0
52 *2567:A1 *923:71 9.50342e-06
53 *2567:A1 *923:80 0.000155176
54 *2577:B2 *923:63 2.47313e-05
55 *2578:A1 *923:50 0.000131129
56 *2578:B1 *923:63 1.7635e-05
57 *2578:B2 *923:50 1.11973e-05
58 *2579:B1 *923:63 3.26241e-05
59 *2580:B *923:36 3.86529e-05
60 *2580:C *923:36 6.18754e-05
61 *2581:B2 *923:36 5.80335e-05
62 *2585:A2 *2540:A2 0.000107905
63 *2585:B2 *2540:A2 0.000161837
64 *2588:A2 *2587:A2 0.000139058
65 *2588:A2 *923:80 6.02104e-05
66 *2588:C1 *2587:A2 1.77665e-05
67 *2610:C1 *923:16 1.12662e-05
68 *2612:B1 *923:16 0.000101201
69 *2613:B *2540:A2 8.57024e-05
70 *2613:B *923:16 1.36454e-05
71 *2855:D *2556:B1 9.66106e-05
72 *2855:D *923:50 2.49909e-05
73 *2855:GATE_N *923:50 2.8585e-06
74 *2855:GATE_N *923:63 0
75 *2881:GATE_N *923:36 8.08153e-06
76 *2887:GATE_N *923:36 0
77 *2902:D *2540:A2 8.7152e-06
78 *2985:D *923:63 8.65905e-05
79 *2993:GATE_N *923:36 0
80 *3015:D *923:50 3.02513e-05
81 *3015:GATE_N *923:50 0.000437864
82 *3034:GATE_N *923:26 0
83 *3070:GATE_N *2556:B1 6.5313e-05
84 *3186:A *2540:A2 0.00030935
85 *3198:A *923:16 0.000122584
86 *3198:A *923:26 5.85162e-05
87 *805:42 *923:26 0.000122331
88 *807:18 *2540:A2 0.000720099
89 *816:30 *923:71 0.000156887
90 *816:30 *923:80 0.000110315
91 *816:38 *923:71 0.000223425
92 *818:54 *923:63 3.0807e-05
93 *820:10 *2587:A2 0.000219005
94 *820:12 *2587:A2 0.000201335
95 *820:20 *2587:A2 0.000131754
96 *820:20 *923:71 5.53249e-06
97 *820:20 *923:80 0.000335468
98 *820:24 *923:71 0.000229007
99 *829:37 *2540:A2 9.05757e-05
100 *833:14 *923:63 6.36656e-05
101 *833:18 *923:50 4.36738e-05
102 *833:18 *923:63 0.000176033
103 *847:131 *2540:A2 0.000439829
104 *847:131 *923:16 6.01415e-05
105 *847:131 *923:26 8.53113e-06
106 *858:34 *923:36 5.23362e-05
107 *858:38 *923:36 0.000202995
108 *858:40 *923:36 7.74849e-05
109 *858:42 *923:36 9.95865e-05
110 *858:59 *923:36 5.23362e-05
111 *862:43 *2532:A2 0.00011201
112 *862:45 *2532:A2 2.86975e-05
113 *871:51 *923:36 7.5416e-05
114 *894:112 *2540:A2 5.90847e-05
115 *900:21 *923:16 2.15594e-05
116 *900:21 *923:26 5.72301e-05
117 *906:22 *923:36 0.000215343
118 *906:26 *923:36 0.000124752
119 *906:93 *2587:A2 0.000117116
120 *908:28 *923:36 5.83121e-06
121 *911:25 *2540:A2 5.92824e-05
122 *914:118 *2540:A2 0.000470227
123 *921:26 *923:16 0
124 *921:109 *923:36 0
*RES
1 *3210:X *923:4 1.6 
2 *923:4 *923:16 9.875 
3 *923:16 *923:26 11.045 
4 *923:26 *923:36 28.21 
5 *923:36 *923:50 14.4 
6 *923:50 *2578:A2 3.6 
7 *923:50 *923:63 18.17 
8 *923:63 *923:67 1.5 
9 *923:67 *923:71 10.775 
10 *923:71 *2567:A2 3.6 
11 *923:71 *923:80 6.99 
12 *923:80 *2532:A2 14.95 
13 *923:80 *2587:A2 14.565 
14 *923:67 *2478:A2 3.7375 
15 *923:63 *2457:A2 1.96 
16 *923:36 *2556:B1 11.72 
17 *923:26 *2488:A2 1.6 
18 *923:16 *2611:A2 3.6 
19 *923:4 *2540:A2 27.7025 
*END

*D_NET *924 0.00190119
*CONN
*I *2661:A1 I *D sky130_fd_sc_hd__mux2_1
*I *3256:X O *D sky130_fd_sc_hd__clkbuf_1
*CAP
1 *2661:A1 0.000655624
2 *3256:X 0.000655624
3 *2661:A1 *2661:A0 4.66826e-05
4 *2661:A1 *2661:S 4.58166e-05
5 *2661:A1 *2662:A1 7.54678e-05
6 PSEL4 *2661:A1 0.000130792
7 *2660:A1 *2661:A1 0.000247143
8 *3255:A *2661:A1 2.96561e-05
9 *3311:A *2661:A1 1.4389e-05
*RES
1 *3256:X *2661:A1 17.535 
*END

*D_NET *925 0.0221749
*CONN
*I *2495:A2 I *D sky130_fd_sc_hd__a22o_1
*I *2594:A2 I *D sky130_fd_sc_hd__a22o_1
*I *2621:A2 I *D sky130_fd_sc_hd__a221o_1
*I *2511:B1 I *D sky130_fd_sc_hd__a221o_1
*I *2522:A2 I *D sky130_fd_sc_hd__a221o_1
*I *2465:A2 I *D sky130_fd_sc_hd__a22o_1
*I *2399:B I *D sky130_fd_sc_hd__nand2_1
*I *3211:X O *D sky130_fd_sc_hd__buf_2
*CAP
1 *2495:A2 8.56815e-05
2 *2594:A2 0
3 *2621:A2 5.12274e-05
4 *2511:B1 0
5 *2522:A2 0.000566825
6 *2465:A2 6.51371e-05
7 *2399:B 0.00013379
8 *3211:X 0
9 *925:133 0.000816833
10 *925:86 0.00142596
11 *925:72 0.00203769
12 *925:43 0.00189201
13 *925:33 0.00323835
14 *925:4 0.00194145
15 *2522:A2 *2521:A2 0
16 *2522:A2 *2524:C1 0
17 *925:33 *2414:A_N 1.61831e-05
18 *925:33 *2414:D 0.000160635
19 *925:33 *3211:A 3.43327e-05
20 *925:33 *3212:A 2.89319e-05
21 *925:33 *938:32 1.7396e-05
22 *925:33 *938:36 6.57653e-06
23 *925:43 *2420:C 0.00011379
24 *925:43 *939:79 0.000176822
25 *925:86 *2511:A2 2.91343e-05
26 *925:133 *948:33 6.0872e-05
27 *2399:A *2399:B 0
28 *2399:A *925:33 0.000261882
29 *2465:B1 *2465:A2 3.2379e-05
30 *2466:C1 *2465:A2 4.9968e-05
31 *2467:B2 *925:43 0.000136877
32 *2469:A1 *925:72 8.8266e-05
33 *2470:C *925:72 0.00045167
34 *2495:A1 *2495:A2 8.8266e-05
35 *2500:A2 *925:33 7.03824e-05
36 *2504:B1 *2495:A2 8.8266e-05
37 *2510:A1 *925:86 9.14049e-05
38 *2511:C1 *2522:A2 2.75229e-05
39 *2511:C1 *925:86 7.22558e-05
40 *2514:C *925:86 0.000158066
41 *2521:A1 *2522:A2 0.000286649
42 *2522:A1 *2522:A2 5.12942e-05
43 *2522:B1 *2522:A2 6.9114e-05
44 *2522:C1 *2522:A2 6.74384e-05
45 *2523:B1 *925:86 0.000291358
46 *2524:B1 *2522:A2 5.72091e-05
47 *2594:B2 *925:133 4.82919e-05
48 *2596:A1 *925:133 0.00012657
49 *2599:A1 *925:33 0.000119762
50 *2600:A1 *925:43 0.000298367
51 *2602:B *925:133 1.09016e-05
52 *2621:A1 *2621:A2 1.85674e-05
53 *2621:A1 *925:86 0.000111909
54 *2852:GATE_N *2522:A2 0
55 *2859:GATE_N *925:43 0.000143045
56 *2907:D *925:133 4.82919e-05
57 *2907:GATE_N *925:43 0.000743817
58 *2939:D *925:133 0.000434605
59 *2948:GATE_N *925:72 2.42236e-05
60 *2959:GATE_N *925:72 8.25481e-05
61 *2978:GATE_N *2522:A2 0.000145265
62 *2980:GATE_N *2522:A2 0.000549765
63 *3003:GATE_N *925:33 8.40213e-05
64 *3005:D *925:86 0.000103903
65 *3019:D *925:33 3.64998e-06
66 *3019:GATE_N *2399:B 5.4003e-05
67 *3019:GATE_N *925:33 5.05521e-05
68 *3055:GATE_N *925:72 1.70935e-05
69 *3115:A *925:33 0.00011379
70 *3118:A *2522:A2 4.82919e-05
71 *3118:A *925:86 0.000297061
72 *3130:A *2621:A2 4.78802e-05
73 *3130:A *925:72 0.000503865
74 *3130:A *925:86 5.82718e-05
75 *3186:A *925:43 5.70461e-06
76 *3213:A *2399:B 4.58406e-05
77 *435:12 *925:33 0
78 *435:12 *925:133 0
79 *437:26 *2399:B 1.88656e-05
80 *477:30 *2495:A2 9.65286e-05
81 *477:30 *925:133 0.000280261
82 *486:18 *925:33 9.93259e-05
83 *495:8 *925:33 0.000128545
84 *817:24 *925:33 0.000357349
85 *817:28 *925:33 0.00015896
86 *831:18 *2465:A2 1.50624e-05
87 *831:18 *925:43 0.000128893
88 *834:72 *2465:A2 5.56116e-05
89 *834:72 *925:43 0
90 *834:72 *925:72 5.38986e-06
91 *849:31 *925:43 6.23058e-05
92 *850:57 *925:33 0.000375944
93 *870:24 *2399:B 0
94 *870:24 *925:33 3.1562e-06
95 *875:10 *925:72 0
96 *875:12 *925:72 2.49909e-05
97 *875:14 *925:72 0.000457626
98 *875:24 *925:72 1.83847e-05
99 *875:81 *925:72 5.16348e-05
100 *904:10 *925:33 2.75538e-05
101 *922:47 *2465:A2 2.11084e-05
102 *922:87 *925:86 0.000107666
*RES
1 *3211:X *925:4 1.6 
2 *925:4 *2399:B 8.255 
3 *925:4 *925:33 24.7652 
4 *925:33 *925:43 16.745 
5 *925:43 *2465:A2 5.3025 
6 *925:43 *925:72 24.5925 
7 *925:72 *925:86 18.79 
8 *925:86 *2522:A2 18.7625 
9 *925:86 *2511:B1 1.6 
10 *925:72 *2621:A2 2.90125 
11 *925:33 *925:133 13.8318 
12 *925:133 *2594:A2 1.6 
13 *925:133 *2495:A2 4.12 
*END

*D_NET *926 0.00401103
*CONN
*I *3210:A I *D sky130_fd_sc_hd__clkbuf_4
*I *3372:X O *D sky130_fd_sc_hd__clkbuf_1
*CAP
1 *3210:A 0.000649476
2 *3372:X 0.000649476
3 *3210:A *2610:A2 2.12235e-05
4 *3210:A *3212:A 0.00064671
5 *3210:A *928:14 1.08723e-05
6 *2610:C1 *3210:A 0.000271616
7 *2613:B *3210:A 3.03775e-05
8 *3198:A *3210:A 0.00167609
9 *921:14 *3210:A 5.98004e-06
10 *923:16 *3210:A 4.92062e-05
*RES
1 *3372:X *3210:A 27.99 
*END

*D_NET *927 0.00219494
*CONN
*I *3211:A I *D sky130_fd_sc_hd__buf_2
*I *3305:X O *D sky130_fd_sc_hd__clkbuf_1
*CAP
1 *3211:A 0.000688518
2 *3305:X 0.000688518
3 *3211:A *938:14 0
4 *2399:A *3211:A 5.21627e-05
5 *2597:A2 *3211:A 0.000113542
6 *3019:D *3211:A 0.000162311
7 *3019:GATE_N *3211:A 3.00381e-05
8 *870:24 *3211:A 0.000368239
9 *903:12 *3211:A 4.85494e-05
10 *903:18 *3211:A 8.73389e-06
11 *925:33 *3211:A 3.43327e-05
*RES
1 *3305:X *3211:A 20.265 
*END

*D_NET *928 0.0204324
*CONN
*I *2543:A2 I *D sky130_fd_sc_hd__a221o_1
*I *2533:A2 I *D sky130_fd_sc_hd__a221o_1
*I *2566:A2 I *D sky130_fd_sc_hd__a221o_1
*I *2589:A2 I *D sky130_fd_sc_hd__a22o_1
*I *2490:A2 I *D sky130_fd_sc_hd__a22o_1
*I *2577:A2 I *D sky130_fd_sc_hd__a221o_1
*I *2556:A2 I *D sky130_fd_sc_hd__a22o_1
*I *2456:A2 I *D sky130_fd_sc_hd__a221o_1
*I *2479:A2 I *D sky130_fd_sc_hd__a22o_1
*I *2610:A2 I *D sky130_fd_sc_hd__a221o_1
*I *3212:X O *D sky130_fd_sc_hd__clkbuf_4
*CAP
1 *2543:A2 8.4196e-06
2 *2533:A2 0.00010108
3 *2566:A2 0.000318229
4 *2589:A2 0
5 *2490:A2 0.000445755
6 *2577:A2 7.18416e-06
7 *2556:A2 0.000333023
8 *2456:A2 1.7988e-05
9 *2479:A2 0.000180967
10 *2610:A2 3.51312e-05
11 *3212:X 0.000210904
12 *928:135 0.00135263
13 *928:63 0.000592324
14 *928:59 0.00113297
15 *928:51 0.000605709
16 *928:47 0.00115163
17 *928:41 0.000548003
18 *928:39 0.00136012
19 *928:33 0.00117201
20 *928:14 0.00101689
21 *2490:A2 *2491:C1 0.000418498
22 *2543:A2 *2543:C1 2.87433e-05
23 *928:14 *3212:A 6.7446e-05
24 *928:33 *2543:C1 0.000147872
25 *928:39 *934:26 0.000356657
26 *928:47 *2491:C1 0.000386215
27 *928:47 *934:26 0.000114093
28 *928:47 *934:28 0.000186448
29 *928:47 *934:30 1.54318e-05
30 *2455:B1 *2456:A2 1.2818e-05
31 *2459:A *2556:A2 4.66108e-05
32 *2460:B2 *2556:A2 0.000828949
33 *2460:B2 *928:63 0.000472225
34 *2479:A1 *2479:A2 9.40874e-05
35 *2480:B1 *2479:A2 0
36 *2482:B2 *2556:A2 0.000319014
37 *2490:A1 *2490:A2 9.50342e-06
38 *2491:A1 *2490:A2 7.06865e-05
39 *2491:A2 *2490:A2 1.12578e-05
40 *2491:B1 *2490:A2 0.000194679
41 *2525:A *928:14 4.73967e-05
42 *2544:C1 *928:39 0.000118527
43 *2554:A1 *928:59 3.99395e-05
44 *2554:A2 *2556:A2 5.39254e-05
45 *2554:A2 *928:59 2.75754e-05
46 *2554:A2 *928:63 8.29922e-05
47 *2554:B1 *928:63 0.000608374
48 *2557:A1 *2556:A2 2.49909e-05
49 *2567:A1 *2566:A2 1.54111e-05
50 *2569:B *2566:A2 9.02259e-05
51 *2577:B1 *928:51 4.94326e-05
52 *2609:A1 *928:14 0
53 *2610:A1 *2610:A2 7.13722e-05
54 *2610:A1 *928:14 6.21553e-05
55 *2610:B1 *928:14 8.88534e-05
56 *2610:B2 *928:33 1.33293e-05
57 *2610:C1 *2610:A2 3.51612e-05
58 *2610:C1 *928:14 0.000247136
59 *2610:C1 *928:33 0.000193801
60 *2849:GATE_N *928:51 2.33678e-05
61 *2849:GATE_N *928:59 5.48897e-05
62 *2855:GATE_N *928:59 0.000665123
63 *2873:GATE_N *928:63 4.93503e-05
64 *2887:GATE_N *928:51 0.000462537
65 *2887:GATE_N *928:59 0.000155376
66 *2910:GATE_N *2556:A2 0
67 *2993:GATE_N *928:39 0
68 *2993:GATE_N *928:51 0.000136877
69 *3001:GATE_N *2479:A2 0
70 *3004:D *928:33 3.03684e-05
71 *3004:GATE_N *928:33 5.05521e-05
72 *3009:GATE_N *928:47 4.21973e-05
73 *3070:GATE_N *2556:A2 3.82728e-05
74 *3132:A *928:33 6.35356e-05
75 *3132:A *928:39 0.000350185
76 *3210:A *2610:A2 2.12235e-05
77 *3210:A *928:14 1.08723e-05
78 *805:78 *2490:A2 0
79 *814:45 *928:39 0.000205461
80 *814:66 *928:39 2.14532e-05
81 *814:66 *928:47 0.000549495
82 *814:72 *928:47 5.10477e-05
83 *814:116 *2456:A2 4.01535e-05
84 *814:116 *2479:A2 0.000104671
85 *816:8 *928:33 0
86 *816:10 *928:33 0
87 *816:10 *928:39 0
88 *816:20 *2533:A2 0
89 *816:20 *2566:A2 0
90 *816:24 *2566:A2 0
91 *816:54 *928:63 0.000105027
92 *820:20 *2533:A2 7.67168e-05
93 *820:20 *2566:A2 0.000206789
94 *831:53 *2566:A2 0
95 *833:12 *928:39 0.000173681
96 *833:14 *928:51 0
97 *847:51 *928:33 4.80182e-05
98 *853:37 *2577:A2 1.2818e-05
99 *858:38 *928:59 0
100 *858:40 *928:59 0
101 *862:35 *2533:A2 2.91343e-05
102 *862:81 *2566:A2 0
103 *873:50 *2479:A2 6.60257e-06
104 *877:38 *928:63 0
105 *904:61 *2456:A2 3.27514e-05
106 *904:61 *2479:A2 0.000117669
107 *904:91 *928:63 0.000149622
108 *906:22 *2490:A2 0
109 *906:75 *2543:A2 2.87433e-05
110 *906:75 *928:33 2.67503e-05
111 *921:14 *928:14 4.13879e-05
112 *923:16 *2610:A2 6.8725e-06
*RES
1 *3212:X *928:14 8.715 
2 *928:14 *2610:A2 4.59375 
3 *928:14 *928:33 13.945 
4 *928:33 *928:39 10.95 
5 *928:39 *928:41 0.45 
6 *928:41 *928:47 13.235 
7 *928:47 *928:51 7.46 
8 *928:51 *928:59 10.0475 
9 *928:59 *928:63 2.05293 
10 *928:63 *2479:A2 7.4025 
11 *928:63 *2456:A2 4.21125 
12 *928:59 *2556:A2 6.35737 
13 *928:51 *2577:A2 3.72375 
14 *928:47 *2490:A2 12.26 
15 *928:41 *2589:A2 3.6 
16 *928:39 *928:135 2.49467 
17 *928:135 *2566:A2 9.915 
18 *928:135 *2533:A2 5.64 
19 *928:33 *2543:A2 3.8775 
*END

*D_NET *929 0.0183564
*CONN
*I *2501:A2 I *D sky130_fd_sc_hd__a221o_1
*I *2397:B I *D sky130_fd_sc_hd__nand2_1
*I *2464:A2 I *D sky130_fd_sc_hd__a221o_1
*I *2601:A2 I *D sky130_fd_sc_hd__a221o_1
*I *2622:A2 I *D sky130_fd_sc_hd__a22o_1
*I *2511:A2 I *D sky130_fd_sc_hd__a221o_1
*I *2521:A2 I *D sky130_fd_sc_hd__a22o_1
*I *3213:X O *D sky130_fd_sc_hd__buf_2
*CAP
1 *2501:A2 5.03328e-06
2 *2397:B 0
3 *2464:A2 0.000705665
4 *2601:A2 0
5 *2622:A2 0.000333815
6 *2511:A2 7.50458e-06
7 *2521:A2 0.000420805
8 *3213:X 0.000287989
9 *929:83 0.00175537
10 *929:58 0.00220025
11 *929:48 0.000849136
12 *929:26 0.000685774
13 *929:18 0.000528241
14 *929:10 0.000531392
15 *2464:A2 *3357:A 1.92979e-05
16 *2521:A2 *2524:C1 0.00037544
17 *2622:A2 *2623:C1 0.000324677
18 *929:18 *2501:C1 0
19 *929:26 *2524:C1 1.1561e-05
20 *929:26 *936:49 1.12578e-05
21 *929:48 *936:49 0.000159947
22 *929:58 *936:49 0.000134311
23 *929:83 *2623:C1 2.04531e-05
24 *2397:A *929:58 5.8847e-05
25 *2462:B1 *2622:A2 1.88904e-05
26 *2464:A1 *2464:A2 0.000332116
27 *2464:B2 *2464:A2 9.27157e-05
28 *2465:B1 *2464:A2 0.000698082
29 *2468:B2 *929:58 4.41506e-05
30 *2471:B1 *2464:A2 0.000286014
31 *2499:A1 *2464:A2 4.63871e-05
32 *2500:A1 *2501:A2 4.30176e-06
33 *2501:A1 *929:18 0.000116165
34 *2501:B2 *929:10 4.91927e-05
35 *2510:B2 *929:26 0.000374585
36 *2511:A1 *2521:A2 5.53249e-06
37 *2511:A1 *929:26 1.86911e-05
38 *2511:C1 *2511:A2 2.91343e-05
39 *2513:A2 *929:26 0.000118527
40 *2514:A *929:83 0.000850794
41 *2514:C *2521:A2 8.53113e-06
42 *2514:C *929:26 0.000136884
43 *2521:B1 *2521:A2 7.29911e-05
44 *2522:A2 *2521:A2 0
45 *2601:A1 *2464:A2 4.87465e-06
46 *2831:GATE_N *929:83 1.01145e-05
47 *2850:D *929:10 0.000206817
48 *2850:D *929:18 0.000159964
49 *2852:GATE_N *2521:A2 8.65905e-05
50 *2882:D *2464:A2 8.65905e-05
51 *2882:GATE_N *2464:A2 9.81685e-05
52 *2882:GATE_N *929:83 1.2818e-05
53 *2978:GATE_N *2521:A2 0
54 *2991:D *929:58 2.76356e-05
55 *2991:GATE_N *929:58 0.000105664
56 *3083:GATE_N *929:83 0.000494502
57 *3135:A *929:18 0.000193401
58 *3188:A *2464:A2 0
59 *3192:A *2622:A2 0.000626329
60 *3192:A *929:83 3.34459e-05
61 *436:8 *929:26 8.65961e-05
62 *436:8 *929:48 5.6456e-05
63 *436:8 *929:58 2.75229e-05
64 *808:80 *2464:A2 0.000536862
65 *815:12 *929:10 0
66 *830:31 *2464:A2 5.99222e-05
67 *834:44 *2622:A2 0.000200615
68 *837:31 *929:18 0
69 *840:29 *929:83 0.00130392
70 *869:35 *2464:A2 0.000347911
71 *870:24 *929:10 0.00012764
72 *870:26 *929:10 0.000147397
73 *881:57 *2464:A2 0.000169335
74 *899:29 *929:83 3.85204e-05
75 *907:16 *2501:A2 1.2818e-05
76 *907:48 *929:18 0.000289023
77 *912:43 *2464:A2 4.53578e-05
78 *925:86 *2511:A2 2.91343e-05
*RES
1 *3213:X *929:10 9.765 
2 *929:10 *929:18 8.525 
3 *929:18 *929:26 8.06 
4 *929:26 *2521:A2 12.66 
5 *929:26 *2511:A2 3.8775 
6 *929:18 *929:48 1.485 
7 *929:48 *929:58 12.5 
8 *929:58 *2622:A2 12.93 
9 *929:58 *929:83 7.45795 
10 *929:83 *2601:A2 1.6 
11 *929:83 *2464:A2 26.2138 
12 *929:48 *2397:B 1.6 
13 *929:10 *2501:A2 3.72375 
*END

*D_NET *930 0.00566909
*CONN
*I *3212:A I *D sky130_fd_sc_hd__clkbuf_4
*I *3306:X O *D sky130_fd_sc_hd__clkbuf_1
*CAP
1 *3212:A 0.00126737
2 *3306:X 0.00126737
3 *3212:A *2424:D 0
4 *3212:A *938:30 0
5 *3212:A *938:32 0
6 *3212:A *938:36 0
7 *3212:A *947:71 0.000203178
8 *3212:A *947:77 8.65961e-05
9 *2462:A2 *3212:A 0.000178041
10 *2470:C *3212:A 7.23602e-05
11 *2525:A *3212:A 8.23457e-05
12 *2598:A1 *3212:A 0
13 *2598:B1 *3212:A 0
14 *2599:C1 *3212:A 0
15 *2610:B1 *3212:A 0.00035259
16 *2625:B2 *3212:A 1.88656e-05
17 *2911:GATE_N *3212:A 0
18 *3196:A *3212:A 6.65081e-05
19 *3210:A *3212:A 0.00064671
20 *3372:A *3212:A 0.000720381
21 *488:14 *3212:A 0
22 *494:8 *3212:A 1.19928e-05
23 *500:10 *3212:A 0.000154273
24 *850:31 *3212:A 0.000316421
25 *906:20 *3212:A 0
26 *921:10 *3212:A 0.000122177
27 *921:14 *3212:A 5.53249e-06
28 *925:33 *3212:A 2.89319e-05
29 *928:14 *3212:A 6.7446e-05
*RES
1 *3306:X *3212:A 37.515 
*END

*D_NET *931 0.00459988
*CONN
*I *2687:D I *D sky130_fd_sc_hd__or4_1
*I *2690:A3 I *D sky130_fd_sc_hd__o31ai_1
*I *2394:A2 I *D sky130_fd_sc_hd__o21ai_1
*I *2666:A0 I *D sky130_fd_sc_hd__mux2_1
*I *3307:X O *D sky130_fd_sc_hd__buf_1
*CAP
1 *2687:D 6.5712e-05
2 *2690:A3 0
3 *2394:A2 7.79714e-05
4 *2666:A0 0.000355502
5 *3307:X 8.08574e-05
6 *931:34 0.000308
7 *931:14 0.000682613
8 *931:10 0.000572286
9 *2687:D *2687:B 3.91574e-05
10 *2687:D *2690:A1 0.000106504
11 *2687:D *953:10 8.7152e-06
12 *931:34 *2690:A1 7.22354e-05
13 *2389:B *931:34 4.82863e-05
14 *2394:B1 *931:14 0
15 *2690:A2 *931:34 1.91597e-05
16 *2690:B1 *2687:D 1.39525e-05
17 *2761:B1 *931:10 5.64565e-05
18 *2761:B1 *931:14 3.47363e-05
19 *2761:B2 *931:34 2.76356e-05
20 *2762:B1 *2687:D 0.000163199
21 *2762:B1 *931:34 0.000470253
22 *2763:A1 *931:14 1.67799e-05
23 *2763:B1 *2394:A2 5.05521e-05
24 *2763:B1 *2666:A0 8.57237e-05
25 *2764:D *2666:A0 4.99619e-05
26 *2765:B *2666:A0 3.26889e-05
27 *475:20 *2394:A2 1.61831e-05
28 *475:20 *931:14 0
29 *480:10 *931:34 1.19928e-05
30 *510:32 *931:14 0
31 *672:70 *931:10 0.000113909
32 *672:70 *931:14 1.98158e-05
33 *672:84 *2666:A0 0.000125994
34 *672:84 *931:14 0.000398444
35 *804:10 *931:10 1.4389e-05
36 *881:31 *931:14 0.000460209
*RES
1 *3307:X *931:10 5.43 
2 *931:10 *931:14 8.99 
3 *931:14 *2666:A0 6.715 
4 *931:14 *2394:A2 2.74 
5 *931:10 *931:34 7.625 
6 *931:34 *2690:A3 1.6 
7 *931:34 *2687:D 7.7 
*END

*D_NET *932 0.0212215
*CONN
*I *2625:A2 I *D sky130_fd_sc_hd__o22ai_2
*I *2548:A2 I *D sky130_fd_sc_hd__o22ai_1
*I *2482:A2 I *D sky130_fd_sc_hd__o22ai_1
*I *2570:A2 I *D sky130_fd_sc_hd__o22ai_1
*I *2537:A2 I *D sky130_fd_sc_hd__o22ai_1
*I *2581:A2 I *D sky130_fd_sc_hd__o22ai_2
*I *2559:A2 I *D sky130_fd_sc_hd__o22ai_2
*I *2460:A2 I *D sky130_fd_sc_hd__o22ai_2
*I *2493:A2 I *D sky130_fd_sc_hd__o22ai_2
*I *2592:A2 I *D sky130_fd_sc_hd__o22ai_2
*I *3214:X O *D sky130_fd_sc_hd__clkbuf_4
*CAP
1 *2625:A2 0.000144589
2 *2548:A2 3.88975e-05
3 *2482:A2 0.000414778
4 *2570:A2 2.71886e-05
5 *2537:A2 4.25206e-05
6 *2581:A2 0
7 *2559:A2 0.000443509
8 *2460:A2 0.000351682
9 *2493:A2 0.000400807
10 *2592:A2 0
11 *3214:X 0.000103712
12 *932:134 0.000687255
13 *932:119 0.000401819
14 *932:72 0.000842235
15 *932:70 0.000390134
16 *932:49 0.00121088
17 *932:30 0.00170078
18 *932:22 0.00168162
19 *932:14 0.000652939
20 *932:6 0.00052853
21 *932:14 *2515:A2 0.000293733
22 *932:22 *2649:A0 0
23 *932:49 *2655:A0 4.82863e-05
24 *932:49 *2655:A1 0.000306161
25 *932:70 *2655:A0 0.000448585
26 *932:119 *2649:A0 2.71435e-05
27 *932:134 *2649:A0 0.000688837
28 *2452:B1 *2559:A2 5.86071e-05
29 *2473:A2 *2559:A2 0.000305834
30 *2474:B1 *2559:A2 0.000449089
31 *2482:A1 *2482:A2 0
32 *2482:B1 *2482:A2 9.30717e-05
33 *2483:B *2482:A2 4.01778e-05
34 *2493:A1 *2493:A2 4.99619e-05
35 *2493:B2 *2493:A2 1.10085e-05
36 *2537:B2 *2537:A2 4.82919e-05
37 *2537:B2 *932:49 8.73389e-06
38 *2548:A1 *2548:A2 0.000121811
39 *2551:B1 *2559:A2 0.000192125
40 *2570:A1 *932:134 3.09233e-05
41 *2572:B2 *932:70 0.000246147
42 *2573:A1 *932:70 5.87061e-05
43 *2573:A2 *2460:A2 8.53113e-06
44 *2573:A2 *932:70 0.000354222
45 *2573:A2 *932:72 0.000125603
46 *2584:A1 *932:30 4.47504e-06
47 *2584:C1 *932:49 2.42236e-05
48 *2592:A1 *932:30 5.53249e-06
49 *2592:B2 *932:30 5.32707e-05
50 *2605:A2 *932:49 7.9642e-06
51 *2629:B *2482:A2 1.56428e-05
52 *2635:B *932:22 0
53 *2639:B *2460:A2 1.47256e-05
54 *2642:B *2537:A2 3.96653e-05
55 *2655:S *932:49 1.90662e-05
56 *2798:D *2482:A2 0.000769138
57 *2799:D *932:22 0.000307152
58 *2799:D *932:119 6.10352e-05
59 *2799:D *932:134 0.000354895
60 *2832:D *2559:A2 0
61 *2841:D *2460:A2 3.76596e-05
62 *2841:D *932:70 7.58824e-05
63 *2841:GATE_N *2460:A2 0
64 *2954:GATE_N *932:49 3.59784e-05
65 *3142:A *2625:A2 4.66108e-05
66 *3154:A *2460:A2 1.43795e-05
67 *3161:A *932:14 0.000509445
68 *3161:A *932:22 0.000126725
69 *3173:A *2460:A2 3.67871e-05
70 *382:10 *932:14 0.000164588
71 *382:10 *932:22 0.000746982
72 *521:18 *2460:A2 4.82863e-05
73 *551:40 *2482:A2 6.33103e-05
74 *551:40 *2493:A2 0.000319134
75 *551:40 *2570:A2 4.41506e-05
76 *551:40 *932:49 0.000210165
77 *591:6 *2537:A2 8.57024e-05
78 *601:8 *2548:A2 0.000159324
79 *621:20 *2482:A2 0.000249698
80 *621:20 *2570:A2 8.40269e-05
81 *641:10 *932:49 2.75229e-05
82 *805:148 *932:49 0
83 *825:130 *932:30 1.88602e-05
84 *838:70 *2460:A2 3.27313e-05
85 *856:60 *932:70 8.41015e-06
86 *859:14 *2460:A2 0.000178634
87 *859:14 *932:70 0.00018471
88 *859:14 *932:72 0.000134134
89 *878:10 *2460:A2 4.29107e-05
90 *885:32 *932:14 0
91 *888:34 *2482:A2 1.86833e-05
92 *888:36 *2482:A2 0.000480056
93 *889:26 *932:14 0.000131533
94 *889:26 *932:22 1.92979e-05
95 *892:121 *932:49 0.000325823
96 *896:48 *932:49 0.000588052
97 *911:72 *932:70 0
98 *911:92 *2460:A2 1.38011e-05
99 *911:92 *2559:A2 2.04563e-05
100 *916:103 *932:49 0.000180789
*RES
1 *3214:X *932:6 2.74 
2 *932:6 *932:14 10.4 
3 *932:14 *932:22 11.2325 
4 *932:22 *932:30 4.80983 
5 *932:30 *2592:A2 1.6 
6 *932:30 *932:49 16.75 
7 *932:49 *2493:A2 8.395 
8 *932:49 *932:70 12.095 
9 *932:70 *932:72 1.635 
10 *932:72 *2460:A2 10.23 
11 *932:72 *2559:A2 12.375 
12 *932:70 *2581:A2 3.6 
13 *932:22 *932:119 1.39703 
14 *932:119 *2537:A2 4.74 
15 *932:119 *932:134 10.46 
16 *932:134 *2570:A2 2.395 
17 *932:134 *2482:A2 19.445 
18 *932:14 *2548:A2 5.085 
19 *932:6 *2625:A2 3.805 
*END

*D_NET *933 0.017096
*CONN
*I *2603:A2 I *D sky130_fd_sc_hd__o22ai_2
*I *2471:A2 I *D sky130_fd_sc_hd__o22ai_2
*I *2504:A2 I *D sky130_fd_sc_hd__o22ai_2
*I *2515:A2 I *D sky130_fd_sc_hd__o22ai_1
*I *2526:A2 I *D sky130_fd_sc_hd__o22ai_1
*I *2614:A2 I *D sky130_fd_sc_hd__o22ai_2
*I *3215:X O *D sky130_fd_sc_hd__buf_2
*CAP
1 *2603:A2 0
2 *2471:A2 0.000435584
3 *2504:A2 0.00019106
4 *2515:A2 0.000839054
5 *2526:A2 0
6 *2614:A2 9.71446e-05
7 *3215:X 0.000167653
8 *933:82 0.000783841
9 *933:39 0.0018598
10 *933:24 0.00208658
11 *933:18 0.00143694
12 *933:10 0.000793108
13 *2515:A2 *962:60 0.000691192
14 *2515:A2 *962:73 0.000100953
15 *2463:B1 *933:24 8.20035e-05
16 *2465:B1 *2471:A2 0.000645712
17 *2465:B1 *933:82 7.37496e-05
18 *2471:B2 *2471:A2 3.49142e-05
19 *2503:C *933:10 0.000100829
20 *2503:C *933:18 0.000362415
21 *2504:A1 *2504:A2 7.9642e-06
22 *2508:A2 *2515:A2 0
23 *2508:B2 *2515:A2 0
24 *2509:A2 *933:18 0.000241638
25 *2515:B2 *2515:A2 0
26 *2517:A1 *933:39 5.36384e-06
27 *2526:A1 *2515:A2 0.000129333
28 *2526:A1 *933:39 1.52352e-05
29 *2526:B1 *2515:A2 9.47454e-05
30 *2595:A1 *933:82 7.9642e-06
31 *2603:A1 *2471:A2 5.53249e-06
32 *2603:A1 *933:82 3.07434e-05
33 *2604:B *2515:A2 0.000272864
34 *2605:A2 *2614:A2 1.73877e-05
35 *2605:B1 *933:24 0.000274343
36 *2606:C1 *2614:A2 0.000118513
37 *2618:A1 *933:24 0.000301205
38 *2618:A2 *933:24 9.67081e-06
39 *2625:A1 *2515:A2 0.000136905
40 *2640:B *2515:A2 1.7635e-05
41 *2946:D *2471:A2 0
42 *3044:GATE_N *933:39 0.000124753
43 *3051:GATE_N *2504:A2 4.82863e-05
44 *3084:GATE_N *2614:A2 0
45 *3108:A *933:24 0.000498658
46 *3129:A *933:18 5.42715e-05
47 *3143:A *2515:A2 0.000140681
48 *3214:A *2515:A2 3.37704e-05
49 *382:10 *2515:A2 0.000108432
50 *531:8 *2471:A2 4.82919e-05
51 *561:14 *2504:A2 9.58678e-06
52 *571:10 *2515:A2 0.000119756
53 *581:10 *2515:A2 8.77825e-05
54 *811:26 *2614:A2 9.49203e-05
55 *812:28 *933:24 0.000199293
56 *812:36 *933:24 5.6951e-05
57 *823:8 *933:18 0.000498768
58 *826:12 *2504:A2 8.89968e-05
59 *826:12 *933:24 1.48335e-05
60 *830:31 *2471:A2 0.00013994
61 *865:43 *933:39 6.63468e-05
62 *865:47 *933:39 3.54942e-05
63 *865:59 *933:24 0.000128819
64 *865:59 *933:39 0.00014161
65 *866:35 *2504:A2 2.75145e-05
66 *866:35 *933:82 0.000452569
67 *869:33 *933:10 0.000233131
68 *869:33 *933:18 0.000215102
69 *881:39 *933:10 4.49872e-05
70 *885:32 *2515:A2 0
71 *889:26 *2515:A2 0.000151645
72 *917:62 *933:10 8.35106e-05
73 *919:49 *2504:A2 0.00012106
74 *919:49 *933:24 0.00026288
75 *932:14 *2515:A2 0.000293733
*RES
1 *3215:X *933:10 7.305 
2 *933:10 *933:18 13.03 
3 *933:18 *933:24 21.095 
4 *933:24 *2614:A2 8.255 
5 *933:24 *933:39 12.195 
6 *933:39 *2526:A2 1.6 
7 *933:39 *2515:A2 26.39 
8 *933:18 *2504:A2 7.725 
9 *933:10 *933:82 9.115 
10 *933:82 *2471:A2 13.11 
11 *933:82 *2603:A2 3.6 
*END

*D_NET *934 0.0194229
*CONN
*I *2612:C1 I *D sky130_fd_sc_hd__a211o_1
*I *2543:C1 I *D sky130_fd_sc_hd__a221o_1
*I *2590:C1 I *D sky130_fd_sc_hd__a211o_1
*I *2535:C1 I *D sky130_fd_sc_hd__a211o_1
*I *2491:C1 I *D sky130_fd_sc_hd__a211o_1
*I *2557:C1 I *D sky130_fd_sc_hd__a211o_1
*I *2458:C1 I *D sky130_fd_sc_hd__a211o_1
*I *2480:C1 I *D sky130_fd_sc_hd__a211o_1
*I *2579:C1 I *D sky130_fd_sc_hd__a211o_1
*I *2568:C1 I *D sky130_fd_sc_hd__a211o_1
*I *3216:X O *D sky130_fd_sc_hd__buf_2
*CAP
1 *2612:C1 1.93709e-05
2 *2543:C1 0.000393694
3 *2590:C1 0
4 *2535:C1 0.000134584
5 *2491:C1 0.000194179
6 *2557:C1 0.000824902
7 *2458:C1 0.000115932
8 *2480:C1 0.000100396
9 *2579:C1 0.000145998
10 *2568:C1 0.000307265
11 *3216:X 0.000334339
12 *934:70 0.000715368
13 *934:64 0.00132394
14 *934:51 0.000522103
15 *934:30 0.000728034
16 *934:28 0.000368861
17 *934:26 0.000458912
18 *934:22 0.000585945
19 *934:12 0.00116011
20 *934:6 0.000728497
21 *934:6 *3216:A 9.91257e-05
22 *2456:B2 *2458:C1 0.000163199
23 *2459:C *2458:C1 0.00015639
24 *2477:A2 *2458:C1 9.21168e-05
25 *2480:B1 *2480:C1 5.53249e-06
26 *2481:C *2480:C1 2.97095e-05
27 *2481:C *934:70 7.21296e-06
28 *2490:A2 *2491:C1 0.000418498
29 *2491:A2 *2491:C1 0.000158492
30 *2491:B1 *2491:C1 3.09774e-05
31 *2535:A1 *2535:C1 4.62111e-05
32 *2535:B1 *2535:C1 4.82863e-05
33 *2536:C *2535:C1 3.34652e-05
34 *2536:C *934:26 0.000136884
35 *2543:A2 *2543:C1 2.87433e-05
36 *2543:B2 *2543:C1 3.92616e-05
37 *2555:A2 *2557:C1 2.85032e-05
38 *2555:B2 *2557:C1 0.000313852
39 *2557:B1 *2557:C1 9.50342e-06
40 *2558:B *2557:C1 0.000118964
41 *2568:A1 *2568:C1 8.01019e-05
42 *2568:A2 *2568:C1 3.95698e-05
43 *2576:A1 *934:51 5.20968e-05
44 *2579:A1 *2579:C1 5.05521e-05
45 *2590:B1 *934:26 0.00031209
46 *2910:GATE_N *2557:C1 7.71199e-05
47 *2972:D *934:22 6.36656e-05
48 *2977:GATE_N *2568:C1 0.000276441
49 *2977:GATE_N *934:51 0
50 *2983:D *2557:C1 9.09197e-05
51 *2983:GATE_N *2557:C1 0.000116372
52 *2983:GATE_N *934:70 0.000159843
53 *2993:GATE_N *934:22 0.000148975
54 *3004:GATE_N *2543:C1 8.65961e-05
55 *3009:GATE_N *2491:C1 0.00035048
56 *3020:GATE_N *934:12 1.08758e-05
57 *3144:A *934:22 4.36369e-05
58 *3192:A *2543:C1 7.63125e-05
59 *3192:A *934:6 0.000382758
60 *3192:A *934:12 0.000135065
61 *814:72 *2568:C1 1.03833e-05
62 *814:72 *934:30 3.56638e-05
63 *814:72 *934:51 4.62396e-05
64 *814:116 *2480:C1 0.000133535
65 *814:116 *934:70 0.000151432
66 *816:10 *2543:C1 0
67 *833:12 *934:26 6.89977e-05
68 *833:12 *934:28 8.15598e-05
69 *833:14 *934:28 0.000201417
70 *833:14 *934:30 0.000126247
71 *833:14 *934:51 0.00069096
72 *833:18 *2579:C1 0.00013611
73 *833:18 *934:51 9.61344e-05
74 *833:52 *934:70 6.32125e-05
75 *847:23 *934:22 0
76 *847:25 *2543:C1 2.46077e-05
77 *847:25 *934:22 0
78 *847:36 *2543:C1 5.98004e-06
79 *853:63 *934:51 0
80 *853:65 *2579:C1 0
81 *853:65 *934:51 0
82 *853:67 *2579:C1 0
83 *855:20 *2568:C1 0.000259942
84 *858:34 *2557:C1 0.000186441
85 *900:6 *934:6 1.12578e-05
86 *900:21 *2612:C1 4.92971e-05
87 *900:38 *934:22 0.000277223
88 *900:42 *934:22 7.79931e-05
89 *900:79 *2480:C1 0
90 *904:38 *2568:C1 0.00037702
91 *906:75 *2543:C1 0.000438708
92 *906:93 *2543:C1 1.56428e-05
93 *908:83 *934:70 0.000137571
94 *908:85 *2458:C1 0.000232105
95 *908:125 *2579:C1 0.000198051
96 *921:26 *2612:C1 5.05223e-05
97 *921:30 *2535:C1 0.000230435
98 *921:34 *2535:C1 0.000120655
99 *928:33 *2543:C1 0.000147872
100 *928:39 *934:26 0.000356657
101 *928:47 *2491:C1 0.000386215
102 *928:47 *934:26 0.000114093
103 *928:47 *934:28 0.000186448
104 *928:47 *934:30 1.54318e-05
*RES
1 *3216:X *934:6 7.57 
2 *934:6 *934:12 6.605 
3 *934:12 *934:22 9.875 
4 *934:22 *934:26 8.735 
5 *934:26 *934:28 4.185 
6 *934:28 *934:30 1.5075 
7 *934:30 *2568:C1 12.8025 
8 *934:30 *934:51 9.1575 
9 *934:51 *2579:C1 7.065 
10 *934:51 *934:64 2 
11 *934:64 *934:70 9.515 
12 *934:70 *2480:C1 5.685 
13 *934:70 *2458:C1 7.515 
14 *934:64 *2557:C1 19.445 
15 *934:28 *2491:C1 11.31 
16 *934:26 *2535:C1 7.17 
17 *934:22 *2590:C1 1.6 
18 *934:12 *2543:C1 13.05 
19 *934:6 *2612:C1 6.215 
*END

*D_NET *935 0.00397932
*CONN
*I *2662:A1 I *D sky130_fd_sc_hd__mux2_1
*I *3257:X O *D sky130_fd_sc_hd__clkbuf_1
*CAP
1 *2662:A1 0.000984567
2 *3257:X 0.000984567
3 *2662:A1 *2660:S 0.000362965
4 *2662:A1 *2662:A0 4.66742e-05
5 *2662:A1 *2663:A1 6.81315e-05
6 *2662:A1 *3328:A 0.000108974
7 *2662:A1 *3333:A 5.92849e-05
8 *2662:A1 *3336:A 2.87867e-05
9 *2662:A1 *987:10 0
10 PSEL4 *2662:A1 0.000613548
11 PWDATA[1] *2662:A1 0
12 PWDATA[4] *2662:A1 0
13 PWRITE *2662:A1 0
14 *2437:A *2662:A1 3.48266e-05
15 *2661:A1 *2662:A1 7.54678e-05
16 *2811:D *2662:A1 0
17 *2812:D *2662:A1 0.000183462
18 *3258:A *2662:A1 0
19 *3311:A *2662:A1 0
20 *766:10 *2662:A1 0.000335264
21 *766:27 *2662:A1 9.28053e-05
22 *842:12 *2662:A1 0
23 *842:14 *2662:A1 0
24 *842:18 *2662:A1 0
*RES
1 *3257:X *2662:A1 31.305 
*END

*D_NET *936 0.0130426
*CONN
*I *2598:C1 I *D sky130_fd_sc_hd__a221o_1
*I *2395:A I *D sky130_fd_sc_hd__nand2_1
*I *2468:C1 I *D sky130_fd_sc_hd__a221o_1
*I *2501:C1 I *D sky130_fd_sc_hd__a221o_1
*I *2524:C1 I *D sky130_fd_sc_hd__a211o_1
*I *2513:C1 I *D sky130_fd_sc_hd__a211o_1
*I *2623:C1 I *D sky130_fd_sc_hd__a211o_1
*I *3217:X O *D sky130_fd_sc_hd__clkbuf_2
*CAP
1 *2598:C1 6.76617e-05
2 *2395:A 0.000566112
3 *2468:C1 0
4 *2501:C1 0.000387891
5 *2524:C1 0.000509621
6 *2513:C1 0.000136371
7 *2623:C1 0.000482269
8 *3217:X 0.000433253
9 *936:60 0.000897511
10 *936:49 0.000978972
11 *936:37 0.000842601
12 *936:24 0.000548496
13 *936:20 0.000782606
14 *936:18 0.000651183
15 *936:18 *2385:A 5.56629e-05
16 *936:18 *2385:B 1.03423e-05
17 *936:18 *2385:C 2.8185e-05
18 *936:18 *2400:A_N 0.000159741
19 *936:18 *2424:D 4.24292e-06
20 *936:18 *938:36 5.55344e-05
21 *936:18 *940:42 9.17274e-05
22 *2397:A *936:49 0.000153816
23 *2415:B *2501:C1 0
24 *2462:A1 *2395:A 0.00011327
25 *2462:B1 *2623:C1 1.7635e-05
26 *2468:A1 *2623:C1 0
27 *2468:A1 *936:24 2.97004e-06
28 *2468:B1 *936:20 3.14155e-05
29 *2468:B1 *936:24 1.56477e-05
30 *2468:B2 *2395:A 6.03947e-06
31 *2468:B2 *936:49 0.00015639
32 *2469:C1 *2623:C1 4.55993e-05
33 *2500:A1 *2501:C1 2.11084e-05
34 *2501:A1 *2501:C1 0
35 *2503:D *2598:C1 2.5133e-05
36 *2510:A2 *936:49 2.75229e-05
37 *2510:B2 *2513:C1 0.000127929
38 *2510:B2 *936:49 7.87893e-05
39 *2511:C1 *2524:C1 0.000113797
40 *2512:A2 *2501:C1 8.65961e-05
41 *2513:A1 *2513:C1 4.82919e-05
42 *2513:A2 *2524:C1 1.73877e-05
43 *2513:B1 *2524:C1 0
44 *2514:C *2524:C1 0.000134516
45 *2521:A1 *2524:C1 0
46 *2521:A2 *2524:C1 0.00037544
47 *2522:A2 *2524:C1 0
48 *2522:C1 *2524:C1 6.47594e-05
49 *2523:B1 *2524:C1 0.000329659
50 *2524:A1 *2524:C1 4.82919e-05
51 *2524:B1 *2524:C1 4.99619e-05
52 *2598:A1 *936:18 0.000114492
53 *2598:B1 *936:18 2.15594e-05
54 *2598:B1 *936:20 5.98701e-05
55 *2598:B2 *2598:C1 0.000186449
56 *2599:C1 *936:18 0.000112906
57 *2599:C1 *936:20 9.50342e-06
58 *2622:A2 *2623:C1 0.000324677
59 *2623:A1 *2623:C1 4.66108e-05
60 *2851:GATE_N *2501:C1 0
61 *2851:GATE_N *2513:C1 8.40269e-05
62 *2962:D *2501:C1 0
63 *2978:GATE_N *2501:C1 0
64 *2991:D *936:49 8.23457e-05
65 *2991:GATE_N *936:49 0.00027042
66 *3071:GATE_N *2623:C1 0.000368195
67 *3134:A *2524:C1 0
68 *3135:A *2501:C1 0
69 *3192:A *2623:C1 7.36404e-05
70 *3192:A *936:20 0
71 *3192:A *936:24 0
72 *3196:A *2395:A 4.80285e-05
73 *3196:A *936:20 8.19951e-05
74 *3196:A *936:24 0
75 *3372:A *936:18 9.17274e-05
76 *476:12 *936:18 6.61483e-05
77 *893:12 *936:20 9.58678e-06
78 *906:10 *2395:A 8.21821e-05
79 *906:20 *2395:A 6.8725e-06
80 *907:48 *936:49 0.000376033
81 *909:18 *2598:C1 0.000253423
82 *909:66 *2501:C1 7.36562e-05
83 *909:66 *2524:C1 1.1561e-05
84 *922:68 *2623:C1 6.71882e-05
85 *922:87 *2524:C1 0
86 *929:18 *2501:C1 0
87 *929:26 *2524:C1 1.1561e-05
88 *929:26 *936:49 1.12578e-05
89 *929:48 *936:49 0.000159947
90 *929:58 *936:49 0.000134311
91 *929:83 *2623:C1 2.04531e-05
*RES
1 *3217:X *936:18 15.55 
2 *936:18 *936:20 3.165 
3 *936:20 *936:24 1.065 
4 *936:24 *2623:C1 15.3 
5 *936:24 *936:37 2 
6 *936:37 *936:49 15.54 
7 *936:49 *2513:C1 4.48 
8 *936:49 *936:60 2 
9 *936:60 *2524:C1 16.65 
10 *936:60 *2501:C1 10.11 
11 *936:37 *2468:C1 1.6 
12 *936:20 *2395:A 10.53 
13 *936:18 *2598:C1 6.495 
*END

*D_NET *937 0.00494269
*CONN
*I *3216:A I *D sky130_fd_sc_hd__buf_2
*I *3308:X O *D sky130_fd_sc_hd__clkbuf_1
*CAP
1 *3216:A 0.00103414
2 *3308:X 0.00103414
3 *2395:B *3216:A 9.26907e-06
4 *2462:A1 *3216:A 0.000156344
5 *2613:C *3216:A 0.00011852
6 *2614:B2 *3216:A 0
7 *2948:GATE_N *3216:A 0.00100058
8 *3171:A *3216:A 0
9 *3198:A *3216:A 0
10 *3208:A *3216:A 0.000781399
11 *3304:A *3216:A 0.000133555
12 *383:10 *3216:A 0
13 *435:12 *3216:A 8.89813e-05
14 *488:14 *3216:A 0.000352166
15 *831:22 *3216:A 0
16 *840:44 *3216:A 9.56242e-06
17 *864:47 *3216:A 0
18 *900:6 *3216:A 0.0001249
19 *934:6 *3216:A 9.91257e-05
*RES
1 *3308:X *3216:A 32.505 
*END

*D_NET *938 0.00816682
*CONN
*I *2780:A I *D sky130_fd_sc_hd__xnor2_1
*I *2416:B I *D sky130_fd_sc_hd__and4b_1
*I *2398:C I *D sky130_fd_sc_hd__nor4b_1
*I *2410:D_N I *D sky130_fd_sc_hd__nor4b_1
*I *2412:C I *D sky130_fd_sc_hd__and4bb_1
*I *2414:C I *D sky130_fd_sc_hd__and4bb_1
*I *2396:C I *D sky130_fd_sc_hd__nor4b_1
*I *2400:B_N I *D sky130_fd_sc_hd__and4bb_1
*I *2385:D I *D sky130_fd_sc_hd__nor4_1
*I *2424:D I *D sky130_fd_sc_hd__and4_1
*I *3218:X O *D sky130_fd_sc_hd__clkbuf_2
*CAP
1 *2780:A 0.000136762
2 *2416:B 0
3 *2398:C 4.56695e-05
4 *2410:D_N 0.000182715
5 *2412:C 0
6 *2414:C 0
7 *2396:C 0.000319413
8 *2400:B_N 1.41735e-05
9 *2385:D 0
10 *2424:D 0.000231543
11 *3218:X 0.00012331
12 *938:119 0.000206457
13 *938:51 1.41735e-05
14 *938:36 0.0003902
15 *938:32 0.000513066
16 *938:30 8.25337e-05
17 *938:26 0.000568186
18 *938:14 0.00097242
19 *938:8 0.000733772
20 *2396:C *2396:A 0
21 *2396:C *2414:A_N 0.000199833
22 *2396:C *2414:D 0.000320461
23 *2396:C *940:27 7.60501e-05
24 *2396:C *943:41 4.66826e-05
25 *2398:C *2416:A_N 0.000124895
26 *2398:C *2416:C 0.000249341
27 *2398:C *2416:D 6.20787e-05
28 *2400:B_N *2385:B 8.65961e-05
29 *2400:B_N *2385:C 8.65961e-05
30 *2410:D_N *2410:C 1.17599e-05
31 *2410:D_N *2412:B_N 9.41611e-05
32 *2410:D_N *947:71 0.000226564
33 *938:26 *947:71 1.34503e-05
34 *938:26 *947:77 3.09179e-05
35 *938:30 *947:77 2.25075e-05
36 *938:32 *947:77 2.66939e-05
37 *938:36 *2385:A 3.47668e-05
38 *938:36 *947:77 1.22676e-05
39 *938:119 *2416:C 5.57182e-05
40 *938:119 *2416:D 9.26636e-05
41 *2503:D *2424:D 8.40213e-05
42 *2597:A1 *938:14 0
43 *2597:A2 *938:14 0.000180668
44 *2597:B2 *938:14 0.000113797
45 *2598:A1 *2424:D 4.94326e-05
46 *2599:A1 *938:26 0.000183043
47 *2599:A2 *938:14 3.05373e-05
48 *2599:C1 *938:119 1.91597e-05
49 *2602:B *938:119 1.73913e-05
50 *2775:B *2780:A 4.99619e-05
51 *2775:B *938:8 0
52 *2776:B *938:8 0
53 *2776:B *938:14 0
54 *2987:GATE_N *938:26 0
55 *3192:A *938:26 6.14776e-05
56 *3193:A *938:26 8.08153e-06
57 *3194:A *938:26 4.82863e-05
58 *3197:A *938:14 0.000232111
59 *3197:A *938:119 0.000197269
60 *3211:A *938:14 0
61 *3212:A *2424:D 0
62 *3212:A *938:30 0
63 *3212:A *938:32 0
64 *3212:A *938:36 0
65 *3213:A *938:26 0.000136883
66 *494:8 *938:26 8.23457e-05
67 *496:8 *938:119 0.000120655
68 *850:31 *938:26 2.8585e-06
69 *870:24 *938:14 1.34594e-05
70 *907:12 *938:14 9.50342e-06
71 *909:18 *2424:D 3.37248e-05
72 *925:33 *938:32 1.7396e-05
73 *925:33 *938:36 6.57653e-06
74 *936:18 *2424:D 4.24292e-06
75 *936:18 *938:36 5.55344e-05
*RES
1 *3218:X *938:8 5.49 
2 *938:8 *938:14 11 
3 *938:14 *938:26 10.165 
4 *938:26 *938:30 2.87 
5 *938:30 *938:32 0.87 
6 *938:32 *938:36 2.85 
7 *938:36 *2424:D 6.915 
8 *938:36 *938:51 2 
9 *938:51 *2385:D 1.6 
10 *938:51 *2400:B_N 2.395 
11 *938:32 *2396:C 10.44 
12 *938:30 *2414:C 3.6 
13 *938:26 *2412:C 1.6 
14 *938:26 *2410:D_N 5.53 
15 *938:14 *938:119 4.275 
16 *938:119 *2398:C 4.135 
17 *938:119 *2416:B 1.6 
18 *938:8 *2780:A 5.775 
*END

*D_NET *939 0.00831105
*CONN
*I *2402:C I *D sky130_fd_sc_hd__nor4b_1
*I *2418:D I *D sky130_fd_sc_hd__and4bb_1
*I *2386:D I *D sky130_fd_sc_hd__or4_1
*I *2420:C I *D sky130_fd_sc_hd__and4b_1
*I *2404:B_N I *D sky130_fd_sc_hd__and4bb_1
*I *2408:A_N I *D sky130_fd_sc_hd__and4b_1
*I *2422:D I *D sky130_fd_sc_hd__and4b_1
*I *2406:B_N I *D sky130_fd_sc_hd__and4bb_1
*I *2782:A1 I *D sky130_fd_sc_hd__a22o_1
*I *3219:X O *D sky130_fd_sc_hd__clkbuf_2
*CAP
1 *2402:C 6.18117e-05
2 *2418:D 2.72657e-05
3 *2386:D 0
4 *2420:C 0.000234831
5 *2404:B_N 0.000139645
6 *2408:A_N 0
7 *2422:D 7.83726e-05
8 *2406:B_N 0
9 *2782:A1 4.20165e-05
10 *3219:X 1.85936e-05
11 *939:79 0.000532802
12 *939:64 0.000437616
13 *939:46 0.000201098
14 *939:40 0.000162702
15 *939:38 0.000201385
16 *939:27 0.000207126
17 *939:23 0.000525238
18 *939:6 0.000451052
19 *2402:C *2402:A 0.000114024
20 *2404:B_N *3220:A 4.35432e-05
21 *2404:B_N *948:20 8.23457e-05
22 *2418:D *2418:A_N 5.83121e-06
23 *2418:D *941:21 8.23457e-05
24 *2422:D *2422:C 8.82311e-05
25 *2422:D *941:38 0
26 *2782:A1 *2782:A2 0.000124895
27 *939:6 *2782:A2 8.40269e-05
28 *939:23 *2402:A 4.66108e-05
29 *939:23 *942:12 2.68721e-05
30 *939:23 *945:25 0
31 *939:27 *2402:D_N 6.99988e-05
32 *939:27 *3226:A 0
33 *939:27 *948:10 2.92496e-05
34 *939:27 *948:12 0.000159957
35 *939:38 *2402:D_N 5.16418e-05
36 *939:38 *3226:A 0
37 *939:38 *948:12 3.31282e-05
38 *939:38 *948:14 6.10014e-05
39 *939:38 *948:20 1.1561e-05
40 *939:40 *941:21 9.14049e-05
41 *939:46 *2422:C 4.66108e-05
42 *939:46 *941:21 6.22925e-05
43 *939:46 *941:25 0.000175536
44 *939:79 *2386:C 0.000133544
45 *939:79 *3226:A 2.16654e-05
46 *939:79 *948:20 7.14699e-05
47 *939:79 *948:33 0.000197269
48 *2503:D *2420:C 0.000418613
49 *2602:B *2420:C 4.51641e-05
50 *2782:B1 *2782:A1 2.30292e-05
51 *2782:B2 *2782:A1 1.23763e-05
52 *2907:GATE_N *939:79 4.36573e-06
53 *3035:GATE_N *2418:D 4.66108e-05
54 *3035:GATE_N *939:38 2.07184e-05
55 *3035:GATE_N *939:40 0.00010596
56 *3035:GATE_N *939:46 0.000109411
57 *3096:D *939:23 7.23602e-05
58 *3190:A *2420:C 9.30787e-05
59 *3202:A *2420:C 4.94404e-05
60 *3218:A *2782:A1 0.000132649
61 *3218:A *939:6 7.3151e-05
62 *499:18 *939:46 4.9968e-05
63 *752:10 *939:23 0.000163985
64 *752:19 *939:23 0.000194264
65 *753:12 *2402:C 0.000199833
66 *753:12 *939:23 0.000534304
67 *834:72 *939:38 8.71001e-05
68 *834:72 *939:40 1.07797e-05
69 *849:12 *939:79 5.16348e-05
70 *849:31 *2420:C 6.02202e-05
71 *849:31 *939:79 3.94887e-05
72 *850:31 *2418:D 8.34281e-06
73 *870:24 *2402:C 1.90662e-05
74 *870:24 *939:23 0.000157916
75 *925:43 *2420:C 0.00011379
76 *925:43 *939:79 0.000176822
*RES
1 *3219:X *939:6 2.395 
2 *939:6 *2782:A1 3.445 
3 *939:6 *939:23 14.65 
4 *939:23 *939:27 4.145 
5 *939:27 *2406:B_N 3.6 
6 *939:27 *939:38 3.105 
7 *939:38 *939:40 1.38 
8 *939:40 *939:46 5.36 
9 *939:46 *2422:D 3.11125 
10 *939:46 *2408:A_N 1.6 
11 *939:40 *939:64 2 
12 *939:64 *2404:B_N 3.445 
13 *939:64 *939:79 7.685 
14 *939:79 *2420:C 14.005 
15 *939:79 *2386:D 3.6 
16 *939:38 *2418:D 4.395 
17 *939:23 *2402:C 3.79 
*END

*D_NET *940 0.00729383
*CONN
*I *2386:C I *D sky130_fd_sc_hd__or4_1
*I *2416:A_N I *D sky130_fd_sc_hd__and4b_1
*I *2398:B I *D sky130_fd_sc_hd__nor4b_1
*I *2410:C I *D sky130_fd_sc_hd__nor4b_1
*I *2412:B_N I *D sky130_fd_sc_hd__and4bb_1
*I *2400:A_N I *D sky130_fd_sc_hd__and4bb_1
*I *2385:C I *D sky130_fd_sc_hd__nor4_1
*I *2424:C I *D sky130_fd_sc_hd__and4_1
*I *2414:B_N I *D sky130_fd_sc_hd__and4bb_1
*I *2396:B I *D sky130_fd_sc_hd__nor4b_1
*I *3220:X O *D sky130_fd_sc_hd__clkbuf_2
*CAP
1 *2386:C 4.92494e-05
2 *2416:A_N 4.16846e-05
3 *2398:B 0
4 *2410:C 7.33221e-05
5 *2412:B_N 0.000100289
6 *2400:A_N 5.15592e-05
7 *2385:C 9.40459e-05
8 *2424:C 8.19821e-05
9 *2414:B_N 0.000146233
10 *2396:B 0
11 *3220:X 0
12 *940:105 0.000208508
13 *940:79 0.000173611
14 *940:77 0.000200255
15 *940:44 0.000196899
16 *940:42 0.000156159
17 *940:40 0.000117161
18 *940:27 0.000383279
19 *940:14 0.00073865
20 *940:4 0.000550853
21 *2385:C *2385:B 0.000245688
22 *2410:C *2412:A_N 2.10279e-05
23 *2410:C *947:60 8.40269e-05
24 *2410:C *947:71 1.91597e-05
25 *2414:B_N *2414:D 0.000102588
26 *2416:A_N *2398:A 8.52137e-06
27 *2416:A_N *2416:C 2.16917e-05
28 *2416:A_N *2416:D 0.00017529
29 *2424:C *2400:C 9.47454e-05
30 *940:14 *3220:A 3.24882e-05
31 *940:14 *943:33 0.000398021
32 *940:14 *943:41 4.82919e-05
33 *940:14 *947:43 2.41376e-05
34 *940:27 *2414:D 2.39856e-05
35 *940:27 *943:41 1.03323e-05
36 *940:27 *947:43 4.55864e-06
37 *940:27 *947:60 3.77444e-05
38 *940:42 *943:82 2.4997e-05
39 *940:77 *943:82 3.23391e-05
40 *940:77 *947:60 8.53113e-06
41 *940:105 *943:104 2.42236e-05
42 *940:105 *947:60 4.76263e-05
43 *940:105 *947:110 0.00012559
44 *2396:C *940:27 7.60501e-05
45 *2398:C *2416:A_N 0.000124895
46 *2400:B_N *2385:C 8.65961e-05
47 *2410:D_N *2410:C 1.17599e-05
48 *2410:D_N *2412:B_N 9.41611e-05
49 *2907:GATE_N *940:14 0.000118081
50 *3217:A *940:42 0.000156621
51 *3217:A *940:44 2.07184e-05
52 *3305:A *940:105 2.59981e-05
53 *3308:A *2424:C 1.7902e-05
54 *3308:A *940:44 2.92496e-05
55 *3372:A *2424:C 0.00013521
56 *3372:A *940:42 5.01427e-05
57 *3372:A *940:44 2.15594e-05
58 *3372:A *940:77 3.23391e-05
59 *3372:A *940:105 8.44698e-05
60 *476:12 *2385:C 0.000258958
61 *476:12 *2400:A_N 0.00019637
62 *490:14 *940:14 0.000153816
63 *493:8 *940:14 2.60049e-05
64 *493:8 *940:27 3.50959e-05
65 *849:31 *2386:C 0.000133544
66 *850:31 *2410:C 1.17409e-05
67 *936:18 *2385:C 2.8185e-05
68 *936:18 *2400:A_N 0.000159741
69 *936:18 *940:42 9.17274e-05
70 *939:79 *2386:C 0.000133544
*RES
1 *3220:X *940:4 1.6 
2 *940:4 *940:14 9.74 
3 *940:14 *2396:B 3.6 
4 *940:14 *940:27 5.39 
5 *940:27 *2414:B_N 3.895 
6 *940:27 *940:40 2 
7 *940:40 *940:42 2.4 
8 *940:42 *940:44 0.615 
9 *940:44 *2424:C 5.685 
10 *940:44 *2385:C 7.17 
11 *940:42 *2400:A_N 5.43 
12 *940:40 *940:77 0.87 
13 *940:77 *940:79 2 
14 *940:79 *2412:B_N 3.1 
15 *940:79 *2410:C 3.46 
16 *940:77 *940:105 5.105 
17 *940:105 *2398:B 1.6 
18 *940:105 *2416:A_N 3.445 
19 *940:4 *2386:C 7.235 
*END

*D_NET *941 0.00449764
*CONN
*I *2406:C I *D sky130_fd_sc_hd__and4bb_1
*I *2402:D_N I *D sky130_fd_sc_hd__nor4b_1
*I *2404:C I *D sky130_fd_sc_hd__and4bb_1
*I *2420:B I *D sky130_fd_sc_hd__and4b_1
*I *2408:B I *D sky130_fd_sc_hd__and4b_1
*I *2422:C I *D sky130_fd_sc_hd__and4b_1
*I *2418:C I *D sky130_fd_sc_hd__and4bb_1
*I *3221:X O *D sky130_fd_sc_hd__buf_1
*CAP
1 *2406:C 2.96092e-05
2 *2402:D_N 7.09017e-05
3 *2404:C 0
4 *2420:B 0.00031302
5 *2408:B 0
6 *2422:C 9.27273e-05
7 *2418:C 0
8 *3221:X 0
9 *941:73 0.000199963
10 *941:38 0.000362555
11 *941:25 0.000216544
12 *941:21 0.000216364
13 *941:10 0.000197341
14 *941:4 0.000154711
15 *2402:D_N *2402:B 8.71001e-05
16 *2402:D_N *3226:A 7.21296e-06
17 *2406:C *2406:D 3.66286e-05
18 *2406:C *944:69 8.65961e-05
19 *2420:B *2408:D 9.60845e-05
20 *2420:B *2420:D 0.00027387
21 *2420:B *944:31 7.72515e-06
22 *2422:C *2408:D 3.68715e-06
23 *2422:C *2422:B 4.23245e-05
24 *2422:C *944:31 7.35078e-05
25 *941:10 *944:10 0.00015829
26 *941:10 *944:12 8.53113e-06
27 *941:10 *944:69 8.53113e-06
28 *941:10 *948:14 8.45475e-05
29 *941:10 *948:20 7.5416e-05
30 *941:21 *2418:A_N 1.19928e-05
31 *941:38 *944:31 1.19928e-05
32 *941:73 *2406:A_N 4.82919e-05
33 *941:73 *944:69 0.000158066
34 *2418:D *941:21 8.23457e-05
35 *2422:D *2422:C 8.82311e-05
36 *2422:D *941:38 0
37 *3035:GATE_N *941:21 1.91597e-05
38 *492:14 *2420:B 0.000167049
39 *497:8 *941:21 4.66108e-05
40 *499:18 *2422:C 4.82863e-05
41 *834:72 *2406:C 8.49205e-05
42 *834:72 *941:21 0.000153881
43 *834:72 *941:25 0.000175536
44 *939:27 *2402:D_N 6.99988e-05
45 *939:38 *2402:D_N 5.16418e-05
46 *939:40 *941:21 9.14049e-05
47 *939:46 *2422:C 4.66108e-05
48 *939:46 *941:21 6.22925e-05
49 *939:46 *941:25 0.000175536
*RES
1 *3221:X *941:4 1.6 
2 *941:4 *941:10 5.89 
3 *941:10 *2418:C 1.6 
4 *941:10 *941:21 5.375 
5 *941:21 *941:25 4.145 
6 *941:25 *2422:C 4.135 
7 *941:25 *941:38 1.065 
8 *941:38 *2408:B 1.6 
9 *941:38 *2420:B 8.275 
10 *941:21 *2404:C 3.6 
11 *941:4 *941:73 2.1 
12 *941:73 *2402:D_N 7.745 
13 *941:73 *2406:C 2.74 
*END

*D_NET *942 0.00628134
*CONN
*I *3221:A I *D sky130_fd_sc_hd__buf_1
*I *3220:A I *D sky130_fd_sc_hd__clkbuf_2
*I *2778:A1 I *D sky130_fd_sc_hd__a22o_1
*I *2774:A I *D sky130_fd_sc_hd__nand2_1
*I *2775:A I *D sky130_fd_sc_hd__or2_1
*I *3222:X O *D sky130_fd_sc_hd__buf_1
*CAP
1 *3221:A 0
2 *3220:A 0.000217127
3 *2778:A1 0
4 *2774:A 1.70243e-05
5 *2775:A 0.00049599
6 *3222:X 0
7 *942:59 0.000439131
8 *942:20 0.0008136
9 *942:12 0.000495669
10 *942:4 0.000417087
11 *3220:A *943:33 0.000228347
12 *3220:A *944:10 0.000149759
13 *3220:A *944:12 0.00013994
14 *3220:A *944:69 6.85516e-05
15 *3220:A *948:20 0.000155491
16 *3220:A *948:33 0.000149765
17 *942:12 *945:25 0
18 *942:12 *965:10 9.47454e-05
19 *942:59 *944:69 9.50342e-06
20 *942:59 *948:10 3.69334e-05
21 *942:59 *948:12 6.95248e-05
22 *2404:B_N *3220:A 4.35432e-05
23 *2777:A *2775:A 8.23691e-05
24 *2778:B2 *2775:A 4.99619e-05
25 *2778:B2 *942:20 0.000324113
26 *2779:A1 *2775:A 4.21973e-05
27 *2779:B1_N *2775:A 0.000163199
28 *2781:A *2775:A 2.75145e-05
29 *2781:B *2775:A 0.000184208
30 *2907:GATE_N *3220:A 4.82919e-05
31 *3096:D *942:20 1.01315e-05
32 *3218:A *2775:A 2.86265e-06
33 *383:10 *3220:A 0.00035991
34 *383:10 *942:59 0.000279486
35 *752:10 *942:12 0.000258935
36 *752:10 *942:59 8.88715e-05
37 *752:19 *942:12 9.50342e-06
38 *753:18 *2774:A 5.4155e-06
39 *753:18 *2775:A 0.000122155
40 *753:18 *942:20 5.70565e-05
41 *758:8 *2775:A 2.86623e-05
42 *760:6 *2775:A 3.54025e-05
43 *939:23 *942:12 2.68721e-05
44 *940:14 *3220:A 3.24882e-05
*RES
1 *3222:X *942:4 1.6 
2 *942:4 *942:12 7.885 
3 *942:12 *942:20 5.58 
4 *942:20 *2775:A 14.9 
5 *942:20 *2774:A 1.96 
6 *942:12 *2778:A1 1.6 
7 *942:4 *942:59 6.905 
8 *942:59 *3220:A 11.685 
9 *942:59 *3221:A 3.6 
*END

*D_NET *943 0.00770088
*CONN
*I *2396:A I *D sky130_fd_sc_hd__nor4b_1
*I *2414:D I *D sky130_fd_sc_hd__and4bb_1
*I *2416:D I *D sky130_fd_sc_hd__and4b_1
*I *2398:D_N I *D sky130_fd_sc_hd__nor4b_1
*I *2412:A_N I *D sky130_fd_sc_hd__and4bb_1
*I *2410:B I *D sky130_fd_sc_hd__nor4b_1
*I *2400:D I *D sky130_fd_sc_hd__and4bb_1
*I *2385:B I *D sky130_fd_sc_hd__nor4_1
*I *2424:B I *D sky130_fd_sc_hd__and4_1
*I *2408:C I *D sky130_fd_sc_hd__and4b_1
*I *3223:X O *D sky130_fd_sc_hd__clkbuf_2
*CAP
1 *2396:A 1.36741e-05
2 *2414:D 0.000143703
3 *2416:D 0.000100024
4 *2398:D_N 0
5 *2412:A_N 7.95595e-05
6 *2410:B 0
7 *2400:D 0
8 *2385:B 0.000293498
9 *2424:B 6.82079e-05
10 *2408:C 0
11 *3223:X 3.61434e-05
12 *943:104 0.000248822
13 *943:84 7.95595e-05
14 *943:82 0.000228348
15 *943:58 0.000326409
16 *943:43 0.000184508
17 *943:41 0.000477501
18 *943:33 0.000471137
19 *943:8 0.000322747
20 *2412:A_N *947:71 0.000188227
21 *2414:D *2414:A_N 2.16833e-05
22 *2416:D *2398:A 8.52137e-06
23 *2416:D *2416:C 1.34503e-05
24 *2416:D *947:110 1.34594e-05
25 *943:8 *3226:A 0.000115464
26 *943:33 *3226:A 0.000201406
27 *943:82 *947:60 4.88568e-05
28 *943:82 *947:110 8.7152e-06
29 *943:104 *3223:A 0
30 *943:104 *947:110 0.000137779
31 *2385:C *2385:B 0.000245688
32 *2396:C *2396:A 0
33 *2396:C *2414:D 0.000320461
34 *2396:C *943:41 4.66826e-05
35 *2398:C *2416:D 6.20787e-05
36 *2400:B_N *2385:B 8.65961e-05
37 *2410:C *2412:A_N 2.10279e-05
38 *2414:B_N *2414:D 0.000102588
39 *2416:A_N *2416:D 0.00017529
40 *2503:D *2424:B 8.23457e-05
41 *2598:A1 *2385:B 4.66108e-05
42 *2602:B *2416:D 0.000440848
43 *2602:B *943:104 1.34503e-05
44 *3217:A *943:43 0.000170876
45 *3217:A *943:82 8.8246e-06
46 *3220:A *943:33 0.000228347
47 *3304:A *2424:B 8.08153e-06
48 *3304:A *943:43 1.22762e-05
49 *3308:A *2424:B 0.000162784
50 *3308:A *943:43 4.38051e-05
51 *476:12 *2385:B 2.05056e-05
52 *476:12 *943:58 5.83121e-06
53 *486:18 *943:82 6.3596e-05
54 *488:14 *2424:B 4.94404e-05
55 *493:8 *943:41 4.14702e-05
56 *493:8 *943:43 5.66252e-05
57 *493:8 *943:82 9.86707e-06
58 *834:72 *943:8 0.000115464
59 *834:72 *943:33 0.000189548
60 *850:31 *2412:A_N 0.000192125
61 *909:18 *2424:B 2.0514e-05
62 *925:33 *2414:D 0.000160635
63 *936:18 *2385:B 1.03423e-05
64 *938:119 *2416:D 9.26636e-05
65 *940:14 *943:33 0.000398021
66 *940:14 *943:41 4.82919e-05
67 *940:27 *2414:D 2.39856e-05
68 *940:27 *943:41 1.03323e-05
69 *940:42 *943:82 2.4997e-05
70 *940:77 *943:82 3.23391e-05
71 *940:105 *943:104 2.42236e-05
*RES
1 *3223:X *943:8 4.98 
2 *943:8 *2408:C 3.6 
3 *943:8 *943:33 10.385 
4 *943:33 *943:41 4.7975 
5 *943:41 *943:43 2.5575 
6 *943:43 *2424:B 5.775 
7 *943:43 *943:58 2.45 
8 *943:58 *2385:B 6.79 
9 *943:58 *2400:D 1.6 
10 *943:41 *943:82 1.9875 
11 *943:82 *943:84 2 
12 *943:84 *2410:B 1.6 
13 *943:84 *2412:A_N 4.045 
14 *943:82 *943:104 4.595 
15 *943:104 *2398:D_N 1.6 
16 *943:104 *2416:D 6.20875 
17 *943:41 *2414:D 7.965 
18 *943:33 *2396:A 1.96 
*END

*D_NET *944 0.00449484
*CONN
*I *2406:D I *D sky130_fd_sc_hd__and4bb_1
*I *2402:B I *D sky130_fd_sc_hd__nor4b_1
*I *2418:B_N I *D sky130_fd_sc_hd__and4bb_1
*I *2404:A_N I *D sky130_fd_sc_hd__and4bb_1
*I *2420:A_N I *D sky130_fd_sc_hd__and4b_1
*I *2386:B I *D sky130_fd_sc_hd__or4_1
*I *2422:B I *D sky130_fd_sc_hd__and4b_1
*I *3224:X O *D sky130_fd_sc_hd__buf_1
*CAP
1 *2406:D 2.3105e-05
2 *2402:B 5.41436e-05
3 *2418:B_N 0.000103696
4 *2404:A_N 0
5 *2420:A_N 9.50832e-05
6 *2386:B 0
7 *2422:B 9.4822e-05
8 *3224:X 7.87251e-05
9 *944:69 0.000172261
10 *944:31 0.000514872
11 *944:16 0.000556407
12 *944:12 0.000115763
13 *944:10 0.000225258
14 *944:8 0.000221333
15 *2402:B *3226:A 0.000159964
16 *2418:B_N *2418:A_N 5.58206e-05
17 *2420:A_N *2408:D 3.26889e-05
18 *2420:A_N *2420:D 0.000130043
19 *944:12 *948:20 5.84378e-05
20 *944:31 *2408:D 0.000215575
21 *944:69 *948:12 2.4997e-05
22 *944:69 *948:14 1.26626e-05
23 *2402:D_N *2402:B 8.71001e-05
24 *2406:C *2406:D 3.66286e-05
25 *2406:C *944:69 8.65961e-05
26 *2420:B *944:31 7.72515e-06
27 *2422:C *2422:B 4.23245e-05
28 *2422:C *944:31 7.35078e-05
29 *2602:B *2406:D 4.66826e-05
30 *2602:B *944:8 6.3124e-06
31 *2602:B *944:69 0.000151583
32 *3035:GATE_N *944:12 4.0247e-05
33 *3035:GATE_N *944:16 9.17274e-05
34 *3220:A *944:10 0.000149759
35 *3220:A *944:12 0.00013994
36 *3220:A *944:69 6.85516e-05
37 *383:10 *944:12 1.59207e-05
38 *383:10 *944:16 4.9646e-05
39 *477:30 *2420:A_N 3.00381e-05
40 *499:18 *944:31 4.82863e-05
41 *834:72 *2406:D 2.16917e-05
42 *941:10 *944:10 0.00015829
43 *941:10 *944:12 8.53113e-06
44 *941:10 *944:69 8.53113e-06
45 *941:38 *944:31 1.19928e-05
46 *941:73 *944:69 0.000158066
47 *942:59 *944:69 9.50342e-06
*RES
1 *3224:X *944:8 4.395 
2 *944:8 *944:10 1.89 
3 *944:10 *944:12 2.145 
4 *944:12 *944:16 3.125 
5 *944:16 *2422:B 3.22 
6 *944:16 *944:31 4.935 
7 *944:31 *2386:B 1.6 
8 *944:31 *2420:A_N 3.76 
9 *944:12 *2404:A_N 3.6 
10 *944:10 *2418:B_N 5.085 
11 *944:8 *944:69 5.39 
12 *944:69 *2402:B 7.49 
13 *944:69 *2406:D 2.395 
*END

*D_NET *945 0.00610254
*CONN
*I *2768:B1 I *D sky130_fd_sc_hd__o21a_1
*I *2769:A I *D sky130_fd_sc_hd__or3_1
*I *3224:A I *D sky130_fd_sc_hd__buf_1
*I *3223:A I *D sky130_fd_sc_hd__clkbuf_2
*I *2772:A1 I *D sky130_fd_sc_hd__a22o_1
*I *3225:X O *D sky130_fd_sc_hd__buf_1
*CAP
1 *2768:B1 0.000187926
2 *2769:A 0.000139121
3 *3224:A 0
4 *3223:A 0.000655274
5 *2772:A1 0
6 *3225:X 3.93228e-05
7 *945:25 0.00122854
8 *945:14 0.000632625
9 *945:10 0.000274403
10 *945:6 0.000303169
11 *2768:B1 *2768:A1 0.000163199
12 *3223:A *3226:A 0.000137462
13 *3223:A *947:8 6.27529e-05
14 *3223:A *947:14 7.5416e-05
15 *3223:A *947:34 0.000139238
16 *3223:A *947:43 0.000181918
17 *3223:A *947:60 0.000140247
18 *945:14 *2772:A2 8.69417e-06
19 *945:25 *2772:A2 8.65905e-05
20 *945:25 *965:10 0
21 *945:25 *965:19 0
22 *2503:D *3223:A 5.06815e-05
23 *2768:A2 *2768:B1 0.000138791
24 *2768:A2 *945:10 0
25 *2768:A2 *945:14 0
26 *2772:B1 *2769:A 1.33293e-05
27 *2772:B1 *945:25 4.82863e-05
28 *2772:B2 *2769:A 3.31103e-05
29 *3093:D *945:25 5.83121e-06
30 *3094:D *945:25 4.14782e-05
31 *3099:A *2768:B1 0.000128017
32 *3099:A *945:6 4.40325e-06
33 *3219:A *945:25 1.2961e-05
34 *3222:A *945:25 0.000291358
35 *3225:A *2768:B1 2.34602e-05
36 *383:10 *3223:A 0.000413946
37 *383:10 *945:25 0.000288111
38 *493:8 *3223:A 0
39 *771:14 *945:10 0
40 *771:14 *945:14 0
41 *771:22 *945:14 0
42 *771:22 *945:25 2.81892e-05
43 *780:10 *945:25 0.000124695
44 *939:23 *945:25 0
45 *942:12 *945:25 0
46 *943:104 *3223:A 0
*RES
1 *3225:X *945:6 2.05 
2 *945:6 *945:10 3.125 
3 *945:10 *945:14 2.87 
4 *945:14 *2772:A1 1.6 
5 *945:14 *945:25 14.315 
6 *945:25 *3223:A 18.375 
7 *945:25 *3224:A 3.6 
8 *945:10 *2769:A 5.79 
9 *945:6 *2768:B1 6.82 
*END

*D_NET *946 0.00142726
*CONN
*I *2663:A1 I *D sky130_fd_sc_hd__mux2_1
*I *3258:X O *D sky130_fd_sc_hd__clkbuf_1
*CAP
1 *2663:A1 0.000313756
2 *3258:X 0.000313756
3 *2663:A1 *2660:S 0.000300109
4 *2663:A1 *3328:A 0.00043151
5 *2662:A1 *2663:A1 6.81315e-05
*RES
1 *3258:X *2663:A1 14.325 
*END

*D_NET *947 0.00691317
*CONN
*I *2398:A I *D sky130_fd_sc_hd__nor4b_1
*I *2416:C I *D sky130_fd_sc_hd__and4b_1
*I *2412:D I *D sky130_fd_sc_hd__and4bb_1
*I *2414:A_N I *D sky130_fd_sc_hd__and4bb_1
*I *2385:A I *D sky130_fd_sc_hd__nor4_1
*I *2410:A I *D sky130_fd_sc_hd__nor4b_1
*I *2396:D_N I *D sky130_fd_sc_hd__nor4b_1
*I *2422:A_N I *D sky130_fd_sc_hd__and4b_1
*I *2424:A I *D sky130_fd_sc_hd__and4_1
*I *2400:C I *D sky130_fd_sc_hd__and4bb_1
*I *3226:X O *D sky130_fd_sc_hd__clkbuf_2
*CAP
1 *2398:A 1.81023e-05
2 *2416:C 0.000153741
3 *2412:D 0
4 *2414:A_N 0.000162674
5 *2385:A 3.70436e-05
6 *2410:A 0
7 *2396:D_N 0
8 *2422:A_N 0
9 *2424:A 0
10 *2400:C 0.000101772
11 *3226:X 5.28339e-05
12 *947:110 0.000274937
13 *947:77 0.000316641
14 *947:71 0.000214432
15 *947:62 9.75086e-05
16 *947:60 0.000436637
17 *947:43 0.000420143
18 *947:34 0.000149395
19 *947:14 0.000271315
20 *947:8 0.000285173
21 *2396:C *2414:A_N 0.000199833
22 *2398:C *2416:C 0.000249341
23 *2410:C *947:60 8.40269e-05
24 *2410:C *947:71 1.91597e-05
25 *2410:D_N *947:71 0.000226564
26 *2412:A_N *947:71 0.000188227
27 *2414:D *2414:A_N 2.16833e-05
28 *2416:A_N *2398:A 8.52137e-06
29 *2416:A_N *2416:C 2.16917e-05
30 *2416:D *2398:A 8.52137e-06
31 *2416:D *2416:C 1.34503e-05
32 *2416:D *947:110 1.34594e-05
33 *2424:C *2400:C 9.47454e-05
34 *2503:D *947:8 0.000196376
35 *2503:D *947:14 3.43327e-05
36 *2599:C1 *2385:A 0.000143266
37 *2599:C1 *947:77 0.000213308
38 *3212:A *947:71 0.000203178
39 *3212:A *947:77 8.65961e-05
40 *3223:A *947:8 6.27529e-05
41 *3223:A *947:14 7.5416e-05
42 *3223:A *947:34 0.000139238
43 *3223:A *947:43 0.000181918
44 *3223:A *947:60 0.000140247
45 *3304:A *947:34 0
46 *3308:A *2400:C 0.000115464
47 *3372:A *2400:C 3.68784e-05
48 *487:8 *2416:C 8.65905e-05
49 *488:14 *2400:C 0
50 *493:8 *947:43 0
51 *494:8 *947:77 5.83121e-06
52 *850:31 *947:60 2.53216e-05
53 *850:31 *947:71 1.46744e-05
54 *909:18 *2400:C 8.65961e-05
55 *909:18 *947:14 0.000182184
56 *909:18 *947:34 2.97204e-05
57 *925:33 *2414:A_N 1.61831e-05
58 *936:18 *2385:A 5.56629e-05
59 *938:26 *947:71 1.34503e-05
60 *938:26 *947:77 3.09179e-05
61 *938:30 *947:77 2.25075e-05
62 *938:32 *947:77 2.66939e-05
63 *938:36 *2385:A 3.47668e-05
64 *938:36 *947:77 1.22676e-05
65 *938:119 *2416:C 5.57182e-05
66 *940:14 *947:43 2.41376e-05
67 *940:27 *947:43 4.55864e-06
68 *940:27 *947:60 3.77444e-05
69 *940:77 *947:60 8.53113e-06
70 *940:105 *947:60 4.76263e-05
71 *940:105 *947:110 0.00012559
72 *943:82 *947:60 4.88568e-05
73 *943:82 *947:110 8.7152e-06
74 *943:104 *947:110 0.000137779
*RES
1 *3226:X *947:8 5.43 
2 *947:8 *947:14 5.39 
3 *947:14 *2400:C 8.285 
4 *947:14 *2424:A 1.6 
5 *947:8 *947:34 1.635 
6 *947:34 *2422:A_N 3.6 
7 *947:34 *947:43 2.145 
8 *947:43 *2396:D_N 3.6 
9 *947:43 *947:60 9.115 
10 *947:60 *947:62 2 
11 *947:62 *2410:A 1.6 
12 *947:62 *947:71 3.915 
13 *947:71 *947:77 5.45 
14 *947:77 *2385:A 5.235 
15 *947:77 *2414:A_N 6.57 
16 *947:71 *2412:D 1.6 
17 *947:60 *947:110 4.445 
18 *947:110 *2416:C 5.17 
19 *947:110 *2398:A 1.96 
*END

*D_NET *948 0.00564794
*CONN
*I *2402:A I *D sky130_fd_sc_hd__nor4b_1
*I *2406:A_N I *D sky130_fd_sc_hd__and4bb_1
*I *2418:A_N I *D sky130_fd_sc_hd__and4bb_1
*I *2420:D I *D sky130_fd_sc_hd__and4b_1
*I *2408:D I *D sky130_fd_sc_hd__and4b_1
*I *2386:A I *D sky130_fd_sc_hd__or4_1
*I *2404:D I *D sky130_fd_sc_hd__and4bb_1
*I *3227:X O *D sky130_fd_sc_hd__buf_1
*CAP
1 *2402:A 4.41614e-05
2 *2406:A_N 2.54989e-05
3 *2418:A_N 8.2202e-05
4 *2420:D 0.000102972
5 *2408:D 0.000108334
6 *2386:A 0
7 *2404:D 0
8 *3227:X 0.000231454
9 *948:33 0.00044683
10 *948:20 0.000338563
11 *948:14 0.000237156
12 *948:12 0.000166432
13 *948:10 0.000364633
14 *2402:C *2402:A 0.000114024
15 *2404:B_N *948:20 8.23457e-05
16 *2418:B_N *2418:A_N 5.58206e-05
17 *2418:D *2418:A_N 5.83121e-06
18 *2420:A_N *2408:D 3.26889e-05
19 *2420:A_N *2420:D 0.000130043
20 *2420:B *2408:D 9.60845e-05
21 *2420:B *2420:D 0.00027387
22 *2422:C *2408:D 3.68715e-06
23 *2602:B *948:33 0
24 *2765:B *948:10 0.000163199
25 *2766:A0 *948:10 2.59926e-05
26 *2907:D *948:33 8.23457e-05
27 *2907:GATE_N *948:33 3.51884e-05
28 *3035:GATE_N *948:20 0.000157602
29 *3220:A *948:20 0.000155491
30 *3220:A *948:33 0.000149765
31 *3371:A *2420:D 9.72794e-05
32 *477:30 *948:33 1.80324e-05
33 *490:14 *948:33 9.82856e-06
34 *752:10 *948:10 5.83121e-06
35 *849:12 *948:33 1.07797e-05
36 *849:31 *948:33 0.000198051
37 *850:31 *2418:A_N 0.00022786
38 *870:24 *2402:A 5.85626e-05
39 *925:133 *948:33 6.0872e-05
40 *939:23 *2402:A 4.66108e-05
41 *939:27 *948:10 2.92496e-05
42 *939:27 *948:12 0.000159957
43 *939:38 *948:12 3.31282e-05
44 *939:38 *948:14 6.10014e-05
45 *939:38 *948:20 1.1561e-05
46 *939:79 *948:20 7.14699e-05
47 *939:79 *948:33 0.000197269
48 *941:10 *948:14 8.45475e-05
49 *941:10 *948:20 7.5416e-05
50 *941:21 *2418:A_N 1.19928e-05
51 *941:73 *2406:A_N 4.82919e-05
52 *942:59 *948:10 3.69334e-05
53 *942:59 *948:12 6.95248e-05
54 *944:12 *948:20 5.84378e-05
55 *944:31 *2408:D 0.000215575
56 *944:69 *948:12 2.4997e-05
57 *944:69 *948:14 1.26626e-05
*RES
1 *3227:X *948:10 7.155 
2 *948:10 *948:12 2.655 
3 *948:12 *948:14 1.38 
4 *948:14 *948:20 5.63 
5 *948:20 *2404:D 1.6 
6 *948:20 *948:33 9.52 
7 *948:33 *2386:A 1.6 
8 *948:33 *2408:D 4.65625 
9 *948:33 *2420:D 4.90375 
10 *948:14 *2418:A_N 5.775 
11 *948:12 *2406:A_N 4.05 
12 *948:10 *2402:A 5.085 
*END

*D_NET *949 0.00919327
*CONN
*I *3227:A I *D sky130_fd_sc_hd__buf_1
*I *3226:A I *D sky130_fd_sc_hd__clkbuf_2
*I *2771:A I *D sky130_fd_sc_hd__xnor2_1
*I *2773:A1 I *D sky130_fd_sc_hd__a21o_1
*I *2766:S I *D sky130_fd_sc_hd__mux2_4
*I *3228:X O *D sky130_fd_sc_hd__clkbuf_2
*CAP
1 *3227:A 2.4121e-05
2 *3226:A 0.00057898
3 *2771:A 8.33395e-05
4 *2773:A1 0.00011847
5 *2766:S 0.00035757
6 *3228:X 1.22004e-05
7 *949:57 0.000885008
8 *949:29 0.00105959
9 *949:25 0.0013257
10 *949:8 0.000555786
11 *949:29 *1019:12 0.00015866
12 *949:57 *3095:RESET_B 0.000122042
13 *949:57 *3096:RESET_B 0.0002468
14 *2402:B *3226:A 0.000159964
15 *2402:D_N *3226:A 7.21296e-06
16 *2503:D *3226:A 0.000134938
17 *2701:A *2766:S 0
18 *2765:A_N *3227:A 8.23457e-05
19 *2766:A0 *3227:A 8.23457e-05
20 *2767:B *2766:S 0
21 *2770:A_N *2773:A1 8.8266e-05
22 *2783:CLK *2766:S 0.000193046
23 *2907:GATE_N *3226:A 0.000325294
24 *3093:D *2766:S 0
25 *3147:A *3226:A 9.50036e-05
26 *3165:A *3226:A 0.000175946
27 *3165:A *949:57 0.000192719
28 *3223:A *3226:A 0.000137462
29 *383:10 *3226:A 0
30 *383:10 *949:57 0
31 *510:46 *949:25 0.000335674
32 *510:46 *949:29 0.000854415
33 *751:16 *2766:S 5.05521e-05
34 *754:12 *2771:A 9.50342e-06
35 *755:10 *2771:A 9.66106e-05
36 *755:10 *2773:A1 7.67415e-06
37 *758:8 *2773:A1 8.53113e-06
38 *771:28 *2766:S 0.000102993
39 *834:72 *3226:A 0.000185973
40 *849:10 *3226:A 0
41 *849:12 *3226:A 0
42 *939:27 *3226:A 0
43 *939:38 *3226:A 0
44 *939:79 *3226:A 2.16654e-05
45 *943:8 *3226:A 0.000115464
46 *943:33 *3226:A 0.000201406
*RES
1 *3228:X *949:8 3.8325 
2 *949:8 *2766:S 10.6275 
3 *949:8 *949:25 1.0624 
4 *949:25 *949:29 2.57733 
5 *949:29 *2773:A1 5.2275 
6 *949:29 *2771:A 5.3175 
7 *949:25 *949:57 6.7925 
8 *949:57 *3226:A 18.12 
9 *949:57 *3227:A 4.395 
*END

*D_NET *950 0.0113662
*CONN
*I *2440:A_N I *D sky130_fd_sc_hd__nand2b_1
*I *2388:A I *D sky130_fd_sc_hd__nor2_1
*I *2441:A I *D sky130_fd_sc_hd__or4bb_4
*I *2749:A1 I *D sky130_fd_sc_hd__o41a_4
*I *2696:A I *D sky130_fd_sc_hd__nor3_1
*I *2692:A_N I *D sky130_fd_sc_hd__and3b_1
*I *2426:C I *D sky130_fd_sc_hd__or4b_4
*I *2664:B_N I *D sky130_fd_sc_hd__and4bb_1
*I *2449:D I *D sky130_fd_sc_hd__and4b_1
*I *2450:B I *D sky130_fd_sc_hd__nand4b_1
*I *3229:X O *D sky130_fd_sc_hd__buf_6
*CAP
1 *2440:A_N 5.75311e-05
2 *2388:A 0.000375089
3 *2441:A 0
4 *2749:A1 1.25806e-05
5 *2696:A 4.10541e-05
6 *2692:A_N 0
7 *2426:C 0.000158528
8 *2664:B_N 1.36534e-05
9 *2449:D 2.94566e-05
10 *2450:B 0.000180174
11 *3229:X 0
12 *950:123 0.000489955
13 *950:94 0.000415793
14 *950:80 0.000637076
15 *950:63 0.00051758
16 *950:46 0.000215648
17 *950:35 0.000274399
18 *950:23 0.000301763
19 *950:10 0.000404228
20 *950:4 0.000246933
21 *2388:A *2447:A_N 6.19873e-05
22 *2388:A *2447:C 4.82863e-05
23 *2388:A *953:73 4.99619e-05
24 *2388:A *1050:10 1.83847e-05
25 *2426:C *952:40 0.000190574
26 *2426:C *953:39 6.33103e-05
27 *2426:C *953:52 2.49909e-05
28 *2426:C *953:65 0.000147098
29 *2440:A_N *2440:B 0.0001249
30 *2440:A_N *951:6 7.66083e-05
31 *2449:D *2449:C 0.000109347
32 *2449:D *966:16 0.000109347
33 *2450:B *2450:C 0
34 *2450:B *2450:D 0.000121102
35 *2664:B_N *3103:A 4.66108e-05
36 *2664:B_N *969:12 4.66108e-05
37 *2696:A *954:38 6.29692e-05
38 *950:10 *951:6 5.14357e-05
39 *950:10 *951:30 2.45351e-05
40 *950:10 *951:38 0.000289033
41 *950:23 *951:38 8.49205e-05
42 *950:35 *966:16 8.23457e-05
43 *950:46 *2450:D 8.53513e-05
44 *950:63 *2450:D 4.39001e-05
45 *950:63 *3366:A 8.65905e-05
46 *950:63 *953:65 0.000124895
47 *950:80 *2702:A1 0.000155952
48 *950:94 *997:20 3.31204e-05
49 *950:123 *2441:D_N 4.82863e-05
50 *950:123 *951:38 0.000182658
51 *950:123 *951:51 1.21558e-05
52 *950:123 *953:73 0.000149765
53 *2381:A *2696:A 8.51862e-05
54 *2447:B *2388:A 0.000223022
55 *2447:B *950:123 0.000256702
56 *2680:A *2426:C 8.40213e-05
57 *2680:A *950:63 1.60203e-05
58 *2680:A *950:80 1.01182e-05
59 *2680:C *2749:A1 7.57202e-05
60 *2680:C *950:80 0.000340209
61 *2680:C *950:94 0.000421956
62 *2694:A *950:63 0
63 *2694:B *950:10 0.000118081
64 *2694:C *950:35 0.000122321
65 *2694:C *950:46 0.000213755
66 *2694:C *950:63 0.000132842
67 *2694:C *950:80 0
68 *2696:B *2696:A 8.51862e-05
69 *2696:C *2696:A 4.52133e-05
70 *2749:A4 *950:94 0.000134475
71 *2784:D *2450:B 0
72 *3183:A *2749:A1 8.65961e-05
73 *3183:A *950:80 0.000340209
74 *3229:A *950:10 5.05437e-05
75 *474:25 *2450:B 1.14559e-05
76 *474:25 *950:35 0.000130106
77 *474:45 *2450:B 3.47837e-05
78 *509:8 *2388:A 0
79 *510:32 *2440:A_N 7.8192e-05
80 *510:32 *950:10 0.000492543
81 *696:28 *950:94 7.04003e-05
82 *772:10 *950:94 5.53249e-06
83 *772:39 *950:94 2.78732e-05
84 *774:12 *2450:B 0.00011379
85 *774:12 *950:35 6.43623e-05
86 *774:12 *950:46 4.14369e-05
87 *868:39 *950:80 0.000183721
88 *887:22 *2388:A 2.75229e-05
89 *891:72 *950:80 0.000113797
*RES
1 *3229:X *950:4 1.6 
2 *950:4 *950:10 6.345 
3 *950:10 *2450:B 9.53 
4 *950:10 *950:23 0.795 
5 *950:23 *950:35 9.045 
6 *950:35 *2449:D 4.64625 
7 *950:35 *950:46 2.655 
8 *950:46 *2664:B_N 4.05 
9 *950:46 *950:63 5.135 
10 *950:63 *2426:C 5.86 
11 *950:63 *950:80 11.14 
12 *950:80 *950:94 14.15 
13 *950:94 *2692:A_N 1.6 
14 *950:94 *2696:A 3.085 
15 *950:80 *2749:A1 2.395 
16 *950:23 *950:123 4.83 
17 *950:123 *2441:A 1.6 
18 *950:123 *2388:A 12.44 
19 *950:4 *2440:A_N 3.79 
*END

*D_NET *951 0.00931632
*CONN
*I *2449:A_N I *D sky130_fd_sc_hd__and4b_1
*I *2450:A_N I *D sky130_fd_sc_hd__nand4b_1
*I *2382:A_N I *D sky130_fd_sc_hd__and2b_1
*I *2430:A_N I *D sky130_fd_sc_hd__nand3b_1
*I *2429:A_N I *D sky130_fd_sc_hd__and3b_2
*I *2387:B I *D sky130_fd_sc_hd__or3b_1
*I *2665:C I *D sky130_fd_sc_hd__or4_4
*I *2441:C_N I *D sky130_fd_sc_hd__or4bb_4
*I *2426:A I *D sky130_fd_sc_hd__or4b_4
*I *2440:B I *D sky130_fd_sc_hd__nand2b_1
*I *3230:X O *D sky130_fd_sc_hd__buf_6
*CAP
1 *2449:A_N 6.95861e-05
2 *2450:A_N 0.000352729
3 *2382:A_N 0
4 *2430:A_N 0.000131469
5 *2429:A_N 0
6 *2387:B 0.000132069
7 *2665:C 0
8 *2441:C_N 0
9 *2426:A 0.000258486
10 *2440:B 9.05406e-05
11 *3230:X 0
12 *951:114 0.000422315
13 *951:91 0.000348894
14 *951:83 0.000373457
15 *951:59 0.000267925
16 *951:51 0.00041043
17 *951:38 0.000313681
18 *951:30 0.000215239
19 *951:6 0.000413045
20 *951:4 8.41175e-05
21 *2387:B *2447:C 8.53113e-06
22 *2387:B *2665:B 3.26964e-05
23 *2387:B *954:40 0.00010596
24 *2426:A *2383:B 0.000188174
25 *2426:A *2689:A1 3.85204e-05
26 *2426:A *953:39 4.80285e-05
27 *2426:A *1012:16 5.49123e-05
28 *2430:A_N *2429:C 0
29 *2430:A_N *2430:B 8.35106e-05
30 *2430:A_N *2430:C 3.42836e-05
31 *2430:A_N *3366:A 8.49205e-05
32 *2430:A_N *953:112 8.34281e-06
33 *2449:A_N *956:26 6.40897e-05
34 *2450:A_N *2450:D 0
35 *2450:A_N *956:26 8.13737e-05
36 *2450:A_N *1012:16 0
37 *951:51 *2441:B 0.00013661
38 *951:51 *2441:D_N 4.82863e-05
39 *951:51 *953:73 8.65961e-05
40 *951:59 *2665:B 6.19979e-05
41 *951:59 *2665:D 0.0002713
42 *951:59 *3360:A 0
43 *951:59 *3368:A 6.12936e-05
44 *951:83 *2382:B 4.27883e-06
45 *951:83 *2441:B 0.000174062
46 *951:83 *953:73 5.85167e-05
47 *951:91 *2429:C 9.17027e-06
48 *951:91 *2430:C 0
49 *951:91 *3366:A 2.03356e-05
50 *951:91 *953:65 8.0592e-05
51 *951:91 *953:95 1.72854e-05
52 *951:91 *953:112 0.000146317
53 *2440:A_N *2440:B 0.0001249
54 *2440:A_N *951:6 7.66083e-05
55 *2664:D *2449:A_N 1.65192e-05
56 *2676:B *2387:B 0.000116165
57 *2680:B *2426:A 1.2412e-05
58 *2694:A *951:38 6.13486e-05
59 *2695:B *951:83 9.91571e-05
60 *2695:C *951:38 9.39661e-05
61 *2695:C *951:51 0.000246383
62 *2695:C *951:83 0.000123199
63 *2695:D_N *2387:B 8.23457e-05
64 *2698:B1 *2426:A 0.000116165
65 *2698:B1 *2440:B 4.82863e-05
66 *2698:B1 *951:6 0.000309612
67 *2698:B1 *951:30 8.49205e-05
68 *2698:B1 *951:38 0.00015337
69 *2784:D *951:51 0
70 *2785:D *2426:A 6.57949e-06
71 *3229:A *951:6 8.65905e-05
72 *3230:A *951:38 4.82919e-05
73 *3369:A *951:59 2.04101e-05
74 *474:45 *2449:A_N 9.0444e-05
75 *474:45 *2450:A_N 0.000177727
76 *502:55 *2426:A 6.85246e-05
77 *510:32 *2440:B 1.18758e-05
78 *679:16 *2426:A 7.03952e-05
79 *696:28 *2426:A 0.000150023
80 *696:28 *951:59 4.18421e-05
81 *774:59 *951:59 0.000170884
82 *776:8 *2450:A_N 6.8665e-05
83 *950:10 *951:6 5.14357e-05
84 *950:10 *951:30 2.45351e-05
85 *950:10 *951:38 0.000289033
86 *950:23 *951:38 8.49205e-05
87 *950:123 *951:38 0.000182658
88 *950:123 *951:51 1.21558e-05
*RES
1 *3230:X *951:4 1.6 
2 *951:4 *951:6 2.865 
3 *951:6 *2440:B 3.44875 
4 *951:6 *2426:A 12.365 
5 *951:4 *951:30 0.795 
6 *951:30 *951:38 6.2925 
7 *951:38 *2441:C_N 1.6 
8 *951:38 *951:51 5.5475 
9 *951:51 *951:59 6.22625 
10 *951:59 *2665:C 1.6 
11 *951:59 *2387:B 8.36375 
12 *951:51 *951:83 5.93 
13 *951:83 *951:91 3.69 
14 *951:91 *2429:A_N 1.6 
15 *951:91 *2430:A_N 4.405 
16 *951:83 *2382:A_N 1.6 
17 *951:30 *951:114 2 
18 *951:114 *2450:A_N 9.87 
19 *951:114 *2449:A_N 5.235 
*END

*D_NET *952 0.00821306
*CONN
*I *2429:B I *D sky130_fd_sc_hd__and3b_2
*I *2426:B I *D sky130_fd_sc_hd__or4b_4
*I *2383:B I *D sky130_fd_sc_hd__or3b_4
*I *2665:B I *D sky130_fd_sc_hd__or4_4
*I *2441:B I *D sky130_fd_sc_hd__or4bb_4
*I *3231:X O *D sky130_fd_sc_hd__buf_6
*CAP
1 *2429:B 0
2 *2426:B 0
3 *2383:B 0.000574416
4 *2665:B 0.000175709
5 *2441:B 0.000275564
6 *3231:X 0
7 *952:40 0.00142816
8 *952:36 0.00107815
9 *952:19 0.000400121
10 *952:4 0.000275564
11 *2383:B *2428:B 0.000172288
12 *2383:B *953:39 4.01778e-05
13 *2383:B *969:63 2.85364e-05
14 *2441:B *2450:C 1.79722e-05
15 *2441:B *953:73 0.00016732
16 *2441:B *969:12 5.21706e-05
17 *2665:B *3366:A 5.75074e-05
18 *952:36 *2430:B 0.000113797
19 *952:36 *3366:A 0.000199712
20 *952:40 *3366:A 0.000216443
21 *952:40 *953:39 6.07575e-06
22 *2383:C_N *2383:B 0.000283732
23 *2387:B *2665:B 3.26964e-05
24 *2387:C_N *2441:B 0.000118081
25 *2426:A *2383:B 0.000188174
26 *2426:C *952:40 0.000190574
27 *2671:A3 *2441:B 1.58871e-05
28 *2680:A *952:40 0.000304468
29 *2682:A *2383:B 0
30 *2695:D_N *2441:B 0.00018955
31 *2698:A3 *2383:B 2.30292e-05
32 *2698:B1 *2383:B 4.9968e-05
33 *2699:A2 *2383:B 0.000122331
34 *2699:B1 *2383:B 0.000161529
35 *2785:D *2383:B 0.000173167
36 *474:6 *952:40 0.000118081
37 *474:45 *2383:B 2.04101e-05
38 *475:14 *2383:B 2.61299e-05
39 *502:42 *2383:B 1.34594e-05
40 *504:12 *952:36 7.9642e-06
41 *696:28 *2383:B 0.000153514
42 *696:28 *2665:B 0.000112143
43 *696:28 *952:36 0.000230282
44 *773:20 *2383:B 2.55359e-05
45 *951:51 *2441:B 0.00013661
46 *951:59 *2665:B 6.19979e-05
47 *951:83 *2441:B 0.000174062
*RES
1 *3231:X *952:4 1.6 
2 *952:4 *2441:B 12.56 
3 *952:4 *952:19 2 
4 *952:19 *2665:B 6.465 
5 *952:19 *952:36 6.395 
6 *952:36 *952:40 10.815 
7 *952:40 *2383:B 18.395 
8 *952:40 *2426:B 1.6 
9 *952:36 *2429:B 1.6 
*END

*D_NET *953 0.009757
*CONN
*I *2387:A I *D sky130_fd_sc_hd__or3b_1
*I *2430:C I *D sky130_fd_sc_hd__nand3b_1
*I *2429:C I *D sky130_fd_sc_hd__and3b_2
*I *2450:C I *D sky130_fd_sc_hd__nand4b_1
*I *2441:D_N I *D sky130_fd_sc_hd__or4bb_4
*I *2426:D_N I *D sky130_fd_sc_hd__or4b_4
*I *2681:A I *D sky130_fd_sc_hd__or3_1
*I *2687:B I *D sky130_fd_sc_hd__or4_1
*I *2383:A I *D sky130_fd_sc_hd__or3b_4
*I *2428:A I *D sky130_fd_sc_hd__nand2_1
*I *3232:X O *D sky130_fd_sc_hd__clkbuf_2
*CAP
1 *2387:A 0.000126687
2 *2430:C 6.10047e-05
3 *2429:C 1.10733e-05
4 *2450:C 0.000421865
5 *2441:D_N 9.73191e-06
6 *2426:D_N 2.21004e-05
7 *2681:A 7.90681e-05
8 *2687:B 5.74146e-05
9 *2383:A 0
10 *2428:A 9.10184e-05
11 *3232:X 0
12 *953:112 0.000377046
13 *953:95 0.000215406
14 *953:73 0.00070636
15 *953:65 0.000754904
16 *953:52 0.000513124
17 *953:39 0.000345924
18 *953:10 0.000308264
19 *953:8 0.000483069
20 *953:4 0.000449404
21 *2387:A *3366:A 9.5433e-05
22 *2387:A *954:40 1.15688e-05
23 *2428:A *2699:A1 2.75145e-05
24 *2430:C *2430:B 2.99083e-05
25 *2681:A *956:26 2.20641e-05
26 *2681:A *969:50 0.000151935
27 *2687:B *1018:12 6.86387e-05
28 *953:8 *2378:A 8.65961e-05
29 *953:8 *2687:A 3.83041e-05
30 *953:8 *2687:C 0.000165616
31 *953:8 *2690:A1 4.82919e-05
32 *953:10 *2684:A1 1.17701e-05
33 *953:10 *2699:A1 3.63701e-06
34 *953:39 *2687:C 5.83121e-06
35 *953:65 *2450:D 8.49205e-05
36 *953:65 *3366:A 0.000329206
37 *953:95 *3366:A 2.81612e-05
38 *953:112 *2430:B 2.87395e-05
39 *953:112 *3366:A 4.88773e-05
40 *2383:B *953:39 4.01778e-05
41 *2387:C_N *2387:A 8.6076e-05
42 *2388:A *953:73 4.99619e-05
43 *2426:A *953:39 4.80285e-05
44 *2426:C *953:39 6.33103e-05
45 *2426:C *953:52 2.49909e-05
46 *2426:C *953:65 0.000147098
47 *2430:A_N *2429:C 0
48 *2430:A_N *2430:C 3.42836e-05
49 *2430:A_N *953:112 8.34281e-06
50 *2441:B *2450:C 1.79722e-05
51 *2441:B *953:73 0.00016732
52 *2450:B *2450:C 0
53 *2671:A3 *2450:C 0
54 *2671:A3 *953:73 0.00027033
55 *2673:A *2387:A 0
56 *2684:A2 *2428:A 4.43871e-06
57 *2684:A2 *953:10 6.34337e-05
58 *2684:B1 *953:10 1.7635e-05
59 *2685:B *2687:B 0
60 *2685:B *953:10 0
61 *2687:D *2687:B 3.91574e-05
62 *2687:D *953:10 8.7152e-06
63 *2689:C1 *2681:A 0.000192261
64 *2690:B1 *953:10 2.45773e-05
65 *2695:B *953:73 0
66 *2695:D_N *2387:A 4.01778e-05
67 *2697:A *953:10 1.47446e-05
68 *2697:D_N *953:10 0
69 *2698:A3 *953:10 0
70 *2699:A2 *2428:A 5.7164e-05
71 *2784:D *2450:C 0.000132219
72 *3367:A *953:65 4.66108e-05
73 *475:14 *2428:A 9.50342e-06
74 *475:14 *953:10 5.39961e-05
75 *502:10 *2428:A 9.65007e-05
76 *502:42 *2428:A 2.24992e-05
77 *509:8 *2450:C 0
78 *511:6 *2450:C 0.000168213
79 *672:43 *2387:A 0.000230419
80 *675:12 *953:73 0.000222185
81 *675:12 *953:112 2.86623e-05
82 *691:20 *953:8 0.000123225
83 *691:20 *953:10 6.57653e-06
84 *696:28 *953:112 4.9968e-05
85 *773:20 *2428:A 4.99619e-05
86 *950:63 *953:65 0.000124895
87 *950:123 *2441:D_N 4.82863e-05
88 *950:123 *953:73 0.000149765
89 *951:51 *2441:D_N 4.82863e-05
90 *951:51 *953:73 8.65961e-05
91 *951:83 *953:73 5.85167e-05
92 *951:91 *2429:C 9.17027e-06
93 *951:91 *2430:C 0
94 *951:91 *953:65 8.0592e-05
95 *951:91 *953:95 1.72854e-05
96 *951:91 *953:112 0.000146317
97 *952:40 *953:39 6.07575e-06
*RES
1 *3232:X *953:4 1.6 
2 *953:4 *953:8 6.245 
3 *953:8 *953:10 3.675 
4 *953:10 *2428:A 6.195 
5 *953:10 *2383:A 3.6 
6 *953:8 *2687:B 4.725 
7 *953:4 *953:39 3.555 
8 *953:39 *2681:A 8 
9 *953:39 *953:52 0.45 
10 *953:52 *2426:D_N 1.96 
11 *953:52 *953:65 8.85 
12 *953:65 *953:73 11.8 
13 *953:73 *2441:D_N 2.05 
14 *953:73 *2450:C 13.085 
15 *953:65 *953:95 0.41625 
16 *953:95 *2429:C 1.96 
17 *953:95 *953:112 7.10125 
18 *953:112 *2430:C 2.9425 
19 *953:112 *2387:A 9.1925 
*END

*D_NET *954 0.0059077
*CONN
*I *2679:B I *D sky130_fd_sc_hd__nand2_1
*I *2665:A I *D sky130_fd_sc_hd__or4_4
*I *2447:C I *D sky130_fd_sc_hd__and3b_1
*I *2664:A_N I *D sky130_fd_sc_hd__and4bb_1
*I *2449:C I *D sky130_fd_sc_hd__and4b_1
*I *3233:X O *D sky130_fd_sc_hd__buf_1
*CAP
1 *2679:B 5.227e-05
2 *2665:A 0
3 *2447:C 0.000175912
4 *2664:A_N 2.89988e-05
5 *2449:C 0.000122931
6 *3233:X 0
7 *954:40 0.000355378
8 *954:38 0.000733568
9 *954:8 0.000276874
10 *954:4 0.000626777
11 *2447:C *2447:A_N 0
12 *2449:C *966:16 6.76234e-05
13 *2679:B *997:20 4.82919e-05
14 *2679:B *1050:31 0
15 *954:38 *997:20 2.59934e-06
16 *954:40 *3366:A 1.59966e-05
17 *2387:A *954:40 1.15688e-05
18 *2387:B *2447:C 8.53113e-06
19 *2387:B *954:40 0.00010596
20 *2388:A *2447:C 4.82863e-05
21 *2447:B *2447:C 9.30717e-05
22 *2449:D *2449:C 0.000109347
23 *2671:A1 *2679:B 2.75229e-05
24 *2671:A1 *954:38 4.66108e-05
25 *2676:B *2447:C 8.20028e-05
26 *2676:B *954:40 1.49369e-05
27 *2694:C *2449:C 0.000130828
28 *2694:C *954:8 0.000312673
29 *2695:A *2664:A_N 4.66108e-05
30 *2695:B *954:38 8.65961e-05
31 *2696:A *954:38 6.29692e-05
32 *2696:B *954:38 0.000122699
33 *2696:C *954:38 8.1871e-05
34 *2702:A2 *954:38 0.000223044
35 *3362:A *954:38 0.0001249
36 *474:25 *2449:C 0.000130828
37 *474:25 *954:8 0.000238852
38 *509:8 *2447:C 0
39 *672:43 *2679:B 6.2848e-05
40 *672:43 *954:40 0.000239203
41 *676:16 *954:38 7.67415e-06
42 *696:28 *2449:C 6.1357e-05
43 *772:10 *954:8 4.44131e-05
44 *774:12 *2449:C 0.000118081
45 *887:12 *2447:C 0.000197298
46 *887:12 *954:40 0.000322625
47 *887:22 *2447:C 0.000206123
48 *887:99 *2679:B 1.16467e-05
49 *887:99 *954:40 1.95013e-05
*RES
1 *3233:X *954:4 1.6 
2 *954:4 *954:8 5.93 
3 *954:8 *2449:C 7.41 
4 *954:8 *2664:A_N 4.05 
5 *954:4 *954:38 10.52 
6 *954:38 *954:40 5.46 
7 *954:40 *2447:C 8.745 
8 *954:40 *2665:A 3.6 
9 *954:38 *2679:B 4.92 
*END

*D_NET *955 0.0124492
*CONN
*I *3087:RESET_B I *D sky130_fd_sc_hd__dfrtp_1
*I *3089:RESET_B I *D sky130_fd_sc_hd__dfrtp_1
*I *3088:RESET_B I *D sky130_fd_sc_hd__dfrtp_1
*I *3094:RESET_B I *D sky130_fd_sc_hd__dfrtp_1
*I *3093:RESET_B I *D sky130_fd_sc_hd__dfrtp_1
*I *2783:RESET_B I *D sky130_fd_sc_hd__dfrtp_1
*I *2784:RESET_B I *D sky130_fd_sc_hd__dfrtp_1
*I *3096:RESET_B I *D sky130_fd_sc_hd__dfrtp_1
*I *3095:RESET_B I *D sky130_fd_sc_hd__dfrtp_1
*I *3086:RESET_B I *D sky130_fd_sc_hd__dfrtp_1
*I *3234:X O *D sky130_fd_sc_hd__clkbuf_4
*CAP
1 *3087:RESET_B 0
2 *3089:RESET_B 0
3 *3088:RESET_B 0.000106024
4 *3094:RESET_B 0
5 *3093:RESET_B 0
6 *2783:RESET_B 0.000223045
7 *2784:RESET_B 0.00132943
8 *3096:RESET_B 0.000954844
9 *3095:RESET_B 0.000218101
10 *3086:RESET_B 0.000353936
11 *3234:X 0.000201072
12 *955:59 0.00238021
13 *955:30 0.000193624
14 *955:28 0.000328527
15 *955:26 0.000448103
16 *955:24 0.000189114
17 *955:10 0.000482075
18 *2783:RESET_B *2699:A1 0
19 *3086:RESET_B *2725:B 0
20 *955:10 *2656:A0 0.000201508
21 *2766:A0 *955:59 0
22 *2767:B *955:59 0.00042877
23 *2786:CLK *2784:RESET_B 9.51192e-05
24 *3086:D *3086:RESET_B 8.43862e-05
25 *3088:D *3086:RESET_B 5.83121e-06
26 *3088:D *3088:RESET_B 2.76356e-05
27 *3093:D *955:59 3.09164e-05
28 *3095:D *955:59 0.000102592
29 *3147:A *3086:RESET_B 0
30 *3147:A *955:10 0
31 *3147:A *955:59 0.000284274
32 *3165:A *3095:RESET_B 0.000132625
33 *3165:A *955:24 0.000166346
34 *3165:A *955:26 0.000252289
35 *3165:A *955:28 0.000471287
36 *3165:A *955:30 0.000204083
37 *3165:A *955:59 0.000497118
38 *383:10 *3096:RESET_B 0
39 *383:10 *955:30 0
40 *475:14 *2783:RESET_B 1.23607e-05
41 *485:12 *2783:RESET_B 0
42 *485:12 *2784:RESET_B 0
43 *510:32 *2783:RESET_B 0
44 *753:12 *955:59 0.00092416
45 *771:22 *3095:RESET_B 7.69078e-05
46 *772:12 *2784:RESET_B 0.000456499
47 *773:20 *2783:RESET_B 7.37556e-05
48 *782:6 *3086:RESET_B 8.65905e-05
49 *783:12 *3086:RESET_B 0
50 *801:31 *3086:RESET_B 0
51 *801:31 *955:10 0
52 *870:24 *955:59 2.26018e-05
53 *870:85 *955:59 3.45588e-05
54 *881:31 *2783:RESET_B 0
55 *881:31 *2784:RESET_B 0
56 *885:115 *955:24 0
57 *885:115 *955:26 0
58 *885:115 *955:28 0
59 *885:115 *955:30 0
60 *949:57 *3095:RESET_B 0.000122042
61 *949:57 *3096:RESET_B 0.0002468
*RES
1 *3234:X *955:10 6.555 
2 *955:10 *3086:RESET_B 6.8825 
3 *3086:RESET_B *955:24 3.89 
4 *955:24 *955:26 2.91 
5 *955:26 *955:28 5.46 
6 *955:28 *955:30 2.4 
7 *955:30 *3095:RESET_B 4.3775 
8 *3095:RESET_B *3096:RESET_B 6.91 
9 *3096:RESET_B *955:59 26.1375 
10 *955:59 *2784:RESET_B 19.5125 
11 *955:59 *2783:RESET_B 5.8175 
12 *955:30 *3093:RESET_B 2 
13 *955:28 *3094:RESET_B 2 
14 *955:26 *3088:RESET_B 3.3575 
15 *955:24 *3089:RESET_B 2 
16 *955:10 *3087:RESET_B 2 
*END

*D_NET *956 0.0127187
*CONN
*I *2787:RESET_B I *D sky130_fd_sc_hd__dfrtp_1
*I *3090:RESET_B I *D sky130_fd_sc_hd__dfrtp_1
*I *2789:RESET_B I *D sky130_fd_sc_hd__dfrtp_1
*I *3092:RESET_B I *D sky130_fd_sc_hd__dfrtp_1
*I *3091:RESET_B I *D sky130_fd_sc_hd__dfrtp_1
*I *2788:RESET_B I *D sky130_fd_sc_hd__dfrtp_1
*I *2790:RESET_B I *D sky130_fd_sc_hd__dfrtp_1
*I *2785:RESET_B I *D sky130_fd_sc_hd__dfrtp_1
*I *2786:RESET_B I *D sky130_fd_sc_hd__dfrtp_1
*I *3235:X O *D sky130_fd_sc_hd__clkbuf_4
*CAP
1 *2787:RESET_B 0
2 *3090:RESET_B 0.000628237
3 *2789:RESET_B 0.000808297
4 *3092:RESET_B 0.000208149
5 *3091:RESET_B 7.37573e-05
6 *2788:RESET_B 0.000501842
7 *2790:RESET_B 0.000168916
8 *2785:RESET_B 0
9 *2786:RESET_B 6.2311e-05
10 *3235:X 6.55703e-05
11 *956:70 0.00115261
12 *956:64 0.00105076
13 *956:26 0.000958044
14 *956:12 0.00120542
15 *956:10 0.000776645
16 *956:8 0.000199597
17 *2786:RESET_B *1012:16 0.000117825
18 *2789:RESET_B *2719:A0 0.000138777
19 *2789:RESET_B *1047:111 0
20 *2790:RESET_B *1047:82 0.000120655
21 *3090:RESET_B *3097:A 8.49205e-05
22 *3090:RESET_B *3349:A 0.000238231
23 *956:8 *2705:A1 3.05295e-05
24 *956:8 *996:16 2.37321e-05
25 *956:8 *1012:16 0
26 *956:10 *2705:A1 0.00011398
27 *956:10 *996:16 1.94636e-05
28 *956:10 *1012:16 0
29 *956:12 *2675:B 2.7881e-05
30 *956:12 *996:16 7.24866e-05
31 *956:12 *1048:31 5.38986e-06
32 *956:26 *2449:B 8.0715e-05
33 *956:26 *960:8 3.50033e-05
34 *956:26 *969:50 0.000238439
35 *956:26 *1012:16 9.78012e-05
36 *956:26 *1048:10 6.45713e-05
37 *956:26 *1048:31 0.000161263
38 *956:70 *2719:A0 4.53578e-05
39 *2449:A_N *956:26 6.40897e-05
40 *2450:A_N *956:26 8.13737e-05
41 *2664:D *956:26 0
42 *2669:A *956:70 1.94805e-05
43 *2681:A *956:26 2.20641e-05
44 *2681:C *956:26 1.58386e-05
45 *2689:C1 *956:26 7.80737e-05
46 *2693:B *956:70 1.78574e-05
47 *2693:C *956:70 4.82919e-05
48 *2693:D_N *956:70 0.000183551
49 *2702:B1 *956:26 4.18203e-05
50 *2705:A2 *2788:RESET_B 7.00889e-06
51 *2706:S *956:12 9.26907e-06
52 *2711:S *956:70 0
53 *2718:A2 *2788:RESET_B 2.2592e-05
54 *2718:B2 *2788:RESET_B 2.33473e-05
55 *2718:C1 *2788:RESET_B 0.000127937
56 *2719:A1 *2788:RESET_B 0.000337351
57 *2723:B1 *956:10 4.39001e-05
58 *2723:B1 *956:12 5.21046e-05
59 *2754:B *956:70 3.00381e-05
60 *2760:A2 *3092:RESET_B 5.91516e-05
61 *2760:A2 *956:70 1.01315e-05
62 *2785:D *2786:RESET_B 0
63 *2785:D *956:26 0
64 *2786:D *2786:RESET_B 0
65 *2789:D *2789:RESET_B 0.000107467
66 *2789:D *956:70 4.53578e-05
67 *2790:CLK *2790:RESET_B 8.53755e-05
68 *2790:D *2790:RESET_B 9.50342e-06
69 *2790:D *956:12 8.71079e-05
70 *3090:D *3090:RESET_B 0.000116716
71 *3091:D *3091:RESET_B 8.7231e-05
72 *3359:A *956:26 0.000153591
73 *505:38 *3091:RESET_B 9.14049e-05
74 *508:18 *956:26 2.09514e-05
75 *672:43 *956:26 0.000114492
76 *679:33 *956:26 1.7635e-05
77 *701:12 *956:12 7.8831e-05
78 *701:60 *956:70 0
79 *739:16 *3091:RESET_B 0.000152243
80 *772:12 *956:26 0.000134938
81 *772:56 *3091:RESET_B 9.14049e-05
82 *776:8 *956:26 0.000134238
83 *788:8 *3090:RESET_B 4.82919e-05
84 *789:8 *956:70 2.96553e-05
85 *789:38 *956:70 5.85071e-05
86 *868:20 *2790:RESET_B 5.77589e-05
87 *868:20 *956:26 0.000123528
*RES
1 *3235:X *956:8 4.98 
2 *956:8 *956:10 2.91 
3 *956:10 *956:12 4.3125 
4 *956:12 *956:26 22.8775 
5 *956:26 *2786:RESET_B 3.38 
6 *956:26 *2785:RESET_B 2 
7 *956:12 *2790:RESET_B 5.06 
8 *956:10 *2788:RESET_B 9.8675 
9 *2788:RESET_B *956:64 2 
10 *956:64 *956:70 13.79 
11 *956:70 *3091:RESET_B 6.5575 
12 *956:70 *3092:RESET_B 2.9325 
13 *956:64 *2789:RESET_B 6.1025 
14 *2789:RESET_B *3090:RESET_B 9.53625 
15 *956:8 *2787:RESET_B 2 
*END

*D_NET *957 0.0113038
*CONN
*I *2735:A1 I *D sky130_fd_sc_hd__a21oi_1
*I *2738:A I *D sky130_fd_sc_hd__and3_1
*I *2704:A1_N I *D sky130_fd_sc_hd__o2bb2a_1
*I *2739:A1 I *D sky130_fd_sc_hd__a21oi_1
*I *2730:A1 I *D sky130_fd_sc_hd__o22a_1
*I *2734:A1 I *D sky130_fd_sc_hd__o21ai_1
*I *3259:X O *D sky130_fd_sc_hd__clkbuf_2
*CAP
1 *2735:A1 0
2 *2738:A 0
3 *2704:A1_N 0.000126154
4 *2739:A1 0
5 *2730:A1 0.00010781
6 *2734:A1 0
7 *3259:X 0.00261012
8 *957:77 0.00063136
9 *957:54 0.000729169
10 *957:44 0.000260052
11 *957:31 0.000290967
12 *957:18 0.00275719
13 *2704:A1_N *2738:C 1.89685e-05
14 *2704:A1_N *1047:8 1.94805e-05
15 *2704:A1_N *1047:27 2.16389e-05
16 *2730:A1 *3347:A 0.000397319
17 *957:18 *2731:A1 0
18 *957:18 *3347:A 0
19 *957:31 *2734:A2 8.51419e-05
20 *957:44 *2734:A2 1.33285e-05
21 *957:54 *2705:A1 0.000380189
22 *957:54 *2721:A 4.99619e-05
23 *957:54 *2734:A2 4.82919e-05
24 *957:54 *968:40 0.000387891
25 *957:54 *1018:12 4.75576e-05
26 *957:77 *2432:A 8.53113e-06
27 *957:77 *2721:A 1.38088e-05
28 *957:77 *2738:B 0.00031842
29 *957:77 *2738:C 5.70461e-06
30 *957:77 *2739:B1 8.23457e-05
31 *957:77 *968:24 4.90071e-05
32 *957:77 *968:26 4.21973e-05
33 *957:77 *981:18 9.03429e-05
34 awready *957:18 0
35 rlast *957:18 3.68682e-05
36 rvalid *957:18 0
37 *2683:B2 *2730:A1 0.000404409
38 *2704:B2 *2704:A1_N 6.20259e-05
39 *2705:A2 *2704:A1_N 4.82919e-05
40 *2705:A2 *957:77 4.82863e-05
41 *2709:B1 *957:54 4.75576e-05
42 *2715:A *957:77 0.000273878
43 *2721:B *957:54 3.96653e-05
44 *2735:B1 *957:31 4.82863e-05
45 *2736:C1 *957:31 1.61831e-05
46 *3259:A *957:18 9.71067e-05
47 *3272:A *957:18 0
48 *3317:A *957:18 0.000309341
49 *3317:A *957:31 4.82919e-05
50 *3364:A *957:77 0.000167904
51 *3365:A *957:54 9.80943e-06
52 *704:8 *957:18 0
53 *883:10 *2704:A1_N 2.69133e-05
54 *883:32 *2704:A1_N 0
55 *883:32 *957:77 2.59981e-05
*RES
1 *3259:X *957:18 46.905 
2 *957:18 *2734:A1 1.6 
3 *957:18 *957:31 2.655 
4 *957:31 *2730:A1 10.295 
5 *957:31 *957:44 0.45 
6 *957:44 *957:54 10.765 
7 *957:54 *2739:A1 1.6 
8 *957:54 *957:77 18.53 
9 *957:77 *2704:A1_N 8.25875 
10 *957:77 *2738:A 1.6 
11 *957:44 *2735:A1 1.6 
*END

*D_NET *958 0.000530471
*CONN
*I *2432:A I *D sky130_fd_sc_hd__nand2_1
*I *3364:X O *D sky130_fd_sc_hd__dlygate4sd1_1
*CAP
1 *2432:A 0.000143587
2 *3364:X 0.000143587
3 *2432:A *2738:C 6.02123e-05
4 *2432:A *2739:B1 8.49205e-05
5 *2432:A *979:27 3.57349e-05
6 *2432:A *981:18 5.38986e-05
7 *957:77 *2432:A 8.53113e-06
*RES
1 *3364:X *2432:A 9.72 
*END

*D_NET *959 0.000639923
*CONN
*I *2740:A1 I *D sky130_fd_sc_hd__o32a_1
*I *3365:X O *D sky130_fd_sc_hd__dlygate4sd1_1
*CAP
1 *2740:A1 0.000182929
2 *3365:X 0.000182929
3 *2740:A1 *2734:B1 2.75229e-05
4 *2740:A1 *2744:A 7.23602e-05
5 *2683:B2 *2740:A1 0.000115699
6 *2740:A3 *2740:A1 0
7 *2740:B2 *2740:A1 5.84815e-05
*RES
1 *3365:X *2740:A1 11.07 
*END

*D_NET *960 0.0010496
*CONN
*I *2664:C I *D sky130_fd_sc_hd__and4bb_1
*I *2449:B I *D sky130_fd_sc_hd__and4b_1
*I *3366:X O *D sky130_fd_sc_hd__dlygate4sd1_1
*CAP
1 *2664:C 8.88903e-05
2 *2449:B 0.0001319
3 *3366:X 2.46816e-05
4 *960:8 0.000245472
5 *2449:B *966:16 5.05437e-05
6 *2449:B *1048:10 6.97256e-05
7 *2664:C *969:12 0.000120655
8 *960:8 *1048:10 7.23602e-05
9 *2664:D *2449:B 7.36641e-05
10 *679:33 *2449:B 7.96104e-06
11 *696:28 *2449:B 4.80285e-05
12 *956:26 *2449:B 8.0715e-05
13 *956:26 *960:8 3.50033e-05
*RES
1 *3366:X *960:8 4.47 
2 *960:8 *2449:B 7.05 
3 *960:8 *2664:C 4.74 
*END

*D_NET *961 0.0019084
*CONN
*I *2450:D I *D sky130_fd_sc_hd__nand4b_1
*I *3367:X O *D sky130_fd_sc_hd__dlygate4sd1_1
*CAP
1 *2450:D 0.000440312
2 *3367:X 0.000440312
3 *2450:A_N *2450:D 0
4 *2450:B *2450:D 0.000121102
5 *2694:A *2450:D 0.000173797
6 *474:45 *2450:D 0
7 *510:12 *2450:D 0.000173305
8 *774:12 *2450:D 0.000321674
9 *775:8 *2450:D 2.37234e-05
10 *950:46 *2450:D 8.53513e-05
11 *950:63 *2450:D 4.39001e-05
12 *953:65 *2450:D 8.49205e-05
*RES
1 *3367:X *2450:D 17.535 
*END

*D_NET *962 0.0184706
*CONN
*I *2632:A I *D sky130_fd_sc_hd__nor2_1
*I *2640:A I *D sky130_fd_sc_hd__nor2_1
*I *2631:A I *D sky130_fd_sc_hd__nor2_1
*I *2628:A I *D sky130_fd_sc_hd__nor2_1
*I *2639:A I *D sky130_fd_sc_hd__nor2_1
*I *3105:X O *D sky130_fd_sc_hd__clkbuf_1
*CAP
1 *2632:A 0.000210246
2 *2640:A 0
3 *2631:A 0.000175211
4 *2628:A 0.000515663
5 *2639:A 0.00485091
6 *3105:X 4.82897e-05
7 *962:73 0.000301275
8 *962:60 0.00107298
9 *962:16 0.00626018
10 *962:10 0.00174864
11 *2639:A *2657:A1 0
12 *2482:B2 *2639:A 1.19249e-05
13 *2509:B1 *2639:A 1.88904e-05
14 *2509:B1 *962:16 6.85516e-05
15 *2515:A2 *962:60 0.000691192
16 *2515:A2 *962:73 0.000100953
17 *2516:A *2632:A 0
18 *2516:A *962:73 0
19 *2516:B *962:60 0
20 *2616:B1 *962:16 2.02679e-05
21 *2625:B2 *2639:A 4.57523e-06
22 *2632:B *2632:A 5.84828e-05
23 *2640:B *962:73 3.62898e-05
24 *2792:D *2628:A 6.97118e-05
25 *2841:GATE_N *2639:A 4.12825e-05
26 *3037:GATE_N *2628:A 0.000269904
27 *3037:GATE_N *962:16 0.000116607
28 *3106:A *2639:A 0
29 *3126:A *2639:A 1.7635e-05
30 *3126:A *962:16 7.44482e-05
31 *3136:A *962:60 2.95708e-05
32 *3136:A *962:73 6.04355e-05
33 *3143:A *962:60 4.21973e-05
34 *3163:A *2631:A 0.000196376
35 *3163:A *962:60 0.000153818
36 *3214:A *2639:A 0
37 *391:12 *2639:A 1.54862e-05
38 *810:22 *962:10 3.86607e-05
39 *838:18 *2631:A 0.000122331
40 *839:75 *962:10 0
41 *867:6 *2631:A 2.8185e-05
42 *885:32 *962:60 0
43 *889:26 *2632:A 1.54862e-05
44 *889:56 *2632:A 2.24767e-05
45 *895:81 *962:10 5.53249e-06
46 *915:54 *962:16 2.19179e-05
47 *917:79 *962:16 0.000177127
48 *917:79 *962:60 0.000111924
49 *917:90 *962:60 0.00064497
*RES
1 *3105:X *962:10 6.47 
2 *962:10 *962:16 12.98 
3 *962:16 *2639:A 13.7275 
4 *962:16 *2628:A 11.985 
5 *962:10 *962:60 19.205 
6 *962:60 *2631:A 7.17 
7 *962:60 *962:73 2.145 
8 *962:73 *2640:A 3.6 
9 *962:73 *2632:A 7.245 
*END

*D_NET *963 0.00318032
*CONN
*I *3366:A I *D sky130_fd_sc_hd__dlygate4sd1_1
*I *3368:X O *D sky130_fd_sc_hd__dlygate4sd1_1
*CAP
1 *3366:A 0.000557664
2 *3368:X 0.000557664
3 *3366:A *2430:B 0.000114492
4 *3366:A *2447:A_N 0
5 *3366:A *3368:A 3.68682e-05
6 *2387:A *3366:A 9.5433e-05
7 *2430:A_N *3366:A 8.49205e-05
8 *2447:B *3366:A 1.16854e-05
9 *2665:B *3366:A 5.75074e-05
10 *2676:B *3366:A 0.000326289
11 *2680:A *3366:A 0.000196364
12 *3367:A *3366:A 4.66108e-05
13 *474:6 *3366:A 0.000107205
14 *672:43 *3366:A 4.22968e-05
15 *950:63 *3366:A 8.65905e-05
16 *951:91 *3366:A 2.03356e-05
17 *952:36 *3366:A 0.000199712
18 *952:40 *3366:A 0.000216443
19 *953:65 *3366:A 0.000329206
20 *953:95 *3366:A 2.81612e-05
21 *953:112 *3366:A 4.88773e-05
22 *954:40 *3366:A 1.59966e-05
*RES
1 *3368:X *3366:A 22.47 
*END

*D_NET *964 0.00124167
*CONN
*I *3368:A I *D sky130_fd_sc_hd__dlygate4sd1_1
*I *3369:X O *D sky130_fd_sc_hd__dlymetal6s2s_1
*CAP
1 *3368:A 0.000325445
2 *3369:X 0.000325445
3 *3368:A *2447:A_N 0.00013834
4 *3368:A *2665:D 0.000193011
5 *3368:A *3360:A 9.2006e-05
6 *3368:A *966:16 5.59302e-05
7 *2676:B *3368:A 0
8 *3366:A *3368:A 3.68682e-05
9 *3369:A *3368:A 1.33285e-05
10 *951:59 *3368:A 6.12936e-05
*RES
1 *3369:X *3368:A 13.44 
*END

*D_NET *965 0.00307125
*CONN
*I *2772:A2 I *D sky130_fd_sc_hd__a22o_1
*I *2782:A2 I *D sky130_fd_sc_hd__a22o_1
*I *2778:A2 I *D sky130_fd_sc_hd__a22o_1
*I *3370:X O *D sky130_fd_sc_hd__buf_1
*CAP
1 *2772:A2 0.000114174
2 *2782:A2 6.35863e-05
3 *2778:A2 0
4 *3370:X 0.000570696
5 *965:19 0.000269223
6 *965:10 0.000662158
7 *2766:A0 *965:10 0.00027019
8 *2772:B1 *2772:A2 4.67355e-05
9 *2782:A1 *2782:A2 0.000124895
10 *2782:B1 *2782:A2 0.000163199
11 *3094:D *2772:A2 3.64998e-06
12 *3218:A *2782:A2 2.05056e-05
13 *3218:A *965:19 1.79536e-05
14 *3219:A *2772:A2 8.53113e-06
15 *3219:A *965:19 3.14383e-05
16 *752:10 *965:10 0.000153469
17 *752:19 *2772:A2 1.07797e-05
18 *752:19 *965:10 1.34361e-05
19 *752:19 *965:19 0.000101693
20 *771:22 *2772:A2 0.000110399
21 *780:10 *965:19 4.04791e-05
22 *939:6 *2782:A2 8.40269e-05
23 *942:12 *965:10 9.47454e-05
24 *945:14 *2772:A2 8.69417e-06
25 *945:25 *2772:A2 8.65905e-05
26 *945:25 *965:10 0
27 *945:25 *965:19 0
*RES
1 *3370:X *965:10 11.64 
2 *965:10 *2778:A2 3.6 
3 *965:10 *965:19 2.4 
4 *965:19 *2782:A2 5.775 
5 *965:19 *2772:A2 6.285 
*END

*D_NET *966 0.00262603
*CONN
*I *2382:B I *D sky130_fd_sc_hd__and2b_1
*I *3360:A I *D sky130_fd_sc_hd__dlymetal6s2s_1
*I *3359:X O *D sky130_fd_sc_hd__dlygate4sd1_1
*CAP
1 *2382:B 0.000157615
2 *3360:A 2.46217e-05
3 *3359:X 0.000323615
4 *966:16 0.000505852
5 *2449:B *966:16 5.05437e-05
6 *2449:C *966:16 6.76234e-05
7 *2449:D *966:16 0.000109347
8 *2694:A *966:16 8.23457e-05
9 *2695:B *2382:B 0.000243662
10 *2695:C *2382:B 5.64768e-05
11 *2784:D *2382:B 0.000111012
12 *3362:A *2382:B 2.25119e-05
13 *3368:A *3360:A 9.2006e-05
14 *3368:A *966:16 5.59302e-05
15 *3369:A *3360:A 5.22918e-05
16 *474:45 *966:16 0.000119114
17 *510:12 *966:16 8.23457e-05
18 *696:28 *966:16 4.78924e-05
19 *774:12 *966:16 0.000132131
20 *774:16 *2382:B 0.000114084
21 *774:42 *3360:A 1.60203e-05
22 *774:42 *966:16 7.23635e-05
23 *950:35 *966:16 8.23457e-05
24 *951:59 *3360:A 0
25 *951:83 *2382:B 4.27883e-06
*RES
1 *3359:X *966:16 9.715 
2 *966:16 *3360:A 2.755 
3 *966:16 *2382:B 10.04 
*END

*D_NET *967 0.000611779
*CONN
*I *2665:D I *D sky130_fd_sc_hd__or4_4
*I *3360:X O *D sky130_fd_sc_hd__dlymetal6s2s_1
*CAP
1 *2665:D 7.37339e-05
2 *3360:X 7.37339e-05
3 *3368:A *2665:D 0.000193011
4 *951:59 *2665:D 0.0002713
*RES
1 *3360:X *2665:D 5.72 
*END

*D_NET *968 0.00979274
*CONN
*I *2710:A1 I *D sky130_fd_sc_hd__a221o_1
*I *2738:B I *D sky130_fd_sc_hd__and3_1
*I *2739:A2 I *D sky130_fd_sc_hd__a21oi_1
*I *2735:A2 I *D sky130_fd_sc_hd__a21oi_1
*I *2734:A2 I *D sky130_fd_sc_hd__o21ai_1
*I *3260:X O *D sky130_fd_sc_hd__dlymetal6s2s_1
*CAP
1 *2710:A1 1.32669e-05
2 *2738:B 0.000193817
3 *2739:A2 0
4 *2735:A2 0
5 *2734:A2 5.22796e-05
6 *3260:X 0.00063731
7 *968:40 0.0002438
8 *968:26 0.000286535
9 *968:24 0.00181566
10 *968:14 0.00217741
11 *2734:A2 *2734:B1 0.000157172
12 *2738:B *2721:A 6.56307e-05
13 *2738:B *2738:C 6.1215e-05
14 *968:14 *3348:A 0.000181524
15 *968:14 *3349:A 0.000122337
16 *968:14 *3354:A 1.21595e-05
17 *968:24 *2721:A 0
18 *968:24 *3235:A 0
19 *968:24 *979:27 7.3151e-05
20 *968:24 *981:18 0
21 *968:24 *1012:16 0
22 *968:26 *2739:B1 0.000194694
23 *968:26 *979:27 0.000120655
24 *968:40 *2734:B1 0.000276823
25 bresp *968:14 3.23663e-05
26 rdata[13] *968:14 0.000198046
27 *2709:B1 *968:24 0
28 *2710:B1 *2710:A1 8.7152e-06
29 *2710:B2 *2710:A1 2.97206e-06
30 *2710:B2 *968:24 0.000306848
31 *2714:A *968:40 1.16578e-05
32 *2715:A *968:24 8.23457e-05
33 *2715:A *968:26 0.000421062
34 *2715:A *968:40 3.96737e-05
35 *2721:B *968:40 0.000162089
36 *2735:B1 *2734:A2 4.82863e-05
37 *2736:C1 *2734:A2 4.60584e-05
38 *2740:A3 *968:40 9.80032e-06
39 *2740:B1 *968:40 0.000113797
40 *2787:D *2738:B 0.000125662
41 *3271:A *968:14 0.00019637
42 *3276:A *968:24 1.17036e-05
43 *3278:A *968:14 8.20031e-06
44 *3278:A *968:24 3.68454e-05
45 *3293:A *968:24 6.15576e-06
46 *3312:A *968:14 0.000159681
47 *3312:A *968:24 4.47094e-05
48 *3364:A *968:24 7.9642e-06
49 *3365:A *968:40 2.30292e-05
50 *709:8 *968:40 1.23707e-05
51 *710:8 *968:40 4.66108e-05
52 *957:31 *2734:A2 8.51419e-05
53 *957:44 *2734:A2 1.33285e-05
54 *957:54 *2734:A2 4.82919e-05
55 *957:54 *968:40 0.000387891
56 *957:77 *2738:B 0.00031842
57 *957:77 *968:24 4.90071e-05
58 *957:77 *968:26 4.21973e-05
*RES
1 *3260:X *968:14 12.8449 
2 *968:14 *968:24 8.3077 
3 *968:24 *968:26 3.9 
4 *968:26 *968:40 10.795 
5 *968:40 *2734:A2 3.775 
6 *968:40 *2735:A2 1.6 
7 *968:26 *2739:A2 1.6 
8 *968:24 *2738:B 10.685 
9 *968:14 *2710:A1 4.3325 
*END

*D_NET *969 0.00911741
*CONN
*I *2687:C I *D sky130_fd_sc_hd__or4_1
*I *2428:B I *D sky130_fd_sc_hd__nand2_1
*I *2681:B I *D sky130_fd_sc_hd__or3_1
*I *2430:B I *D sky130_fd_sc_hd__nand3b_1
*I *2447:A_N I *D sky130_fd_sc_hd__and3b_1
*I *3103:X O *D sky130_fd_sc_hd__clkbuf_1
*CAP
1 *2687:C 0.000154373
2 *2428:B 0.000481443
3 *2681:B 0
4 *2430:B 0.000158451
5 *2447:A_N 0.000309973
6 *3103:X 0
7 *969:63 0.000834447
8 *969:50 0.000377256
9 *969:12 0.00121652
10 *969:4 0.000926725
11 *2428:B *2699:A1 8.40213e-05
12 *2687:C *2378:A 8.49205e-05
13 *2687:C *2687:A 4.82919e-05
14 *2687:C *2690:A1 4.66108e-05
15 *969:12 *3103:A 0.000328993
16 *2383:B *2428:B 0.000172288
17 *2383:B *969:63 2.85364e-05
18 *2387:C_N *2430:B 6.00111e-05
19 *2387:C_N *969:12 2.49909e-05
20 *2388:A *2447:A_N 6.19873e-05
21 *2430:A_N *2430:B 8.35106e-05
22 *2430:C *2430:B 2.99083e-05
23 *2441:B *969:12 5.21706e-05
24 *2447:C *2447:A_N 0
25 *2664:B_N *969:12 4.66108e-05
26 *2664:C *969:12 0.000120655
27 *2671:A3 *2447:A_N 0.000135274
28 *2681:A *969:50 0.000151935
29 *2681:C *969:50 2.39856e-05
30 *2681:C *969:63 2.49909e-05
31 *2689:C1 *969:50 4.70556e-05
32 *2695:A *2428:B 4.92062e-05
33 *2695:A *969:12 5.28932e-05
34 *2698:A3 *2428:B 0
35 *2699:B1 *2428:B 0
36 *2762:B1 *2687:C 0.000271308
37 *2784:CLK *2447:A_N 3.00381e-05
38 *3233:A *2428:B 9.387e-06
39 *3233:A *969:63 0.00012918
40 *3366:A *2430:B 0.000114492
41 *3366:A *2447:A_N 0
42 *3368:A *2447:A_N 0.00013834
43 *501:8 *969:63 4.79946e-05
44 *502:42 *2428:B 0
45 *508:10 *2428:B 0.000224239
46 *508:46 *2428:B 6.05081e-05
47 *509:8 *2447:A_N 2.46007e-05
48 *672:53 *969:63 0.000122337
49 *675:12 *2447:A_N 2.4997e-05
50 *679:16 *969:12 1.37328e-05
51 *679:16 *969:63 0
52 *679:33 *969:12 2.49909e-05
53 *683:6 *969:63 0.000268739
54 *691:20 *2428:B 3.28761e-05
55 *696:28 *2428:B 8.23457e-05
56 *696:28 *2447:A_N 0.000176273
57 *773:20 *2428:B 0.000397385
58 *774:59 *2447:A_N 0.000153186
59 *952:36 *2430:B 0.000113797
60 *953:8 *2687:C 0.000165616
61 *953:39 *2687:C 5.83121e-06
62 *953:112 *2430:B 2.87395e-05
63 *956:26 *969:50 0.000238439
*RES
1 *3103:X *969:4 1.6 
2 *969:4 *969:12 10.245 
3 *969:12 *2447:A_N 12.98 
4 *969:12 *2430:B 8.915 
5 *969:4 *969:50 7.705 
6 *969:50 *2681:B 1.6 
7 *969:50 *969:63 7.205 
8 *969:63 *2428:B 18.25 
9 *969:63 *2687:C 7.845 
*END

*D_NET *970 0.00622319
*CONN
*I *2662:S I *D sky130_fd_sc_hd__mux2_1
*I *2674:B I *D sky130_fd_sc_hd__nand2_1
*I *2661:S I *D sky130_fd_sc_hd__mux2_1
*I *2663:S I *D sky130_fd_sc_hd__mux2_1
*I *2660:S I *D sky130_fd_sc_hd__mux2_1
*I *3361:X O *D sky130_fd_sc_hd__dlygate4sd1_1
*CAP
1 *2662:S 5.76742e-05
2 *2674:B 0.000423135
3 *2661:S 7.94138e-05
4 *2663:S 0
5 *2660:S 8.63487e-05
6 *3361:X 0.000339605
7 *970:26 0.000353843
8 *970:16 0.000404981
9 *970:14 0.000537084
10 *970:12 0.000453155
11 *2660:S *3328:A 3.57768e-05
12 *2661:S *2661:A0 4.66108e-05
13 *2662:S *2662:A0 8.49205e-05
14 *2662:S *3324:A 0.0001947
15 *970:12 *2661:A0 0.000199828
16 *970:12 *3325:A 2.63122e-05
17 *970:12 *3345:A 2.23407e-05
18 *970:14 *2661:A0 5.34443e-05
19 *970:14 *3345:A 0.000160665
20 *970:16 *2661:A0 8.26527e-05
21 *970:16 *3345:A 0.000209179
22 *970:26 *2661:A0 1.0183e-05
23 *970:26 *2663:A0 8.49205e-05
24 *970:26 *3328:A 0.000179344
25 *970:26 *3345:A 3.09164e-05
26 PSEL2 *2662:S 4.41506e-05
27 *2435:C *970:12 0.00011852
28 *2436:A_N *970:12 0.000177561
29 *2438:B *970:12 0.000284281
30 *2516:A *2674:B 0.000121817
31 *2661:A1 *2661:S 4.58166e-05
32 *2662:A1 *2660:S 0.000362965
33 *2663:A1 *2660:S 0.000300109
34 *2827:D *970:26 0.000189426
35 *2828:D *2674:B 0.000160635
36 *2828:GATE_N *2674:B 2.42043e-05
37 *374:8 *970:12 7.23533e-05
38 *431:10 *970:26 0
39 *505:10 *970:12 0.000122331
40 *507:24 *970:12 4.19884e-05
*RES
1 *3361:X *970:12 12.69 
2 *970:12 *970:14 1.89 
3 *970:14 *970:16 2.4 
4 *970:16 *970:26 8.225 
5 *970:26 *2660:S 9.785 
6 *970:26 *2663:S 1.6 
7 *970:16 *2661:S 5.085 
8 *970:14 *2674:B 10.035 
9 *970:12 *2662:S 5.43 
*END

*D_NET *971 0.00184155
*CONN
*I *3103:A I *D sky130_fd_sc_hd__clkbuf_1
*I *3362:X O *D sky130_fd_sc_hd__dlygate4sd1_1
*CAP
1 *3103:A 0.000231934
2 *3362:X 0.000231934
3 *3103:A *1048:10 4.66108e-05
4 *2664:B_N *3103:A 4.66108e-05
5 *2695:A *3103:A 0.000394838
6 *3362:A *3103:A 0.000118427
7 *772:10 *3103:A 0.000283907
8 *774:16 *3103:A 0.000158297
9 *969:12 *3103:A 0.000328993
*RES
1 *3362:X *3103:A 15.21 
*END

*D_NET *972 0.00629581
*CONN
*I *2725:B I *D sky130_fd_sc_hd__or2_1
*I *2677:B1 I *D sky130_fd_sc_hd__o31a_1
*I *2829:D I *D sky130_fd_sc_hd__dlxtn_1
*I *2768:A1 I *D sky130_fd_sc_hd__o21a_1
*I *2769:B I *D sky130_fd_sc_hd__or3_1
*I *3104:Y O *D sky130_fd_sc_hd__clkinvlp_2
*CAP
1 *2725:B 0.000607796
2 *2677:B1 0
3 *2829:D 0.000336231
4 *2768:A1 2.78608e-05
5 *2769:B 9.41658e-05
6 *3104:Y 0
7 *972:49 0.000670368
8 *972:36 0.00063259
9 *972:10 0.00114534
10 *972:4 0.0012571
11 *2725:B *2656:A0 3.00381e-05
12 *2725:B *2747:A1 5.71917e-05
13 *2725:B *992:16 2.66586e-05
14 *2392:A *972:36 4.99619e-05
15 *2392:C *972:36 0.000140594
16 *2683:B2 *2725:B 8.8266e-05
17 *2737:A2 *2725:B 7.38696e-05
18 *2737:B2 *2725:B 1.32017e-05
19 *2747:A2 *2725:B 0
20 *2747:B1 *2725:B 0.000160658
21 *2764:A *2829:D 0
22 *2768:A2 *2769:B 7.23533e-05
23 *2768:B1 *2768:A1 0.000163199
24 *3086:RESET_B *2725:B 0
25 *3099:A *2768:A1 9.66021e-05
26 *3099:A *2829:D 0.000157968
27 *3104:A *972:36 3.77036e-05
28 *3240:A *2725:B 2.34423e-05
29 *3318:A *2725:B 7.23602e-05
30 *722:42 *2725:B 7.96996e-05
31 *771:12 *972:10 0
32 *771:14 *2769:B 0
33 *771:67 *972:10 0
34 *783:12 *2725:B 0
35 *783:26 *2725:B 9.50342e-06
36 *783:26 *2829:D 3.67779e-05
37 *783:26 *972:49 3.31282e-05
38 *784:14 *2725:B 5.46798e-05
39 *784:32 *2725:B 6.34101e-06
40 *801:31 *2725:B 4.01535e-05
41 *804:14 *2725:B 0
*RES
1 *3104:Y *972:4 1.6 
2 *972:4 *972:10 16.13 
3 *972:10 *2769:B 5.235 
4 *972:10 *2768:A1 5.085 
5 *972:4 *972:36 5.675 
6 *972:36 *2829:D 9.54 
7 *972:36 *972:49 0.87 
8 *972:49 *2677:B1 3.6 
9 *972:49 *2725:B 15.09 
*END

*D_NET *973 0.00365272
*CONN
*I *3347:A I *D sky130_fd_sc_hd__buf_4
*I *2728:B2 I *D sky130_fd_sc_hd__o221a_2
*I *3363:X O *D sky130_fd_sc_hd__clkbuf_2
*CAP
1 *3347:A 0.000672951
2 *2728:B2 9.65191e-05
3 *3363:X 0.000453761
4 *973:8 0.00122323
5 *3347:A *2705:A1 0
6 *3347:A *2731:A1 0
7 *3347:A *3235:A 0.000157959
8 *3347:A *991:8 0
9 *973:8 *2380:A 4.99619e-05
10 *2390:A *3347:A 1.65192e-05
11 *2683:B2 *3347:A 9.6032e-05
12 *2726:A *2728:B2 0
13 *2726:A *3347:A 0
14 *2728:B1 *2728:B2 0.000210839
15 *2728:B1 *3347:A 2.92496e-05
16 *2728:B1 *973:8 4.66108e-05
17 *2730:A1 *3347:A 0.000397319
18 *2731:B1 *3347:A 0
19 *2747:B1 *3347:A 8.5225e-05
20 *3272:A *3347:A 0
21 *3317:A *3347:A 0.000116544
22 *481:14 *3347:A 0
23 *718:25 *2728:B2 0
24 *957:18 *3347:A 0
*RES
1 *3363:X *973:8 9.915 
2 *973:8 *2728:B2 6 
3 *973:8 *3347:A 16.785 
*END

*D_NET *974 0.00191461
*CONN
*I *2760:A1 I *D sky130_fd_sc_hd__a22o_1
*I *3236:X O *D sky130_fd_sc_hd__dlygate4sd3_1
*CAP
1 *2760:A1 0.000277422
2 *3236:X 0.000277422
3 *2760:A1 *2661:A0 2.75145e-05
4 *2760:A1 *2662:A0 0.000646112
5 *2760:A1 *3321:A 4.92206e-05
6 *2760:A1 *3325:A 0
7 *2760:A1 *3327:A 0.000290817
8 *2760:B1 *2760:A1 0.00031573
9 *2760:B2 *2760:A1 3.03684e-05
*RES
1 *3236:X *2760:A1 16.965 
*END

*D_NET *975 0.000575787
*CONN
*I *2747:A1 I *D sky130_fd_sc_hd__a22o_1
*I *3237:X O *D sky130_fd_sc_hd__dlygate4sd3_1
*CAP
1 *2747:A1 0.000126052
2 *3237:X 0.000126052
3 *2725:B *2747:A1 5.71917e-05
4 *2747:A2 *2747:A1 0.000266491
*RES
1 *3237:X *2747:A1 9.975 
*END

*D_NET *976 0.000308823
*CONN
*I *2723:A1 I *D sky130_fd_sc_hd__a22o_1
*I *3238:X O *D sky130_fd_sc_hd__dlygate4sd3_1
*CAP
1 *2723:A1 9.32489e-05
2 *3238:X 9.32489e-05
3 *2723:A2 *2723:A1 0.000122325
*RES
1 *3238:X *2723:A1 4.685 
*END

*D_NET *977 0.00138511
*CONN
*I *2719:A0 I *D sky130_fd_sc_hd__mux2_1
*I *3239:X O *D sky130_fd_sc_hd__dlygate4sd3_1
*CAP
1 *2719:A0 0.000298655
2 *3239:X 0.000298655
3 *2719:A0 *997:20 4.82919e-05
4 *2719:A0 *1047:111 0
5 *2719:A0 *1047:123 9.84554e-05
6 *2711:S *2719:A0 0.000227943
7 *2719:A1 *2719:A0 7.00115e-05
8 *2789:RESET_B *2719:A0 0.000138777
9 *787:14 *2719:A0 0.000158965
10 *956:70 *2719:A0 4.53578e-05
*RES
1 *3239:X *2719:A0 14.925 
*END

*D_NET *978 0.000811064
*CONN
*I *2742:A1 I *D sky130_fd_sc_hd__a22o_1
*I *3240:X O *D sky130_fd_sc_hd__dlygate4sd3_1
*CAP
1 *2742:A1 0.000195561
2 *3240:X 0.000195561
3 *2742:A2 *2742:A1 9.30787e-05
4 *2742:B1 *2742:A1 9.30787e-05
5 *782:53 *2742:A1 0.000233786
*RES
1 *3240:X *2742:A1 10.5 
*END

*D_NET *979 0.00634362
*CONN
*I *2738:C I *D sky130_fd_sc_hd__and3_1
*I *2739:B1 I *D sky130_fd_sc_hd__a21oi_1
*I *2718:A1 I *D sky130_fd_sc_hd__a221o_1
*I *3261:X O *D sky130_fd_sc_hd__buf_1
*CAP
1 *2738:C 0.000209125
2 *2739:B1 5.38609e-05
3 *2718:A1 0.000187706
4 *3261:X 0.000344343
5 *979:27 0.000675322
6 *979:10 0.000944385
7 *2718:A1 *1047:111 0
8 *2738:C *2721:A 0.000111158
9 *2738:C *981:18 0
10 *2738:C *1047:27 4.1977e-05
11 *979:10 *1047:111 0.000158689
12 *2432:A *2738:C 6.02123e-05
13 *2432:A *2739:B1 8.49205e-05
14 *2432:A *979:27 3.57349e-05
15 *2667:A *2718:A1 4.91927e-05
16 *2704:A1_N *2738:C 1.89685e-05
17 *2705:A2 *2738:C 1.17195e-05
18 *2709:A1 *2718:A1 3.68772e-05
19 *2709:A1 *979:10 6.99988e-05
20 *2709:A2 *2718:A1 0
21 *2709:A2 *979:27 0.000192125
22 *2710:C1 *979:10 0.000287917
23 *2711:A1 *979:10 0.000538555
24 *2715:A *979:27 7.88978e-05
25 *2716:B *2718:A1 0.000165222
26 *2718:B2 *979:27 0.000456797
27 *2738:B *2738:C 6.1215e-05
28 *2787:D *2738:C 5.92191e-05
29 *3365:A *2738:C 7.44453e-05
30 *506:10 *2738:C 8.09021e-06
31 *674:18 *2718:A1 0.000139231
32 *786:47 *2718:A1 1.44259e-05
33 *868:20 *979:10 0.000239813
34 *882:8 *979:10 0.00038909
35 *882:19 *979:10 6.7836e-05
36 *957:77 *2738:C 5.70461e-06
37 *957:77 *2739:B1 8.23457e-05
38 *968:24 *979:27 7.3151e-05
39 *968:26 *2739:B1 0.000194694
40 *968:26 *979:27 0.000120655
*RES
1 *3261:X *979:10 15 
2 *979:10 *2718:A1 8.04 
3 *979:10 *979:27 10.76 
4 *979:27 *2739:B1 3.43 
5 *979:27 *2738:C 10.6737 
*END

*D_NET *980 0.00144548
*CONN
*I *2757:A1 I *D sky130_fd_sc_hd__o22a_1
*I *3241:X O *D sky130_fd_sc_hd__dlygate4sd3_1
*CAP
1 *2757:A1 0.00028559
2 *3241:X 0.00028559
3 *2757:A1 *2659:A0 3.86607e-05
4 *2757:A1 *2751:B2 4.06007e-05
5 *2757:A1 *3325:A 3.78024e-05
6 *2757:A1 *3327:A 0.000464203
7 *2659:A1 *2757:A1 0.000293032
*RES
1 *3241:X *2757:A1 14.145 
*END

*D_NET *981 0.00535551
*CONN
*I *2744:A I *D sky130_fd_sc_hd__nand2_1
*I *2722:B1 I *D sky130_fd_sc_hd__a2bb2o_1
*I *2745:A1 I *D sky130_fd_sc_hd__o21a_1
*I *3262:X O *D sky130_fd_sc_hd__buf_1
*CAP
1 *2744:A 0.000320186
2 *2722:B1 0
3 *2745:A1 0.000160087
4 *3262:X 0.000677296
5 *981:35 0.000426456
6 *981:18 0.000943653
7 *2745:A1 *1047:8 2.97004e-06
8 *2745:A1 *1047:27 3.57104e-05
9 *981:18 *2721:A 0
10 *981:18 *3235:A 0.000625521
11 *981:18 *996:16 8.23457e-05
12 *981:18 *1012:16 4.82919e-05
13 *981:35 *1047:27 1.46744e-05
14 *2432:A *981:18 5.38986e-05
15 *2704:B2 *2745:A1 3.02252e-05
16 *2709:B1 *981:18 0.00032825
17 *2710:C1 *981:18 0.000268919
18 *2722:A1_N *981:35 4.66108e-05
19 *2722:A2_N *2744:A 1.19928e-05
20 *2722:A2_N *981:35 0.000160635
21 *2738:C *981:18 0
22 *2740:A1 *2744:A 7.23602e-05
23 *2740:A2 *2745:A1 9.53428e-06
24 *2740:A3 *2744:A 7.21296e-06
25 *2740:B2 *2744:A 4.43871e-06
26 *2744:B *2744:A 8.57024e-05
27 *2746:A1_N *2744:A 1.19928e-05
28 *2746:B1 *2744:A 0.000168408
29 *3365:A *981:18 1.1561e-05
30 *506:10 *2745:A1 2.92496e-05
31 *506:10 *981:18 0.000118527
32 *720:33 *2744:A 0.00010648
33 *868:20 *981:18 8.57024e-05
34 *883:10 *2745:A1 8.22234e-06
35 *891:32 *2745:A1 0.000132842
36 *891:32 *981:18 0.000175214
37 *957:77 *981:18 9.03429e-05
38 *968:24 *981:18 0
*RES
1 *3262:X *981:18 19.32 
2 *981:18 *2745:A1 6.645 
3 *981:18 *981:35 4.175 
4 *981:35 *2722:B1 1.6 
5 *981:35 *2744:A 10.745 
*END

*D_NET *982 0.0121574
*CONN
*I *2700:B1 I *D sky130_fd_sc_hd__o2bb2a_4
*I *2688:A I *D sky130_fd_sc_hd__or3_1
*I *2378:A I *D sky130_fd_sc_hd__inv_2
*I *2448:A I *D sky130_fd_sc_hd__or2_1
*I *2674:A I *D sky130_fd_sc_hd__nand2_1
*I *3263:X O *D sky130_fd_sc_hd__dlymetal6s2s_1
*CAP
1 *2700:B1 0
2 *2688:A 7.60434e-05
3 *2378:A 0.000255862
4 *2448:A 9.71884e-06
5 *2674:A 0.0001521
6 *3263:X 0.000251658
7 *982:75 0.000312148
8 *982:52 0.0021136
9 *982:27 0.0019852
10 *982:8 0.000757606
11 *2378:A *1018:12 0
12 *982:27 *2672:A 0.000256066
13 *982:27 *1050:10 4.95523e-05
14 *982:27 *1050:25 8.24494e-05
15 *982:27 *1050:31 8.75643e-05
16 *982:75 *2700:A2_N 1.70935e-05
17 *2388:B *982:27 3.85797e-05
18 *2435:A_N *982:8 0.000109377
19 *2435:C *982:8 5.90847e-05
20 *2437:A *982:8 6.71882e-05
21 *2439:B *982:8 2.75145e-05
22 *2445:B *2448:A 4.82919e-05
23 *2445:B *982:27 1.0183e-05
24 *2445:B *982:52 5.72742e-05
25 *2516:A *2674:A 4.99619e-05
26 *2676:B *982:8 2.49909e-05
27 *2683:A1 *2378:A 4.62466e-05
28 *2685:A *982:52 0.000272984
29 *2687:C *2378:A 8.49205e-05
30 *2688:B *2688:A 0.000225596
31 *2688:B *982:75 9.78539e-05
32 *2691:B *982:27 0.00011852
33 *2691:C *2674:A 9.50342e-06
34 *2691:C *982:27 0.000126385
35 *2695:D_N *982:27 9.54399e-05
36 *2697:D_N *2378:A 0
37 *2703:C1 *982:75 0
38 *2755:B1 *982:52 7.47215e-05
39 *2756:A *982:52 6.77501e-05
40 *2756:B *982:52 0.000154418
41 *2757:B2 *2448:A 4.82919e-05
42 *2762:B1 *2378:A 2.10582e-05
43 *3180:A *2674:A 0
44 *3180:A *982:27 0
45 *3183:A *982:52 0.000295527
46 *3233:A *2378:A 0.000219178
47 *431:10 *982:8 0.000496
48 *472:14 *982:75 0
49 *478:8 *982:27 8.09021e-06
50 *501:8 *2378:A 0
51 *501:8 *982:75 0
52 *505:38 *982:27 0.000170892
53 *505:38 *982:52 0.000216643
54 *507:26 *982:8 0.000122706
55 *672:43 *2688:A 3.74161e-05
56 *672:43 *982:52 0.00115901
57 *672:43 *982:75 0
58 *672:53 *2688:A 8.23457e-05
59 *678:8 *2674:A 0.00029067
60 *738:12 *2674:A 0.000333496
61 *738:12 *982:27 3.97171e-05
62 *739:10 *982:52 7.9205e-06
63 *767:42 *982:8 3.83194e-05
64 *770:10 *2378:A 4.94326e-05
65 *885:14 *982:8 0.000160635
66 *891:23 *2378:A 0
67 *891:23 *982:75 0
68 *953:8 *2378:A 8.65961e-05
*RES
1 *3263:X *982:8 11.295 
2 *982:8 *2674:A 8.43 
3 *982:8 *982:27 9.42 
4 *982:27 *2448:A 4.05 
5 *982:27 *982:52 28.045 
6 *982:52 *2378:A 9.345 
7 *982:52 *982:75 5.945 
8 *982:75 *2688:A 3.79 
9 *982:75 *2700:B1 1.6 
*END

*D_NET *983 0.00197292
*CONN
*I *2654:A1 I *D sky130_fd_sc_hd__mux2_1
*I *3264:X O *D sky130_fd_sc_hd__clkbuf_1
*CAP
1 *2654:A1 0.000614728
2 *3264:X 0.000614728
3 *2654:A1 *2646:A0 4.99619e-05
4 *2654:A1 *2654:A0 0
5 *2475:B1 *2654:A1 9.56731e-05
6 *2643:A1 *2654:A1 0.000161204
7 *3151:A *2654:A1 4.90071e-05
8 *3168:A *2654:A1 0
9 *3169:A *2654:A1 0.000193806
10 *873:10 *2654:A1 0
11 *873:28 *2654:A1 0
12 *873:50 *2654:A1 0
13 *884:65 *2654:A1 0.000193806
*RES
1 *3264:X *2654:A1 17.355 
*END

*D_NET *984 0.00261473
*CONN
*I *2751:B2 I *D sky130_fd_sc_hd__a221o_1
*I *3265:X O *D sky130_fd_sc_hd__clkbuf_1
*CAP
1 *2751:B2 0.000662077
2 *3265:X 0.000662077
3 *2751:B2 *2759:A2 0.000116158
4 *2751:B2 *2759:B2 1.86911e-05
5 *2444:A *2751:B2 4.41506e-05
6 *2751:A2 *2751:B2 2.32738e-05
7 *2751:C1 *2751:B2 0
8 *2752:A1 *2751:B2 0.000228091
9 *2757:A1 *2751:B2 4.06007e-05
10 *2758:A_N *2751:B2 0.000120655
11 *2759:C1 *2751:B2 7.23602e-05
12 *3241:A *2751:B2 4.41506e-05
13 *115:16 *2751:B2 0.000155491
14 *116:57 *2751:B2 4.16869e-05
15 *739:44 *2751:B2 0.000308383
16 *882:25 *2751:B2 6.43097e-05
17 *882:44 *2751:B2 1.25708e-05
*RES
1 *3265:X *2751:B2 21.12 
*END

*D_NET *985 0.000654951
*CONN
*I *2659:A0 I *D sky130_fd_sc_hd__mux2_1
*I *3266:X O *D sky130_fd_sc_hd__clkbuf_1
*CAP
1 *2659:A0 0.000260578
2 *3266:X 0.000260578
3 *2659:A0 *3325:A 7.4027e-05
4 *2757:A1 *2659:A0 3.86607e-05
5 *2757:A2 *2659:A0 2.11084e-05
*RES
1 *3266:X *2659:A0 10.59 
*END

*D_NET *986 0.00224955
*CONN
*I *2759:B2 I *D sky130_fd_sc_hd__a221o_1
*I *3267:X O *D sky130_fd_sc_hd__clkbuf_1
*CAP
1 *2759:B2 0.000336918
2 *3267:X 0.000336918
3 *2759:B2 *2759:A2 0.000710667
4 *2759:B2 *3325:A 0.000193275
5 *2759:B2 *1047:123 5.7327e-05
6 PADDR[1] *2759:B2 0.000237243
7 PSEL1 *2759:B2 2.49909e-05
8 *2751:B2 *2759:B2 1.86911e-05
9 *2759:A1 *2759:B2 0.000150959
10 *2759:B1 *2759:B2 1.12643e-05
11 *2759:C1 *2759:B2 9.50342e-06
12 *3254:A *2759:B2 9.80032e-06
13 *115:10 *2759:B2 0.000139924
14 *116:57 *2759:B2 1.20741e-05
*RES
1 *3267:X *2759:B2 18.4837 
*END

*D_NET *987 0.00666901
*CONN
*I *2660:A0 I *D sky130_fd_sc_hd__mux2_1
*I *3268:X O *D sky130_fd_sc_hd__buf_1
*CAP
1 *2660:A0 0.000304635
2 *3268:X 0.00258208
3 *987:10 0.00288672
4 *987:10 *3330:A 0
5 *987:10 *3332:A 0
6 *987:10 *3333:A 0
7 *987:10 *3335:A 0
8 *987:10 *3336:A 0
9 *987:10 *3338:A 0
10 *987:10 *3342:A 0
11 *987:10 *3343:A 0
12 PSEL4 *987:10 0
13 PWDATA[13] *987:10 9.5799e-06
14 PWDATA[14] *987:10 1.00941e-05
15 PWDATA[15] *987:10 5.78448e-05
16 PWDATA[1] *987:10 8.471e-05
17 PWDATA[3] *987:10 3.12639e-05
18 PWDATA[4] *987:10 9.58678e-06
19 PWDATA[6] *987:10 5.78379e-05
20 PWDATA[8] *987:10 0
21 *2649:A1 *987:10 5.08588e-05
22 *2660:A1 *2660:A0 0.000134938
23 *2662:A1 *987:10 0
24 *3246:A *987:10 0.000106819
25 *3258:A *987:10 4.18203e-05
26 *3275:A *987:10 0.000106824
27 *3301:A *987:10 1.92979e-05
28 *3310:A *987:10 0.000174095
*RES
1 *3268:X *987:10 48.45 
2 *987:10 *2660:A0 7.155 
*END

*D_NET *988 0.00427618
*CONN
*I *2661:A0 I *D sky130_fd_sc_hd__mux2_1
*I *3269:X O *D sky130_fd_sc_hd__clkbuf_1
*CAP
1 *2661:A0 0.00108476
2 *3269:X 0.00108476
3 *2438:B *2661:A0 0.000286642
4 *2661:A1 *2661:A0 4.66826e-05
5 *2661:S *2661:A0 4.66108e-05
6 *2757:A2 *2661:A0 0.000181376
7 *2758:B *2661:A0 5.43298e-05
8 *2760:A1 *2661:A0 2.75145e-05
9 *3091:D *2661:A0 0.000225911
10 *116:10 *2661:A0 4.82919e-05
11 *116:38 *2661:A0 8.40213e-05
12 *374:8 *2661:A0 7.08403e-05
13 *374:27 *2661:A0 2.67591e-05
14 *431:10 *2661:A0 0.000506335
15 *739:22 *2661:A0 0.000155234
16 *885:14 *2661:A0 0
17 *970:12 *2661:A0 0.000199828
18 *970:14 *2661:A0 5.34443e-05
19 *970:16 *2661:A0 8.26527e-05
20 *970:26 *2661:A0 1.0183e-05
*RES
1 *3269:X *2661:A0 31.14 
*END

*D_NET *989 0.00440027
*CONN
*I *2662:A0 I *D sky130_fd_sc_hd__mux2_1
*I *3270:X O *D sky130_fd_sc_hd__clkbuf_1
*CAP
1 *2662:A0 0.000924221
2 *3270:X 0.000924221
3 *2662:A0 *3321:A 6.83488e-05
4 *2662:A0 *3324:A 4.21973e-05
5 *2662:A0 *3327:A 0.000607824
6 PADDR[2] *2662:A0 0
7 PENABLE *2662:A0 0
8 *2434:A1 *2662:A0 6.99988e-05
9 *2436:C *2662:A0 9.58051e-05
10 *2437:A *2662:A0 4.25104e-05
11 *2662:A1 *2662:A0 4.66742e-05
12 *2662:S *2662:A0 8.49205e-05
13 *2760:A1 *2662:A0 0.000646112
14 *2760:B2 *2662:A0 1.08758e-05
15 *3263:A *2662:A0 0.000106285
16 *3266:A *2662:A0 0
17 *3269:A *2662:A0 0
18 *3311:A *2662:A0 0.000290488
19 *507:12 *2662:A0 0.000225387
20 *766:27 *2662:A0 0.000110422
21 *767:42 *2662:A0 0.000103974
*RES
1 *3270:X *2662:A0 32.07 
*END

*D_NET *990 0.00588064
*CONN
*I *2663:A0 I *D sky130_fd_sc_hd__mux2_1
*I *3271:X O *D sky130_fd_sc_hd__clkbuf_1
*CAP
1 *2663:A0 0.00200004
2 *3271:X 0.00200004
3 PADDR[0] *2663:A0 0.000437748
4 *3260:A *2663:A0 0.00013493
5 *3270:A *2663:A0 0.000293433
6 *3311:A *2663:A0 0.000929522
7 *970:26 *2663:A0 8.49205e-05
*RES
1 *3271:X *2663:A0 48.45 
*END

*D_NET *991 0.00656755
*CONN
*I *2713:A I *D sky130_fd_sc_hd__and3_1
*I *2705:A1 I *D sky130_fd_sc_hd__o21ai_1
*I *2712:A1 I *D sky130_fd_sc_hd__a21oi_1
*I *2731:A1 I *D sky130_fd_sc_hd__o21ai_1
*I *2707:A I *D sky130_fd_sc_hd__xor2_1
*I *3272:X O *D sky130_fd_sc_hd__dlymetal6s2s_1
*CAP
1 *2713:A 9.73191e-06
2 *2705:A1 0.00107204
3 *2712:A1 0
4 *2731:A1 0.000234999
5 *2707:A 5.52483e-05
6 *3272:X 0.000109951
7 *991:16 0.000382677
8 *991:14 0.00020836
9 *991:8 0.00130766
10 *2705:A1 *2721:A 0.000283866
11 *2705:A1 *993:12 7.9642e-06
12 *2705:A1 *996:16 0.000252282
13 *2707:A *992:27 0.000231503
14 *2713:A *2712:B1 4.82863e-05
15 *991:8 *993:12 0.000180699
16 *991:14 *2713:B 1.7386e-05
17 *991:16 *2713:B 1.33293e-05
18 *991:16 *992:27 0.000423637
19 *2443:A *2731:A1 0.000110535
20 *2443:B *2731:A1 1.79536e-05
21 *2683:B2 *2707:A 0.000246778
22 *2683:B2 *991:16 0.000411085
23 *2714:A *2713:A 4.82863e-05
24 *2731:A2 *2731:A1 6.73908e-05
25 *2732:A1 *2731:A1 2.09966e-05
26 *2736:B1 *2731:A1 0
27 *2736:B2 *2731:A1 5.81236e-05
28 *2740:A3 *2705:A1 4.25242e-05
29 *2742:B2 *2731:A1 2.51977e-05
30 *2787:CLK *2705:A1 2.56156e-05
31 *3347:A *2705:A1 0
32 *3347:A *2731:A1 0
33 *3347:A *991:8 0
34 *481:14 *2731:A1 0
35 *722:75 *2731:A1 8.18333e-06
36 *786:10 *2705:A1 0.000120562
37 *956:8 *2705:A1 3.05295e-05
38 *956:10 *2705:A1 0.00011398
39 *957:18 *2731:A1 0
40 *957:54 *2705:A1 0.000380189
*RES
1 *3272:X *991:8 6 
2 *991:8 *991:14 3.59 
3 *991:14 *991:16 4.245 
4 *991:16 *2707:A 4.135 
5 *991:16 *2731:A1 10.1713 
6 *991:14 *2712:A1 1.6 
7 *991:8 *2705:A1 23.125 
8 *991:8 *2713:A 4.05 
*END

*D_NET *992 0.00574429
*CONN
*I *2713:B I *D sky130_fd_sc_hd__and3_1
*I *2712:A2 I *D sky130_fd_sc_hd__a21oi_1
*I *2707:B I *D sky130_fd_sc_hd__xor2_1
*I *3273:X O *D sky130_fd_sc_hd__clkbuf_1
*CAP
1 *2713:B 0.000216852
2 *2712:A2 0
3 *2707:B 0
4 *3273:X 0.00158088
5 *992:27 0.000505117
6 *992:16 0.00186915
7 *992:16 *2647:A0 0.000159099
8 *992:16 *2656:A0 0.000197271
9 *2647:A1 *992:16 0.000142925
10 *2647:S *992:16 0.000111892
11 *2656:S *992:16 7.35813e-05
12 *2683:B2 *992:16 9.5099e-05
13 *2683:B2 *992:27 1.12578e-05
14 *2707:A *992:27 0.000231503
15 *2714:A *2713:B 6.86553e-05
16 *2725:B *992:16 2.66586e-05
17 *74:9 *992:16 0
18 *991:14 *2713:B 1.7386e-05
19 *991:16 *2713:B 1.33293e-05
20 *991:16 *992:27 0.000423637
*RES
1 *3273:X *992:16 26.27 
2 *992:16 *2707:B 1.6 
3 *992:16 *992:27 6.78 
4 *992:27 *2712:A2 1.6 
5 *992:27 *2713:B 4.645 
*END

*D_NET *993 0.0015509
*CONN
*I *2713:C I *D sky130_fd_sc_hd__and3_1
*I *2712:B1 I *D sky130_fd_sc_hd__a21oi_1
*I *3274:X O *D sky130_fd_sc_hd__clkbuf_1
*CAP
1 *2713:C 5.05207e-06
2 *2712:B1 0.000107422
3 *3274:X 0.00025143
4 *993:12 0.000363904
5 *993:12 *3235:A 0.000393029
6 *993:12 *1018:12 4.82919e-05
7 *2705:A1 *993:12 7.9642e-06
8 *2713:A *2712:B1 4.82863e-05
9 *2714:A *2712:B1 3.7712e-05
10 *2714:A *2713:C 1.70906e-05
11 *2740:A3 *993:12 7.23768e-05
12 *709:8 *2712:B1 1.76403e-05
13 *991:8 *993:12 0.000180699
*RES
1 *3274:X *993:12 11.3 
2 *993:12 *2712:B1 3.46 
3 *993:12 *2713:C 1.765 
*END

*D_NET *994 0.0058333
*CONN
*I *2655:A1 I *D sky130_fd_sc_hd__mux2_1
*I *3275:X O *D sky130_fd_sc_hd__clkbuf_1
*CAP
1 *2655:A1 0.00230928
2 *3275:X 0.00230928
3 *2561:B1 *2655:A1 3.00381e-05
4 *2561:B2 *2655:A1 0.000109377
5 *2562:A1 *2655:A1 8.79352e-05
6 *2562:A2 *2655:A1 0.000124413
7 *2562:B1 *2655:A1 1.65553e-05
8 *2562:B2 *2655:A1 1.12643e-05
9 *2562:C1 *2655:A1 0.000138696
10 *2570:B1 *2655:A1 3.1562e-06
11 *2593:A *2655:A1 1.83756e-05
12 *2593:B *2655:A1 0.000128537
13 *2655:S *2655:A1 4.40253e-05
14 *2819:D *2655:A1 4.60836e-05
15 *2819:GATE_N *2655:A1 3.03684e-05
16 *2936:GATE_N *2655:A1 0.000119762
17 *932:49 *2655:A1 0.000306161
*RES
1 *3275:X *2655:A1 32.375 
*END

*D_NET *995 0.00124862
*CONN
*I *2721:A I *D sky130_fd_sc_hd__xnor2_1
*I *3276:X O *D sky130_fd_sc_hd__clkbuf_1
*CAP
1 *2721:A 0.000280199
2 *3276:X 0.000280199
3 *2432:B *2721:A 4.66108e-05
4 *2705:A1 *2721:A 0.000283866
5 *2738:B *2721:A 6.56307e-05
6 *2738:C *2721:A 0.000111158
7 *2787:CLK *2721:A 2.61299e-05
8 *3365:A *2721:A 9.10527e-05
9 *957:54 *2721:A 4.99619e-05
10 *957:77 *2721:A 1.38088e-05
11 *968:24 *2721:A 0
12 *981:18 *2721:A 0
*RES
1 *3276:X *2721:A 14.04 
*END

*D_NET *996 0.00363759
*CONN
*I *2675:A I *D sky130_fd_sc_hd__nand2_2
*I *2380:A I *D sky130_fd_sc_hd__inv_2
*I *3277:X O *D sky130_fd_sc_hd__buf_1
*CAP
1 *2675:A 2.69061e-05
2 *2380:A 0.000335007
3 *3277:X 0.000558299
4 *996:16 0.000920212
5 *2380:A *3363:A 3.45588e-05
6 *2380:A *1047:82 0.000294406
7 *2380:A *1048:35 1.34594e-05
8 *2675:A *1047:82 5.37018e-05
9 *996:16 *3235:A 0
10 *996:16 *1012:16 0
11 *996:16 *1047:82 1.6418e-05
12 *2705:A1 *996:16 0.000252282
13 *2709:A2 *996:16 0.000135531
14 *2790:CLK *996:16 9.14035e-05
15 *2790:D *996:16 7.06865e-05
16 *868:20 *996:16 0.000586732
17 *956:8 *996:16 2.37321e-05
18 *956:10 *996:16 1.94636e-05
19 *956:12 *996:16 7.24866e-05
20 *973:8 *2380:A 4.99619e-05
21 *981:18 *996:16 8.23457e-05
*RES
1 *3277:X *996:16 18.215 
2 *996:16 *2380:A 8.275 
3 *996:16 *2675:A 2.41 
*END

*D_NET *997 0.00442177
*CONN
*I *2672:A I *D sky130_fd_sc_hd__nand2_1
*I *2679:A I *D sky130_fd_sc_hd__nand2_1
*I *3278:X O *D sky130_fd_sc_hd__buf_1
*CAP
1 *2672:A 0.000273165
2 *2679:A 0
3 *3278:X 0.000877953
4 *997:20 0.00115112
5 *2672:A *3323:A 6.81984e-05
6 *2672:A *1050:25 3.09164e-05
7 *2381:A *997:20 6.61627e-05
8 *2439:B *2672:A 8.26614e-05
9 *2445:A *2672:A 0.000280187
10 *2445:B *2672:A 0.0002257
11 *2671:A1 *2672:A 2.49909e-05
12 *2671:A1 *997:20 3.47174e-05
13 *2679:B *997:20 4.82919e-05
14 *2680:C *997:20 4.99619e-05
15 *2693:B *997:20 7.63204e-05
16 *2710:B1 *997:20 0
17 *2711:S *997:20 8.40285e-05
18 *2717:A1 *997:20 0
19 *2717:A2 *997:20 0
20 *2719:A0 *997:20 4.82919e-05
21 *2749:A4 *997:20 1.23331e-05
22 *2749:B1 *997:20 9.5055e-05
23 *2757:B2 *2672:A 2.29156e-05
24 *3178:A *2672:A 0
25 *503:16 *2672:A 5.02126e-06
26 *504:12 *997:20 0.000137578
27 *696:28 *997:20 9.50342e-06
28 *701:60 *997:20 0.00011067
29 *787:14 *997:20 0.000268005
30 *891:84 *997:20 4.62396e-05
31 *891:110 *997:20 0
32 *950:94 *997:20 3.31204e-05
33 *954:38 *997:20 2.59934e-06
34 *982:27 *2672:A 0.000256066
*RES
1 *3278:X *997:20 22.85 
2 *997:20 *2679:A 1.6 
3 *997:20 *2672:A 13.205 
*END

*D_NET *998 0.0071192
*CONN
*I *3235:A I *D sky130_fd_sc_hd__clkbuf_4
*I *3234:A I *D sky130_fd_sc_hd__clkbuf_4
*I *3279:X O *D sky130_fd_sc_hd__buf_1
*CAP
1 *3235:A 0.00113497
2 *3234:A 0.000100616
3 *3279:X 0.0004015
4 *998:10 0.00163709
5 *3234:A *2647:A0 0
6 *3235:A *2647:A0 0.000188063
7 *3235:A *2656:A0 0.000157343
8 *3235:A *1012:16 0
9 *998:10 *2644:A0 0.000174969
10 *998:10 *2644:A1 0.000163199
11 *998:10 *2647:A0 0.000353049
12 *998:10 *2656:A1 0.000259862
13 *2709:A2 *3235:A 0
14 *2709:B1 *3235:A 0.000463956
15 *3299:A *3235:A 4.99619e-05
16 *3318:A *3234:A 0.000178314
17 *3320:A *3235:A 0.000136276
18 *3320:A *998:10 0.000543529
19 *3347:A *3235:A 0.000157959
20 *968:24 *3235:A 0
21 *981:18 *3235:A 0.000625521
22 *993:12 *3235:A 0.000393029
23 *996:16 *3235:A 0
*RES
1 *3279:X *998:10 14.245 
2 *998:10 *3234:A 7.745 
3 *998:10 *3235:A 31.805 
*END

*D_NET *999 0.00116137
*CONN
*I *2379:A I *D sky130_fd_sc_hd__inv_2
*I *3280:X O *D sky130_fd_sc_hd__clkbuf_1
*CAP
1 *2379:A 0.000280208
2 *3280:X 0.000280208
3 *2379:A *2647:A0 0.000349581
4 *2379:A *2656:A0 0.000114492
5 *3318:A *2379:A 0.000136877
6 *3320:A *2379:A 0
*RES
1 *3280:X *2379:A 12.045 
*END

*D_NET *1000 0.000739124
*CONN
*I *2643:A0 I *D sky130_fd_sc_hd__mux2_1
*I *3281:X O *D sky130_fd_sc_hd__clkbuf_1
*CAP
1 *2643:A0 8.31688e-05
2 *3281:X 8.31688e-05
3 *2643:A0 *3353:A 0.000275548
4 *3247:A *2643:A0 0.000275548
5 *3281:A *2643:A0 2.16917e-05
*RES
1 *3281:X *2643:A0 6.425 
*END

*D_NET *1001 0.00124631
*CONN
*I *2653:A0 I *D sky130_fd_sc_hd__mux2_1
*I *3282:X O *D sky130_fd_sc_hd__clkbuf_1
*CAP
1 *2653:A0 0.000275365
2 *3282:X 0.000275365
3 *2653:A0 *2657:A0 0.000138551
4 *2653:A0 *2657:A1 2.32724e-05
5 *2454:A1 *2653:A0 0.000157221
6 *2454:B2 *2653:A0 0.000328598
7 *2643:A1 *2653:A0 3.00381e-05
8 *2653:A1 *2653:A0 1.7902e-05
9 *381:18 *2653:A0 0
*RES
1 *3282:X *2653:A0 13.62 
*END

*D_NET *1002 0.00124301
*CONN
*I *2654:A0 I *D sky130_fd_sc_hd__mux2_1
*I *3283:X O *D sky130_fd_sc_hd__clkbuf_1
*CAP
1 *2654:A0 0.000296845
2 *3283:X 0.000296845
3 *2654:A0 *2646:A0 0.000161458
4 *2475:A1 *2654:A0 9.28053e-05
5 *2475:A2 *2654:A0 0
6 *2475:B1 *2654:A0 0.000335863
7 *2654:A1 *2654:A0 0
8 *3151:A *2654:A0 3.63701e-06
9 *385:8 *2654:A0 5.55528e-05
*RES
1 *3283:X *2654:A0 13.965 
*END

*D_NET *1003 0.00465763
*CONN
*I *2655:A0 I *D sky130_fd_sc_hd__mux2_1
*I *3284:X O *D sky130_fd_sc_hd__clkbuf_1
*CAP
1 *2655:A0 0.000977991
2 *3284:X 0.000977991
3 *2655:A0 *2652:A0 0
4 *2550:A1 *2655:A0 0
5 *2550:A2 *2655:A0 5.82102e-05
6 *2572:A1 *2655:A0 0.000134245
7 *2573:A2 *2655:A0 0.00013521
8 *2639:B *2655:A0 0.000820425
9 *2803:D *2655:A0 2.46007e-05
10 *2841:GATE_N *2655:A0 0
11 *391:12 *2655:A0 7.3664e-05
12 *551:40 *2655:A0 4.82863e-05
13 *859:14 *2655:A0 0.000479443
14 *884:34 *2655:A0 0.000356395
15 *898:118 *2655:A0 7.42982e-05
16 *911:72 *2655:A0 0
17 *932:49 *2655:A0 4.82863e-05
18 *932:70 *2655:A0 0.000448585
*RES
1 *3284:X *2655:A0 30.855 
*END

*D_NET *1004 0.00234303
*CONN
*I *2656:A0 I *D sky130_fd_sc_hd__mux2_1
*I *3285:X O *D sky130_fd_sc_hd__clkbuf_1
*CAP
1 *2656:A0 0.000575548
2 *3285:X 0.000575548
3 *2656:A0 *2647:A0 0.000366383
4 *2379:A *2656:A0 0.000114492
5 *2725:B *2656:A0 3.00381e-05
6 *3165:A *2656:A0 0.000124895
7 *3235:A *2656:A0 0.000157343
8 *3320:A *2656:A0 0
9 *955:10 *2656:A0 0.000201508
10 *992:16 *2656:A0 0.000197271
*RES
1 *3285:X *2656:A0 19.17 
*END

*D_NET *1005 0.00439912
*CONN
*I *2656:A1 I *D sky130_fd_sc_hd__mux2_1
*I *3286:X O *D sky130_fd_sc_hd__clkbuf_1
*CAP
1 *2656:A1 0.00140366
2 *3286:X 0.00140366
3 *2656:A1 *2644:A0 0
4 *2656:A1 *2647:A0 0
5 wready *2656:A1 4.99619e-05
6 *2647:A1 *2656:A1 0.000935414
7 *3279:A *2656:A1 8.65961e-05
8 *3289:A *2656:A1 1.0183e-05
9 *3319:A *2656:A1 0.000124895
10 *3320:A *2656:A1 0.000124895
11 *998:10 *2656:A1 0.000259862
*RES
1 *3286:X *2656:A1 33.9 
*END

*D_NET *1006 0.00116883
*CONN
*I *2657:A0 I *D sky130_fd_sc_hd__mux2_1
*I *3287:X O *D sky130_fd_sc_hd__clkbuf_1
*CAP
1 *2657:A0 0.000205214
2 *3287:X 0.000205214
3 *2643:A1 *2657:A0 0.000394699
4 *2653:A0 *2657:A0 0.000138551
5 *2653:A1 *2657:A0 0.00022515
*RES
1 *3287:X *2657:A0 12.645 
*END

*D_NET *1007 0.00678346
*CONN
*I *2658:A0 I *D sky130_fd_sc_hd__mux2_1
*I *3288:X O *D sky130_fd_sc_hd__clkbuf_1
*CAP
1 *2658:A0 0.00165124
2 *3288:X 0.00165124
3 *2658:A0 *2649:A0 0
4 *2562:A1 *2658:A0 9.21068e-05
5 *2570:B1 *2658:A0 1.34361e-05
6 *2642:B *2658:A0 0.000559102
7 *2648:A1 *2658:A0 0.000165334
8 *2651:A1 *2658:A0 6.90876e-05
9 *2655:S *2658:A0 0.000143109
10 *2793:D *2658:A0 0.000108257
11 *3315:A *2658:A0 0.000410267
12 *884:20 *2658:A0 0.000929875
13 *884:24 *2658:A0 0.000806673
14 *888:86 *2658:A0 0.000183738
*RES
1 *3288:X *2658:A0 42.45 
*END

*D_NET *1008 0.00134312
*CONN
*I *2644:A0 I *D sky130_fd_sc_hd__mux2_1
*I *3289:X O *D sky130_fd_sc_hd__clkbuf_1
*CAP
1 *2644:A0 0.000350672
2 *3289:X 0.000350672
3 *2644:A0 *2644:A1 0.000243532
4 *2656:A1 *2644:A0 0
5 *3098:A *2644:A0 8.57024e-05
6 *885:126 *2644:A0 0.000137571
7 *998:10 *2644:A0 0.000174969
*RES
1 *3289:X *2644:A0 13.425 
*END

*D_NET *1009 0.000766051
*CONN
*I *2645:A0 I *D sky130_fd_sc_hd__mux2_1
*I *3290:X O *D sky130_fd_sc_hd__clkbuf_1
*CAP
1 *2645:A0 0.000296716
2 *3290:X 0.000296716
3 *2645:A0 *2645:A1 0
4 *2556:A1 *2645:A0 2.65814e-06
5 *2645:S *2645:A0 3.07153e-05
6 *3070:GATE_N *2645:A0 0.000139245
*RES
1 *3290:X *2645:A0 12.195 
*END

*D_NET *1010 0.00163258
*CONN
*I *2646:A0 I *D sky130_fd_sc_hd__mux2_1
*I *3291:X O *D sky130_fd_sc_hd__clkbuf_1
*CAP
1 *2646:A0 0.000288505
2 *3291:X 0.000288505
3 *2475:A1 *2646:A0 5.04265e-05
4 *2475:A2 *2646:A0 0.000157714
5 *2643:A1 *2646:A0 0.000318091
6 *2646:A1 *2646:A0 0
7 *2654:A0 *2646:A0 0.000161458
8 *2654:A1 *2646:A0 4.99619e-05
9 *2896:D *2646:A0 0.00015896
10 *3172:A *2646:A0 0.00015896
*RES
1 *3291:X *2646:A0 15.225 
*END

*D_NET *1011 0.00255688
*CONN
*I *2647:A0 I *D sky130_fd_sc_hd__mux2_1
*I *3292:X O *D sky130_fd_sc_hd__clkbuf_1
*CAP
1 *2647:A0 0.000395891
2 *3292:X 0.000395891
3 *2379:A *2647:A0 0.000349581
4 *2647:S *2647:A0 0.000119756
5 *2656:A0 *2647:A0 0.000366383
6 *2656:A1 *2647:A0 0
7 *2656:S *2647:A0 0.000114024
8 *3165:A *2647:A0 0.000115146
9 *3234:A *2647:A0 0
10 *3235:A *2647:A0 0.000188063
11 *992:16 *2647:A0 0.000159099
12 *998:10 *2647:A0 0.000353049
*RES
1 *3292:X *2647:A0 19.65 
*END

*D_NET *1012 0.0114368
*CONN
*I *2648:A0 I *D sky130_fd_sc_hd__mux2_1
*I *3293:X O *D sky130_fd_sc_hd__buf_1
*CAP
1 *2648:A0 0.00067623
2 *3293:X 0.001942
3 *1012:16 0.00261823
4 *1012:16 *1048:31 3.78024e-05
5 *2409:A *1012:16 7.45694e-05
6 *2419:B *1012:16 0.000224599
7 *2426:A *1012:16 5.49123e-05
8 *2450:A_N *1012:16 0
9 *2497:B2 *1012:16 6.70585e-05
10 *2498:A1 *1012:16 0
11 *2509:C1 *1012:16 2.10433e-05
12 *2515:B2 *2648:A0 0.00153227
13 *2648:A1 *2648:A0 6.11552e-05
14 *2680:B *1012:16 0.000552464
15 *2681:C *1012:16 0.000390542
16 *2689:C1 *1012:16 0.000148129
17 *2704:B2 *1012:16 0.000116158
18 *2706:S *1012:16 0.000171994
19 *2723:B1 *1012:16 8.08153e-06
20 *2785:D *1012:16 0
21 *2786:RESET_B *1012:16 0.000117825
22 *3042:D *1012:16 0.000208446
23 *3075:GATE_N *2648:A0 0
24 *3109:A *1012:16 0.000391627
25 *3110:A *1012:16 0
26 *3112:A *1012:16 5.42646e-05
27 *3113:A *1012:16 5.92191e-05
28 *3162:A *2648:A0 8.41703e-06
29 *3235:A *1012:16 0
30 *3358:A *1012:16 0
31 *3359:A *1012:16 0
32 *3364:A *1012:16 6.53193e-05
33 *501:17 *1012:16 0
34 *502:55 *1012:16 9.26702e-05
35 *508:18 *1012:16 6.83447e-05
36 *561:14 *2648:A0 0
37 *679:16 *1012:16 0.000134685
38 *701:12 *1012:16 0.000172402
39 *776:8 *1012:16 0
40 *786:10 *1012:16 0.000203769
41 *808:54 *2648:A0 0.000365055
42 *841:21 *1012:16 0.000119094
43 *883:32 *1012:16 2.75538e-05
44 *915:27 *1012:16 0.000283909
45 *915:33 *1012:16 0.000220863
46 *915:48 *1012:16 0
47 *956:8 *1012:16 0
48 *956:10 *1012:16 0
49 *956:26 *1012:16 9.78012e-05
50 *968:24 *1012:16 0
51 *981:18 *1012:16 4.82919e-05
52 *996:16 *1012:16 0
*RES
1 *3293:X *1012:16 47.6675 
2 *1012:16 *2648:A0 6.70117 
*END

*D_NET *1013 0.00802821
*CONN
*I *2649:A0 I *D sky130_fd_sc_hd__mux2_1
*I *3294:X O *D sky130_fd_sc_hd__clkbuf_1
*CAP
1 *2649:A0 0.00179579
2 *3294:X 0.00179579
3 *2474:B1 *2649:A0 9.14157e-05
4 *2570:A1 *2649:A0 5.65627e-05
5 *2629:B *2649:A0 0.000428869
6 *2634:B *2649:A0 0.000293719
7 *2635:B *2649:A0 0.000140905
8 *2649:S *2649:A0 2.68526e-05
9 *2658:A0 *2649:A0 0
10 *2798:D *2649:A0 0.00113113
11 *2799:D *2649:A0 0.000136881
12 *3313:A *2649:A0 3.32976e-05
13 *3315:A *2649:A0 0
14 *521:18 *2649:A0 0.000989603
15 *671:26 *2649:A0 1.93834e-05
16 *880:38 *2649:A0 9.14354e-05
17 *885:36 *2649:A0 5.00612e-05
18 *888:19 *2649:A0 0.000214391
19 *888:21 *2649:A0 1.61461e-05
20 *932:22 *2649:A0 0
21 *932:119 *2649:A0 2.71435e-05
22 *932:134 *2649:A0 0.000688837
*RES
1 *3294:X *2649:A0 47.865 
*END

*D_NET *1014 0.000863152
*CONN
*I *2650:A0 I *D sky130_fd_sc_hd__mux2_1
*I *3295:X O *D sky130_fd_sc_hd__clkbuf_1
*CAP
1 *2650:A0 0.000202564
2 *3295:X 0.000202564
3 *2650:A0 *3353:A 0
4 *2643:A1 *2650:A0 0.000279787
5 *2643:S *2650:A0 8.09021e-06
6 *2646:A1 *2650:A0 0
7 *2650:A1 *2650:A0 0.000120186
8 *376:10 *2650:A0 4.99619e-05
*RES
1 *3295:X *2650:A0 11.61 
*END

*D_NET *1015 0.000594887
*CONN
*I *2651:A0 I *D sky130_fd_sc_hd__mux2_1
*I *3296:X O *D sky130_fd_sc_hd__clkbuf_1
*CAP
1 *2651:A0 0.000170456
2 *3296:X 0.000170456
3 *3288:A *2651:A0 0.000163204
4 *884:34 *2651:A0 9.07709e-05
*RES
1 *3296:X *2651:A0 6.425 
*END

*D_NET *1016 0.0130138
*CONN
*I *2657:A1 I *D sky130_fd_sc_hd__mux2_1
*I *3297:X O *D sky130_fd_sc_hd__buf_1
*CAP
1 *2657:A1 0.0052369
2 *3297:X 0.0052369
3 PWDATA[2] *2657:A1 4.11964e-05
4 PWDATA[5] *2657:A1 0.000361685
5 rdata[11] *2657:A1 0
6 rdata[14] *2657:A1 0.000189377
7 *2460:B2 *2657:A1 0
8 *2482:B2 *2657:A1 0
9 *2639:A *2657:A1 0
10 *2648:A1 *2657:A1 0.00135609
11 *2653:A0 *2657:A1 2.32724e-05
12 *3024:GATE_N *2657:A1 8.63479e-05
13 *3248:A *2657:A1 0
14 *3297:A *2657:A1 0.000278463
15 *384:14 *2657:A1 0.000110089
16 *873:50 *2657:A1 9.35204e-05
*RES
1 *3297:X *2657:A1 27.2882 
*END

*D_NET *1017 0.00119452
*CONN
*I *2652:A0 I *D sky130_fd_sc_hd__mux2_1
*I *3298:X O *D sky130_fd_sc_hd__clkbuf_1
*CAP
1 *2652:A0 0.000234714
2 *3298:X 0.000234714
3 *2655:A0 *2652:A0 0
4 *2830:GATE_N *2652:A0 0.000107657
5 *874:20 *2652:A0 0.000308719
6 *881:79 *2652:A0 0.000308719
*RES
1 *3298:X *2652:A0 13.23 
*END

*D_NET *1018 0.00381465
*CONN
*I *2687:A I *D sky130_fd_sc_hd__or4_1
*I *2690:A1 I *D sky130_fd_sc_hd__o31ai_1
*I *3299:X O *D sky130_fd_sc_hd__clkbuf_1
*CAP
1 *2687:A 7.08675e-06
2 *2690:A1 0.000171036
3 *3299:X 0.00103725
4 *1018:12 0.00121538
5 *1018:12 *2745:B1 0.000137571
6 *2378:A *1018:12 0
7 *2683:A1 *1018:12 0
8 *2685:A *1018:12 0
9 *2687:B *1018:12 6.86387e-05
10 *2687:C *2687:A 4.82919e-05
11 *2687:C *2690:A1 4.66108e-05
12 *2687:D *2690:A1 0.000106504
13 *2697:D_N *1018:12 0
14 *2709:B1 *1018:12 0
15 *2715:A *1018:12 6.97124e-05
16 *2740:A3 *1018:12 0
17 *2740:B1 *1018:12 0.000455453
18 *2740:B2 *1018:12 0
19 *2762:B1 *2690:A1 1.33285e-05
20 *472:14 *1018:12 9.71067e-05
21 *691:20 *2690:A1 8.59955e-05
22 *891:23 *1018:12 0
23 *891:32 *1018:12 0
24 *931:34 *2690:A1 7.22354e-05
25 *953:8 *2687:A 3.83041e-05
26 *953:8 *2690:A1 4.82919e-05
27 *957:54 *1018:12 4.75576e-05
28 *993:12 *1018:12 4.82919e-05
*RES
1 *3299:X *1018:12 24.005 
2 *1018:12 *2690:A1 5.635 
3 *1018:12 *2687:A 2.05 
*END

*D_NET *1019 0.0130205
*CONN
*I *2689:A1 I *D sky130_fd_sc_hd__o311a_1
*I *2684:A1 I *D sky130_fd_sc_hd__o311a_1
*I *2699:A1 I *D sky130_fd_sc_hd__a21o_1
*I *3300:X O *D sky130_fd_sc_hd__buf_1
*CAP
1 *2689:A1 0.000236015
2 *2684:A1 2.01474e-05
3 *2699:A1 0.000299845
4 *3300:X 0.00395001
5 *1019:14 0.000319993
6 *1019:12 0.00418602
7 *2426:A *2689:A1 3.85204e-05
8 *2428:A *2699:A1 2.75145e-05
9 *2428:B *2699:A1 8.40213e-05
10 *2682:B *2699:A1 0.000134535
11 *2684:A2 *2699:A1 0.000124191
12 *2684:B1 *2684:A1 5.53249e-06
13 *2684:B1 *2689:A1 0.000670402
14 *2685:B *2684:A1 0
15 *2697:A *2689:A1 3.98864e-05
16 *2697:A *1019:12 0.000667692
17 *2763:A2 *1019:12 0
18 *2783:RESET_B *2699:A1 0
19 *502:10 *2699:A1 0.000137571
20 *502:55 *2689:A1 3.85204e-05
21 *510:46 *1019:12 0.000751629
22 *675:37 *2689:A1 0.000709253
23 *675:37 *1019:12 0.000365674
24 *773:20 *2699:A1 3.94429e-05
25 *949:29 *1019:12 0.00015866
26 *953:10 *2684:A1 1.17701e-05
27 *953:10 *2699:A1 3.63701e-06
*RES
1 *3300:X *1019:12 31.0777 
2 *1019:12 *1019:14 0.5 
3 *1019:14 *2699:A1 9.0675 
4 *1019:14 *2684:A1 4.0875 
5 *1019:12 *2689:A1 5.73257 
*END

*D_NET *1020 0.0011568
*CONN
*I *3321:A I *D sky130_fd_sc_hd__buf_2
*I *2444:X O *D sky130_fd_sc_hd__and2_1
*CAP
1 *3321:A 0.000375366
2 *2444:X 0.000375366
3 *3321:A *3325:A 0
4 PSEL1 *3321:A 1.0183e-05
5 PSEL3 *3321:A 1.26626e-05
6 *2662:A0 *3321:A 6.83488e-05
7 *2760:A1 *3321:A 4.92206e-05
8 *3254:A *3321:A 0
9 *3311:A *3321:A 0.000265654
*RES
1 *2444:X *3321:A 12.795 
*END

*D_NET *1021 0.00323314
*CONN
*I *3322:A I *D sky130_fd_sc_hd__buf_2
*I *2445:X O *D sky130_fd_sc_hd__and2_1
*CAP
1 *3322:A 0.000679436
2 *2445:X 0.000679436
3 arready *3322:A 3.15882e-05
4 *2755:A2_N *3322:A 0.000531981
5 *2757:B1 *3322:A 7.23602e-05
6 *2757:B2 *3322:A 0.000344459
7 *2758:A_N *3322:A 0.00011852
8 *2758:B *3322:A 0.000245369
9 *2759:A1 *3322:A 0.00015858
10 *2760:A2 *3322:A 0.000279782
11 *115:22 *3322:A 4.94404e-05
12 *882:52 *3322:A 4.219e-05
*RES
1 *2445:X *3322:A 24.03 
*END

*D_NET *1022 0.00294579
*CONN
*I *3323:A I *D sky130_fd_sc_hd__buf_2
*I *2446:X O *D sky130_fd_sc_hd__and2_1
*CAP
1 *3323:A 0.000683629
2 *2446:X 0.000683629
3 *3323:A *3325:A 0.000245206
4 PADDR[2] *3323:A 0.000544868
5 *2439:B *3323:A 8.53113e-06
6 *2446:B *3323:A 0.000269521
7 *2672:A *3323:A 6.81984e-05
8 *2756:B *3323:A 0
9 *374:8 *3323:A 9.37731e-05
10 *374:27 *3323:A 0.000157602
11 *503:16 *3323:A 6.01984e-05
12 *505:6 *3323:A 4.66108e-05
13 *505:10 *3323:A 8.40269e-05
*RES
1 *2446:X *3323:A 23.59 
*END

*D_NET *1023 0.00175656
*CONN
*I *3324:A I *D sky130_fd_sc_hd__buf_2
*I *2439:X O *D sky130_fd_sc_hd__or2_1
*CAP
1 *3324:A 0.000331861
2 *2439:X 0.000331861
3 *3324:A *3326:A 9.30787e-05
4 *3324:A *3345:A 0.00037595
5 PSEL2 *3324:A 2.59835e-05
6 *2438:B *3324:A 0.000267846
7 *2662:A0 *3324:A 4.21973e-05
8 *2662:S *3324:A 0.0001947
9 *3178:A *3324:A 9.30787e-05
*RES
1 *2439:X *3324:A 15.255 
*END

*D_NET *1024 0.00394487
*CONN
*I *3325:A I *D sky130_fd_sc_hd__buf_6
*I *2434:Y O *D sky130_fd_sc_hd__a211oi_2
*CAP
1 *3325:A 0.000706814
2 *2434:Y 0.000706814
3 *3325:A *3327:A 0
4 PADDR[1] *3325:A 2.75229e-05
5 PADDR[2] *3325:A 0.000243104
6 PSEL1 *3325:A 4.82919e-05
7 *2436:A_N *3325:A 8.97486e-05
8 *2436:C *3325:A 1.10631e-05
9 *2446:B *3325:A 0.000203769
10 *2659:A0 *3325:A 7.4027e-05
11 *2659:A1 *3325:A 0.000198597
12 *2757:A1 *3325:A 3.78024e-05
13 *2759:B2 *3325:A 0.000193275
14 *2759:C1 *3325:A 5.12017e-06
15 *2760:A1 *3325:A 0
16 *2760:B1 *3325:A 0
17 *3092:D *3325:A 0.000449853
18 *3254:A *3325:A 1.58939e-05
19 *3321:A *3325:A 0
20 *3323:A *3325:A 0.000245206
21 *115:10 *3325:A 0.000139924
22 *116:57 *3325:A 6.56245e-05
23 *117:23 *3325:A 0.00022586
24 *374:8 *3325:A 9.34411e-05
25 *374:27 *3325:A 2.13396e-05
26 *507:24 *3325:A 0.000115464
27 *970:12 *3325:A 2.63122e-05
*RES
1 *2434:Y *3325:A 27.9 
*END

*D_NET *1025 0.000409225
*CONN
*I *3326:A I *D sky130_fd_sc_hd__buf_6
*I *2435:X O *D sky130_fd_sc_hd__and3b_1
*CAP
1 *3326:A 6.51939e-05
2 *2435:X 6.51939e-05
3 *2438:A *3326:A 0.000120962
4 *2438:B *3326:A 4.82863e-05
5 *3324:A *3326:A 9.30787e-05
6 *433:10 *3326:A 1.65105e-05
*RES
1 *2435:X *3326:A 9.285 
*END

*D_NET *1026 0.00272712
*CONN
*I *3327:A I *D sky130_fd_sc_hd__buf_6
*I *2436:X O *D sky130_fd_sc_hd__and3b_1
*CAP
1 *3327:A 0.00044258
2 *2436:X 0.00044258
3 PADDR[2] *3327:A 6.4422e-05
4 *2659:A1 *3327:A 0.0001654
5 *2662:A0 *3327:A 0.000607824
6 *2757:A1 *3327:A 0.000464203
7 *2760:A1 *3327:A 0.000290817
8 *2760:B1 *3327:A 0.000120186
9 *3092:D *3327:A 0.000123751
10 *3325:A *3327:A 0
11 *507:12 *3327:A 5.35969e-06
*RES
1 *2436:X *3327:A 21.825 
*END

*D_NET *1027 0.00133501
*CONN
*I *2658:A1 I *D sky130_fd_sc_hd__mux2_1
*I *3301:X O *D sky130_fd_sc_hd__clkbuf_1
*CAP
1 *2658:A1 0.000603041
2 *3301:X 0.000603041
3 *2658:A1 *3335:A 1.7386e-05
4 *2655:S *2658:A1 2.75229e-05
5 *2822:GATE_N *2658:A1 8.40213e-05
*RES
1 *3301:X *2658:A1 11.6 
*END

*D_NET *1028 0.00192011
*CONN
*I *3328:A I *D sky130_fd_sc_hd__buf_6
*I *2437:X O *D sky130_fd_sc_hd__and3_1
*CAP
1 *3328:A 0.000405589
2 *2437:X 0.000405589
3 *3328:A *3345:A 8.08439e-05
4 *2437:B *3328:A 9.50342e-06
5 *2660:S *3328:A 3.57768e-05
6 *2662:A1 *3328:A 0.000108974
7 *2663:A1 *3328:A 0.00043151
8 *2827:D *3328:A 0.000128445
9 *431:10 *3328:A 0
10 *766:10 *3328:A 0.000134531
11 *970:26 *3328:A 0.000179344
*RES
1 *2437:X *3328:A 19.575 
*END

*D_NET *1029 0.000757451
*CONN
*I *3329:A I *D sky130_fd_sc_hd__buf_2
*I *2807:Q O *D sky130_fd_sc_hd__dlxtn_1
*CAP
1 *3329:A 0.000206261
2 *2807:Q 0.000206261
3 rdata[11] *3329:A 0.000224502
4 *2638:B *3329:A 3.4222e-05
5 *2797:D *3329:A 7.28749e-05
6 *2797:GATE_N *3329:A 1.33293e-05
*RES
1 *2807:Q *3329:A 10.665 
*END

*D_NET *1030 0.000232868
*CONN
*I *3330:A I *D sky130_fd_sc_hd__buf_2
*I *2817:Q O *D sky130_fd_sc_hd__dlxtn_1
*CAP
1 *3330:A 7.01176e-05
2 *2817:Q 7.01176e-05
3 *3330:A *3355:A 0
4 PWDATA[10] *3330:A 4.05358e-05
5 *3310:A *3330:A 5.20968e-05
6 *987:10 *3330:A 0
*RES
1 *2817:Q *3330:A 8.835 
*END

*D_NET *1031 0.000382715
*CONN
*I *3331:A I *D sky130_fd_sc_hd__buf_2
*I *2818:Q O *D sky130_fd_sc_hd__dlxtn_1
*CAP
1 *3331:A 0.000111206
2 *2818:Q 0.000111206
3 *3331:A *3337:A 9.50342e-06
4 *3331:A *3350:A 1.1561e-05
5 *3331:A *3351:A 0
6 *3310:A *3331:A 0.000139238
*RES
1 *2818:Q *3331:A 9.285 
*END

*D_NET *1032 0.000217819
*CONN
*I *3332:A I *D sky130_fd_sc_hd__buf_2
*I *2819:Q O *D sky130_fd_sc_hd__dlxtn_1
*CAP
1 *3332:A 9.77426e-05
2 *2819:Q 9.77426e-05
3 *3332:A *3355:A 0
4 PWDATA[12] *3332:A 2.23342e-05
5 *987:10 *3332:A 0
*RES
1 *2819:Q *3332:A 8.835 
*END

*D_NET *1033 0.000364758
*CONN
*I *3333:A I *D sky130_fd_sc_hd__buf_2
*I *2820:Q O *D sky130_fd_sc_hd__dlxtn_1
*CAP
1 *3333:A 0.000146885
2 *2820:Q 0.000146885
3 PWDATA[13] *3333:A 1.17036e-05
4 *2662:A1 *3333:A 5.92849e-05
5 *987:10 *3333:A 0
*RES
1 *2820:Q *3333:A 9.63 
*END

*D_NET *1034 0.000138618
*CONN
*I *3334:A I *D sky130_fd_sc_hd__buf_2
*I *2821:Q O *D sky130_fd_sc_hd__dlxtn_1
*CAP
1 *3334:A 6.93091e-05
2 *2821:Q 6.93091e-05
*RES
1 *2821:Q *3334:A 4.265 
*END

*D_NET *1035 0.000582522
*CONN
*I *3335:A I *D sky130_fd_sc_hd__buf_2
*I *2822:Q O *D sky130_fd_sc_hd__dlxtn_1
*CAP
1 *3335:A 0.00019213
2 *2822:Q 0.00019213
3 *3335:A *3342:A 0.000120186
4 *3335:A *3355:A 0
5 PWDATA[15] *3335:A 6.06899e-05
6 *2658:A1 *3335:A 1.7386e-05
7 *987:10 *3335:A 0
*RES
1 *2822:Q *3335:A 11.07 
*END

*D_NET *1036 0.00031239
*CONN
*I *3336:A I *D sky130_fd_sc_hd__buf_2
*I *2808:Q O *D sky130_fd_sc_hd__dlxtn_1
*CAP
1 *3336:A 0.000118118
2 *2808:Q 0.000118118
3 PWDATA[1] *3336:A 3.86529e-05
4 *2662:A1 *3336:A 2.87867e-05
5 *3257:A *3336:A 8.7152e-06
6 *842:18 *3336:A 0
7 *987:10 *3336:A 0
*RES
1 *2808:Q *3336:A 9.285 
*END

*D_NET *1037 0.000260552
*CONN
*I *3337:A I *D sky130_fd_sc_hd__buf_2
*I *2809:Q O *D sky130_fd_sc_hd__dlxtn_1
*CAP
1 *3337:A 3.6995e-05
2 *2809:Q 3.6995e-05
3 *3337:A *3350:A 0.000117832
4 *3310:A *3337:A 5.92269e-05
5 *3331:A *3337:A 9.50342e-06
*RES
1 *2809:Q *3337:A 8.58 
*END

*D_NET *1038 0.000997405
*CONN
*I *2644:A1 I *D sky130_fd_sc_hd__mux2_1
*I *3302:X O *D sky130_fd_sc_hd__clkbuf_1
*CAP
1 *2644:A1 0.000276902
2 *3302:X 0.000276902
3 *2644:A0 *2644:A1 0.000243532
4 *885:115 *2644:A1 5.53249e-06
5 *885:126 *2644:A1 3.13381e-05
6 *998:10 *2644:A1 0.000163199
*RES
1 *3302:X *2644:A1 12.36 
*END

*D_NET *1039 0.000866426
*CONN
*I *3338:A I *D sky130_fd_sc_hd__buf_2
*I *2810:Q O *D sky130_fd_sc_hd__dlxtn_1
*CAP
1 *3338:A 0.000350086
2 *2810:Q 0.000350086
3 *3338:A *3343:A 0.000120186
4 PWDATA[14] *3338:A 1.22505e-05
5 PWDATA[3] *3338:A 3.38178e-05
6 *842:18 *3338:A 0
7 *987:10 *3338:A 0
*RES
1 *2810:Q *3338:A 13.11 
*END

*D_NET *1040 0.000130807
*CONN
*I *3339:A I *D sky130_fd_sc_hd__buf_2
*I *2811:Q O *D sky130_fd_sc_hd__dlxtn_1
*CAP
1 *3339:A 6.54036e-05
2 *2811:Q 6.54036e-05
*RES
1 *2811:Q *3339:A 4.265 
*END

*D_NET *1041 0.00740727
*CONN
*I *3340:A I *D sky130_fd_sc_hd__buf_2
*I *2812:Q O *D sky130_fd_sc_hd__dlxtn_1
*CAP
1 *3340:A 0
2 *2812:Q 0.00155296
3 *1041:16 0.00155296
4 *1041:16 *3350:A 0
5 *1041:16 *3355:A 0
6 PWDATA[0] *1041:16 4.92062e-05
7 *2461:A *1041:16 5.87405e-05
8 *2538:A *1041:16 0
9 *2805:D *1041:16 0.000164679
10 *2805:GATE_N *1041:16 0
11 *2809:D *1041:16 0.00011379
12 *2810:D *1041:16 0.000175848
13 *2813:GATE_N *1041:16 0.000187064
14 *2815:D *1041:16 7.89689e-05
15 *842:14 *1041:16 6.95335e-05
16 *842:18 *1041:16 0.00044596
17 *842:20 *1041:16 0.000195925
18 *842:22 *1041:16 0.000352768
19 *842:24 *1041:16 0.000355129
20 *842:26 *1041:16 0.000355129
21 *842:32 *1041:16 0.00015829
22 *842:36 *1041:16 0.00033517
23 *843:14 *1041:16 0.00048318
24 *843:16 *1041:16 8.78813e-05
25 *843:20 *1041:16 9.76522e-05
26 *886:30 *1041:16 0.000185109
27 *886:44 *1041:16 0
28 *886:46 *1041:16 0.00015001
29 *886:50 *1041:16 0.000201326
*RES
1 *2812:Q *1041:16 49.82 
2 *1041:16 *3340:A 1.6 
*END

*D_NET *1042 0.000133214
*CONN
*I *3341:A I *D sky130_fd_sc_hd__buf_2
*I *2813:Q O *D sky130_fd_sc_hd__dlxtn_1
*CAP
1 *3341:A 5.60528e-05
2 *2813:Q 5.60528e-05
3 *2649:A1 *3341:A 2.11084e-05
*RES
1 *2813:Q *3341:A 4.265 
*END

*D_NET *1043 0.000524836
*CONN
*I *3342:A I *D sky130_fd_sc_hd__buf_2
*I *2814:Q O *D sky130_fd_sc_hd__dlxtn_1
*CAP
1 *3342:A 0.000186693
2 *2814:Q 0.000186693
3 *3342:A *3355:A 0
4 PWDATA[7] *3342:A 3.12639e-05
5 *3246:A *3342:A 0
6 *3335:A *3342:A 0.000120186
7 *842:18 *3342:A 0
8 *987:10 *3342:A 0
*RES
1 *2814:Q *3342:A 10.875 
*END

*D_NET *1044 0.000527782
*CONN
*I *3343:A I *D sky130_fd_sc_hd__buf_2
*I *2815:Q O *D sky130_fd_sc_hd__dlxtn_1
*CAP
1 *3343:A 0.000179195
2 *2815:Q 0.000179195
3 PWDATA[8] *3343:A 4.92063e-05
4 *3338:A *3343:A 0.000120186
5 *842:18 *3343:A 0
6 *987:10 *3343:A 0
*RES
1 *2815:Q *3343:A 10.875 
*END

*D_NET *1045 0.000231796
*CONN
*I *3344:A I *D sky130_fd_sc_hd__buf_2
*I *2816:Q O *D sky130_fd_sc_hd__dlxtn_1
*CAP
1 *3344:A 7.27906e-05
2 *2816:Q 7.27906e-05
3 *3344:A *3351:A 0
4 *3344:A *3355:A 0
5 PWDATA[9] *3344:A 1.00941e-05
6 *3310:A *3344:A 7.61207e-05
*RES
1 *2816:Q *3344:A 8.835 
*END

*D_NET *1046 0.00233203
*CONN
*I *3345:A I *D sky130_fd_sc_hd__buf_8
*I *2438:X O *D sky130_fd_sc_hd__and2_4
*CAP
1 *3345:A 0.00053214
2 *2438:X 0.00053214
3 PSEL2 *3345:A 0.00013006
4 *2437:B *3345:A 3.79352e-05
5 *2438:B *3345:A 1.60203e-05
6 *3178:A *3345:A 0.00015806
7 *3324:A *3345:A 0.00037595
8 *3328:A *3345:A 8.08439e-05
9 *767:27 *3345:A 4.5783e-05
10 *970:12 *3345:A 2.23407e-05
11 *970:14 *3345:A 0.000160665
12 *970:16 *3345:A 0.000209179
13 *970:26 *3345:A 3.09164e-05
*RES
1 *2438:X *3345:A 17.43 
*END

*D_NET *1047 0.0140983
*CONN
*I *3176:A I *D sky130_fd_sc_hd__buf_8
*I *2759:A2 I *D sky130_fd_sc_hd__a221o_1
*I *3346:A I *D sky130_fd_sc_hd__buf_2
*I *2702:A1 I *D sky130_fd_sc_hd__o32a_1
*I *2745:B1 I *D sky130_fd_sc_hd__o21a_1
*I *2722:B2 I *D sky130_fd_sc_hd__a2bb2o_1
*I *2734:B1 I *D sky130_fd_sc_hd__o21ai_1
*I *2704:A2_N I *D sky130_fd_sc_hd__o2bb2a_1
*I *2427:Y O *D sky130_fd_sc_hd__inv_8
*CAP
1 *3176:A 0
2 *2759:A2 0.000540077
3 *3346:A 0
4 *2702:A1 0.000248258
5 *2745:B1 6.97551e-05
6 *2722:B2 0
7 *2734:B1 0.000335349
8 *2704:A2_N 3.38648e-05
9 *2427:Y 0
10 *1047:123 0.00105392
11 *1047:111 0.0013388
12 *1047:82 0.00141778
13 *1047:29 0.00034741
14 *1047:27 0.000224588
15 *1047:8 0.000369468
16 *1047:4 0.000537387
17 *1047:82 *1048:35 0.000427227
18 *2380:A *1047:82 0.000294406
19 *2659:A1 *2759:A2 8.08777e-06
20 *2668:C *1047:111 0.000112716
21 *2675:A *1047:82 5.37018e-05
22 *2694:C *2702:A1 1.16433e-05
23 *2702:A2 *2702:A1 4.82919e-05
24 *2703:B1 *2702:A1 0.000219968
25 *2704:A1_N *1047:8 1.94805e-05
26 *2704:A1_N *1047:27 2.16389e-05
27 *2704:B2 *2704:A2_N 4.82919e-05
28 *2705:A2 *1047:27 3.66286e-05
29 *2709:A1 *1047:111 0
30 *2709:A2 *1047:111 5.06382e-06
31 *2710:B2 *1047:123 5.78871e-05
32 *2710:C1 *1047:111 0.000353049
33 *2711:A1 *1047:111 0
34 *2711:A1 *1047:123 0
35 *2711:S *1047:111 0
36 *2711:S *1047:123 8.53113e-06
37 *2716:B *1047:111 9.54399e-05
38 *2718:A1 *1047:111 0
39 *2719:A0 *1047:111 0
40 *2719:A0 *1047:123 9.84554e-05
41 *2722:A1_N *1047:27 8.40269e-05
42 *2722:A2_N *2734:B1 7.23635e-05
43 *2722:A2_N *1047:27 8.65961e-05
44 *2722:A2_N *1047:29 4.66108e-05
45 *2723:A2 *2702:A1 4.94326e-05
46 *2723:A2 *1047:111 0.000152598
47 *2734:A2 *2734:B1 0.000157172
48 *2736:C1 *2734:B1 4.82863e-05
49 *2738:C *1047:27 4.1977e-05
50 *2740:A1 *2734:B1 2.75229e-05
51 *2740:A2 *2745:B1 2.75229e-05
52 *2740:A3 *2734:B1 5.85076e-05
53 *2740:B1 *2734:B1 1.07797e-05
54 *2744:B *2734:B1 0.000122325
55 *2744:B *1047:27 3.57349e-05
56 *2744:B *1047:29 3.57349e-05
57 *2745:A1 *1047:8 2.97004e-06
58 *2745:A1 *1047:27 3.57104e-05
59 *2746:A1_N *2734:B1 4.82919e-05
60 *2746:B2 *2734:B1 9.50342e-06
61 *2751:B2 *2759:A2 0.000116158
62 *2759:A1 *2759:A2 2.37587e-05
63 *2759:A1 *1047:123 6.21996e-05
64 *2759:B1 *2759:A2 0.000122331
65 *2759:B2 *2759:A2 0.000710667
66 *2759:B2 *1047:123 5.7327e-05
67 *2760:B2 *2759:A2 7.18883e-05
68 *2788:D *1047:111 0.000290459
69 *2789:D *1047:111 0.000150949
70 *2789:RESET_B *1047:111 0
71 *2790:CLK *1047:82 7.51897e-05
72 *2790:RESET_B *1047:82 0.000120655
73 *3233:A *2702:A1 4.66108e-05
74 *3238:A *1047:111 0.000233786
75 *3254:A *2759:A2 0.000309848
76 *3254:A *1047:123 9.78885e-05
77 *3267:A *2759:A2 3.66286e-05
78 *3267:A *1047:123 0.000118266
79 *3278:A *1047:123 1.93834e-05
80 *3358:A *1047:8 0
81 *3365:A *2734:B1 8.09753e-05
82 *501:17 *1047:8 0
83 *676:10 *2702:A1 5.98004e-06
84 *676:16 *2702:A1 9.3062e-06
85 *679:16 *1047:82 4.82919e-05
86 *716:10 *2734:B1 0.00013521
87 *730:6 *1047:27 0.000196376
88 *730:25 *2745:B1 0.000116853
89 *739:44 *2759:A2 1.26626e-05
90 *787:34 *1047:111 1.01152e-05
91 *787:38 *1047:111 6.33533e-05
92 *868:20 *2702:A1 5.56116e-05
93 *868:20 *1047:111 0.000117445
94 *882:8 *1047:111 8.65905e-05
95 *883:32 *1047:8 0
96 *891:23 *1047:8 0
97 *891:32 *2745:B1 7.21296e-06
98 *891:32 *1047:8 0
99 *891:72 *2702:A1 0.000137363
100 *950:80 *2702:A1 0.000155952
101 *968:40 *2734:B1 0.000276823
102 *979:10 *1047:111 0.000158689
103 *981:35 *1047:27 1.46744e-05
104 *996:16 *1047:82 1.6418e-05
105 *1018:12 *2745:B1 0.000137571
*RES
1 *2427:Y *1047:4 1.6 
2 *1047:4 *1047:8 5.165 
3 *1047:8 *2704:A2_N 4.05 
4 *1047:8 *1047:27 6.11 
5 *1047:27 *1047:29 0.45 
6 *1047:29 *2734:B1 13.94 
7 *1047:29 *2722:B2 1.6 
8 *1047:27 *2745:B1 7.685 
9 *1047:4 *1047:82 10.745 
10 *1047:82 *2702:A1 10.065 
11 *1047:82 *1047:111 24.285 
12 *1047:111 *1047:123 13.96 
13 *1047:123 *3346:A 1.6 
14 *1047:123 *2759:A2 18.215 
15 *1047:111 *3176:A 1.6 
*END

*D_NET *1048 0.00436979
*CONN
*I *2675:B I *D sky130_fd_sc_hd__nand2_2
*I *2700:A2_N I *D sky130_fd_sc_hd__o2bb2a_4
*I *3363:A I *D sky130_fd_sc_hd__clkbuf_2
*I *2702:A3 I *D sky130_fd_sc_hd__o32a_1
*I *2664:X O *D sky130_fd_sc_hd__and4bb_1
*CAP
1 *2675:B 1.84924e-05
2 *2700:A2_N 6.96645e-05
3 *3363:A 8.32371e-05
4 *2702:A3 5.53287e-05
5 *2664:X 0.000165199
6 *1048:35 0.000513617
7 *1048:31 0.000635346
8 *1048:10 0.000476666
9 *2380:A *3363:A 3.45588e-05
10 *2380:A *1048:35 1.34594e-05
11 *2449:B *1048:10 6.97256e-05
12 *2664:D *1048:10 7.9642e-06
13 *2680:A *1048:10 0.000113841
14 *2680:A *1048:31 0.000367262
15 *2689:C1 *1048:31 0.000136884
16 *2694:A *1048:10 8.09095e-05
17 *2695:A *1048:10 4.82919e-05
18 *2702:B1 *1048:31 1.7309e-05
19 *2702:B2 *2702:A3 5.83121e-06
20 *3103:A *1048:10 4.66108e-05
21 *3183:A *1048:31 0.0001947
22 *3233:A *2702:A3 1.19928e-05
23 *501:17 *2700:A2_N 0
24 *679:16 *1048:35 4.82919e-05
25 *701:12 *2675:B 4.14369e-05
26 *701:12 *1048:31 7.06865e-05
27 *868:20 *1048:31 0.000151223
28 *868:39 *1048:10 2.07211e-05
29 *891:23 *2700:A2_N 4.61744e-05
30 *891:72 *1048:31 1.07797e-05
31 *956:12 *2675:B 2.7881e-05
32 *956:12 *1048:31 5.38986e-06
33 *956:26 *1048:10 6.45713e-05
34 *956:26 *1048:31 0.000161263
35 *960:8 *1048:10 7.23602e-05
36 *982:75 *2700:A2_N 1.70935e-05
37 *1012:16 *1048:31 3.78024e-05
38 *1047:82 *1048:35 0.000427227
*RES
1 *2664:X *1048:10 7.98 
2 *1048:10 *2702:A3 4.41 
3 *1048:10 *1048:31 11.905 
4 *1048:31 *1048:35 6.935 
5 *1048:35 *3363:A 2.755 
6 *1048:35 *2700:A2_N 6.98 
7 *1048:31 *2675:B 4.215 
*END

*D_NET *1049 0.000483987
*CONN
*I *2645:A1 I *D sky130_fd_sc_hd__mux2_1
*I *3303:X O *D sky130_fd_sc_hd__clkbuf_1
*CAP
1 *2645:A1 0.000226975
2 *3303:X 0.000226975
3 *2643:A1 *2645:A1 3.00381e-05
4 *2645:A0 *2645:A1 0
5 *3024:GATE_N *2645:A1 0
6 *877:18 *2645:A1 0
*RES
1 *3303:X *2645:A1 10.56 
*END

*D_NET *1050 0.00785039
*CONN
*I *2672:B I *D sky130_fd_sc_hd__nand2_1
*I *2448:B I *D sky130_fd_sc_hd__or2_1
*I *3348:A I *D sky130_fd_sc_hd__buf_2
*I *3097:A I *D sky130_fd_sc_hd__clkbuf_1
*I *2824:D I *D sky130_fd_sc_hd__dlxtn_1
*I *2447:X O *D sky130_fd_sc_hd__and3b_1
*CAP
1 *2672:B 8.94586e-05
2 *2448:B 5.0551e-05
3 *3348:A 0.000339569
4 *3097:A 3.83895e-05
5 *2824:D 0.000199988
6 *2447:X 0.000399562
7 *1050:37 0.000772686
8 *1050:31 0.000743559
9 *1050:25 0.000492529
10 *1050:10 0.000704341
11 *3348:A *3349:A 0.000122337
12 bresp *3348:A 4.99619e-05
13 bvalid *3348:A 0.000238919
14 rdata[13] *3348:A 9.79198e-05
15 rdata[5] *3348:A 0.000122337
16 *2388:A *1050:10 1.83847e-05
17 *2439:B *1050:10 3.68596e-05
18 *2439:B *1050:25 4.8837e-05
19 *2445:B *2448:B 4.77719e-05
20 *2671:A1 *1050:31 0
21 *2672:A *1050:25 3.09164e-05
22 *2673:A *2672:B 0
23 *2673:B *2672:B 0
24 *2673:B *1050:31 2.49909e-05
25 *2679:B *1050:31 0
26 *2691:A *2824:D 0
27 *2691:B *1050:25 0.00011852
28 *2695:D_N *1050:31 3.64998e-06
29 *2750:A *1050:37 0.000203387
30 *2754:A *1050:37 3.98952e-05
31 *2754:B *1050:37 7.44375e-05
32 *2757:B2 *2448:B 4.66108e-05
33 *2757:B2 *1050:37 9.54469e-05
34 *2823:GATE_N *2672:B 1.34503e-05
35 *2824:GATE_N *1050:25 6.47594e-05
36 *3090:CLK *1050:37 0.00052287
37 *3090:RESET_B *3097:A 8.49205e-05
38 *3178:A *1050:10 0.000266952
39 *3180:A *1050:31 5.63318e-05
40 *3312:A *3348:A 0.000126199
41 *478:23 *2824:D 1.4399e-05
42 *478:36 *2824:D 1.71034e-05
43 *505:38 *2448:B 1.88904e-05
44 *505:38 *1050:31 8.5748e-05
45 *505:38 *1050:37 0.00014444
46 *672:43 *1050:31 0
47 *672:43 *1050:37 0
48 *677:6 *2672:B 4.47209e-05
49 *677:6 *1050:31 2.49909e-05
50 *738:12 *1050:10 0.000145678
51 *739:10 *1050:37 0.000114466
52 *772:56 *1050:37 0.000136877
53 *882:19 *3348:A 0.000157005
54 *882:19 *1050:37 9.57706e-05
55 *882:25 *1050:37 1.49369e-05
56 *885:26 *1050:10 3.83902e-05
57 *887:22 *1050:10 8.58339e-06
58 *891:110 *1050:37 0
59 *968:14 *3348:A 0.000181524
60 *982:27 *1050:10 4.95523e-05
61 *982:27 *1050:25 8.24494e-05
62 *982:27 *1050:31 8.75643e-05
*RES
1 *2447:X *1050:10 10.065 
2 *1050:10 *2824:D 6.045 
3 *1050:10 *1050:25 5.165 
4 *1050:25 *1050:31 7.1975 
5 *1050:31 *1050:37 12.7725 
6 *1050:37 *3097:A 4.395 
7 *1050:37 *3348:A 12.99 
8 *1050:31 *2448:B 4.7325 
9 *1050:25 *2672:B 3.1 
*END

*D_NET *1051 0.00149589
*CONN
*I *3349:A I *D sky130_fd_sc_hd__buf_2
*I *3097:X O *D sky130_fd_sc_hd__clkbuf_1
*CAP
1 *3349:A 0.00038208
2 *3097:X 0.00038208
3 *3349:A *3354:A 0.000124875
4 arready *3349:A 1.08194e-05
5 *3090:RESET_B *3349:A 0.000238231
6 *3267:A *3349:A 0.000113132
7 *3348:A *3349:A 0.000122337
8 *968:14 *3349:A 0.000122337
*RES
1 *3097:X *3349:A 14.19 
*END

*D_NET *1052 0.00204807
*CONN
*I *3350:A I *D sky130_fd_sc_hd__buf_2
*I *2791:Q O *D sky130_fd_sc_hd__dlxtn_1
*CAP
1 *3350:A 0.000380437
2 *2791:Q 0.000380437
3 *3350:A *3351:A 1.22676e-05
4 *3350:A *3355:A 8.65905e-05
5 PWDATA[2] *3350:A 0.000322555
6 rdata[0] *3350:A 0.000421068
7 rdata[10] *3350:A 3.03459e-05
8 rdata[14] *3350:A 0.000122432
9 *2648:A1 *3350:A 4.61701e-06
10 *2809:D *3350:A 6.58339e-05
11 *3310:A *3350:A 9.20926e-05
12 *3331:A *3350:A 1.1561e-05
13 *3337:A *3350:A 0.000117832
14 *1041:16 *3350:A 0
*RES
1 *2791:Q *3350:A 17.625 
*END

*D_NET *1053 0.000785893
*CONN
*I *3351:A I *D sky130_fd_sc_hd__buf_2
*I *2801:Q O *D sky130_fd_sc_hd__dlxtn_1
*CAP
1 *3351:A 0.000247797
2 *2801:Q 0.000247797
3 *3351:A *3355:A 0.000278031
4 *3310:A *3351:A 0
5 *3331:A *3351:A 0
6 *3344:A *3351:A 0
7 *3350:A *3351:A 1.22676e-05
*RES
1 *2801:Q *3351:A 12.915 
*END

*D_NET *1054 0.00282088
*CONN
*I *3352:A I *D sky130_fd_sc_hd__buf_2
*I *2802:Q O *D sky130_fd_sc_hd__dlxtn_1
*CAP
1 *3352:A 0.00051299
2 *2802:Q 0.00051299
3 PWDATA[0] *3352:A 0.000477899
4 PWDATA[5] *3352:A 0.000112123
5 rdata[10] *3352:A 0.000281532
6 rdata[11] *3352:A 0.000302471
7 *2461:A *3352:A 5.85534e-05
8 *2638:A *3352:A 4.82863e-05
9 *2638:B *3352:A 0.000155227
10 *2799:GATE_N *3352:A 2.49909e-05
11 *2802:D *3352:A 1.46828e-05
12 *2807:GATE_N *3352:A 0.000253014
13 *791:18 *3352:A 6.61178e-05
*RES
1 *2802:Q *3352:A 24.55 
*END

*D_NET *1055 0.00735818
*CONN
*I *3353:A I *D sky130_fd_sc_hd__buf_2
*I *2803:Q O *D sky130_fd_sc_hd__dlxtn_1
*CAP
1 *3353:A 0.00258884
2 *2803:Q 0.00258884
3 *2452:A1 *3353:A 8.8266e-05
4 *2643:A0 *3353:A 0.000275548
5 *2643:A1 *3353:A 0.000883212
6 *2643:S *3353:A 0
7 *2650:A0 *3353:A 0
8 *2652:S *3353:A 0
9 *2830:D *3353:A 0
10 *3247:A *3353:A 6.65725e-05
11 *3249:A *3353:A 2.10433e-05
12 *3253:A *3353:A 2.75229e-05
13 *3264:A *3353:A 2.75229e-05
14 *3281:A *3353:A 1.37895e-05
15 *3282:A *3353:A 7.35813e-05
16 *3283:A *3353:A 2.75229e-05
17 *3287:A *3353:A 4.82919e-05
18 *3290:A *3353:A 4.82919e-05
19 *3291:A *3353:A 2.75229e-05
20 *3295:A *3353:A 2.75229e-05
21 *3303:A *3353:A 0.0001249
22 *391:12 *3353:A 8.65905e-05
23 *521:18 *3353:A 0
24 *878:16 *3353:A 0
25 *881:79 *3353:A 0.000312787
26 *884:34 *3353:A 0
*RES
1 *2803:Q *3353:A 45.735 
*END

*D_NET *1056 0.00805794
*CONN
*I *3354:A I *D sky130_fd_sc_hd__buf_2
*I *2804:Q O *D sky130_fd_sc_hd__dlxtn_1
*CAP
1 *3354:A 0.00389709
2 *2804:Q 0.00389709
3 *2748:A_N *3354:A 6.15576e-06
4 *3278:A *3354:A 0.000120576
5 *3312:A *3354:A 0
6 *3349:A *3354:A 0.000124875
7 *968:14 *3354:A 1.21595e-05
*RES
1 *2804:Q *3354:A 16.4551 
*END

*D_NET *1057 0.00328619
*CONN
*I *3355:A I *D sky130_fd_sc_hd__buf_2
*I *2805:Q O *D sky130_fd_sc_hd__dlxtn_1
*CAP
1 *3355:A 0.00105499
2 *2805:Q 0.00105499
3 PWDATA[10] *3355:A 0
4 PWDATA[12] *3355:A 0
5 PWDATA[9] *3355:A 0
6 rdata[14] *3355:A 7.29911e-05
7 *2816:D *3355:A 6.55328e-05
8 *2822:D *3355:A 7.89611e-05
9 *3275:A *3355:A 0
10 *3301:A *3355:A 0
11 *3310:A *3355:A 0
12 *3330:A *3355:A 0
13 *3332:A *3355:A 0
14 *3335:A *3355:A 0
15 *3342:A *3355:A 0
16 *3344:A *3355:A 0
17 *3350:A *3355:A 8.65905e-05
18 *3351:A *3355:A 0.000278031
19 *842:18 *3355:A 0.000120186
20 *842:20 *3355:A 2.45838e-05
21 *842:22 *3355:A 0.000142011
22 *842:24 *3355:A 0.000147935
23 *842:26 *3355:A 0.000144965
24 *842:32 *3355:A 1.44259e-05
25 *1041:16 *3355:A 0
*RES
1 *2805:Q *3355:A 29.82 
*END

*D_NET *1058 0.000792964
*CONN
*I *3356:A I *D sky130_fd_sc_hd__buf_2
*I *2806:Q O *D sky130_fd_sc_hd__dlxtn_1
*CAP
1 *3356:A 0.000334035
2 *2806:Q 0.000334035
3 *3309:A *3356:A 0
4 *3316:A *3356:A 0
5 *880:23 *3356:A 0.000124895
6 *884:20 *3356:A 0
*RES
1 *2806:Q *3356:A 12.015 
*END

*D_NET *1059 0.0125961
*CONN
*I *3357:A I *D sky130_fd_sc_hd__buf_2
*I *2792:Q O *D sky130_fd_sc_hd__dlxtn_1
*CAP
1 *3357:A 0.00494539
2 *2792:Q 0.00494539
3 rdata[1] *3357:A 5.78448e-05
4 *2464:A2 *3357:A 1.92979e-05
5 *2625:B2 *3357:A 0.00237525
6 *437:26 *3357:A 1.19249e-05
7 *830:31 *3357:A 1.00941e-05
8 *844:20 *3357:A 0.000230898
*RES
1 *2792:Q *3357:A 20.2405 
*END
