*SPEF "ieee 1481-1999"
*DESIGN "bridge"
*DATE "09:41:11 Thursday May 07, 2026"
*VENDOR "The OpenROAD Project"
*PROGRAM "OpenROAD"
*VERSION "edf00dff99f6c40d67a30c0e22a8191c5d2ed9d6"
*DESIGN_FLOW "NAME_SCOPE LOCAL" "PIN_CAP NONE"
*DIVIDER /
*DELIMITER :
*BUS_DELIMITER []
*T_UNIT 1 NS
*C_UNIT 1 PF
*R_UNIT 1 OHM
*L_UNIT 1 HENRY

*NAME_MAP
*1 PADDR[0]
*2 PADDR[1]
*3 PADDR[2]
*4 PENABLE
*5 PRDATA[0]
*6 PRDATA[10]
*7 PRDATA[11]
*8 PRDATA[12]
*9 PRDATA[13]
*10 PRDATA[14]
*11 PRDATA[15]
*12 PRDATA[1]
*13 PRDATA[2]
*14 PRDATA[3]
*15 PRDATA[4]
*16 PRDATA[5]
*17 PRDATA[6]
*18 PRDATA[7]
*19 PRDATA[8]
*20 PRDATA[9]
*21 PREADY
*22 PSEL1
*23 PSEL2
*24 PSEL3
*25 PSEL4
*26 PWDATA[0]
*27 PWDATA[10]
*28 PWDATA[11]
*29 PWDATA[12]
*30 PWDATA[13]
*31 PWDATA[14]
*32 PWDATA[15]
*33 PWDATA[1]
*34 PWDATA[2]
*35 PWDATA[3]
*36 PWDATA[4]
*37 PWDATA[5]
*38 PWDATA[6]
*39 PWDATA[7]
*40 PWDATA[8]
*41 PWDATA[9]
*42 PWRITE
*45 araddr[0]
*46 araddr[1]
*47 araddr[2]
*48 araddr[3]
*49 araddr[4]
*50 arburst[0]
*51 arburst[1]
*52 arlen[0]
*53 arlen[1]
*54 arlen[2]
*55 arlen[3]
*56 arready
*57 arvalid
*58 awaddr[0]
*59 awaddr[1]
*60 awaddr[2]
*61 awaddr[3]
*62 awaddr[4]
*63 awburst[0]
*64 awburst[1]
*65 awlen[0]
*66 awlen[1]
*67 awlen[2]
*68 awlen[3]
*69 awready
*70 awvalid
*71 bready
*72 bresp
*73 bvalid
*74 clk
*75 rdata[0]
*76 rdata[10]
*77 rdata[11]
*78 rdata[12]
*79 rdata[13]
*80 rdata[14]
*81 rdata[15]
*82 rdata[1]
*83 rdata[2]
*84 rdata[3]
*85 rdata[4]
*86 rdata[5]
*87 rdata[6]
*88 rdata[7]
*89 rdata[8]
*90 rdata[9]
*91 res_n
*92 rlast
*93 rready
*94 rresp
*95 rvalid
*96 wdata[0]
*97 wdata[10]
*98 wdata[11]
*99 wdata[12]
*100 wdata[13]
*101 wdata[14]
*102 wdata[15]
*103 wdata[1]
*104 wdata[2]
*105 wdata[3]
*106 wdata[4]
*107 wdata[5]
*108 wdata[6]
*109 wdata[7]
*110 wdata[8]
*111 wdata[9]
*112 wlast
*113 wready
*114 wvalid
*115 DADDR\[0\]
*116 DADDR\[1\]
*117 DADDR\[2\]
*118 DDATA\[0\]\[0\]
*119 DDATA\[0\]\[10\]
*120 DDATA\[0\]\[11\]
*121 DDATA\[0\]\[12\]
*122 DDATA\[0\]\[13\]
*123 DDATA\[0\]\[14\]
*124 DDATA\[0\]\[15\]
*125 DDATA\[0\]\[1\]
*126 DDATA\[0\]\[2\]
*127 DDATA\[0\]\[3\]
*128 DDATA\[0\]\[4\]
*129 DDATA\[0\]\[5\]
*130 DDATA\[0\]\[6\]
*131 DDATA\[0\]\[7\]
*132 DDATA\[0\]\[8\]
*133 DDATA\[0\]\[9\]
*134 DDATA\[10\]\[0\]
*135 DDATA\[10\]\[10\]
*136 DDATA\[10\]\[11\]
*137 DDATA\[10\]\[12\]
*138 DDATA\[10\]\[13\]
*139 DDATA\[10\]\[14\]
*140 DDATA\[10\]\[15\]
*141 DDATA\[10\]\[1\]
*142 DDATA\[10\]\[2\]
*143 DDATA\[10\]\[3\]
*144 DDATA\[10\]\[4\]
*145 DDATA\[10\]\[5\]
*146 DDATA\[10\]\[6\]
*147 DDATA\[10\]\[7\]
*148 DDATA\[10\]\[8\]
*149 DDATA\[10\]\[9\]
*150 DDATA\[11\]\[0\]
*151 DDATA\[11\]\[10\]
*152 DDATA\[11\]\[11\]
*153 DDATA\[11\]\[12\]
*154 DDATA\[11\]\[13\]
*155 DDATA\[11\]\[14\]
*156 DDATA\[11\]\[15\]
*157 DDATA\[11\]\[1\]
*158 DDATA\[11\]\[2\]
*159 DDATA\[11\]\[3\]
*160 DDATA\[11\]\[4\]
*161 DDATA\[11\]\[5\]
*162 DDATA\[11\]\[6\]
*163 DDATA\[11\]\[7\]
*164 DDATA\[11\]\[8\]
*165 DDATA\[11\]\[9\]
*166 DDATA\[12\]\[0\]
*167 DDATA\[12\]\[10\]
*168 DDATA\[12\]\[11\]
*169 DDATA\[12\]\[12\]
*170 DDATA\[12\]\[13\]
*171 DDATA\[12\]\[14\]
*172 DDATA\[12\]\[15\]
*173 DDATA\[12\]\[1\]
*174 DDATA\[12\]\[2\]
*175 DDATA\[12\]\[3\]
*176 DDATA\[12\]\[4\]
*177 DDATA\[12\]\[5\]
*178 DDATA\[12\]\[6\]
*179 DDATA\[12\]\[7\]
*180 DDATA\[12\]\[8\]
*181 DDATA\[12\]\[9\]
*182 DDATA\[13\]\[0\]
*183 DDATA\[13\]\[10\]
*184 DDATA\[13\]\[11\]
*185 DDATA\[13\]\[12\]
*186 DDATA\[13\]\[13\]
*187 DDATA\[13\]\[14\]
*188 DDATA\[13\]\[15\]
*189 DDATA\[13\]\[1\]
*190 DDATA\[13\]\[2\]
*191 DDATA\[13\]\[3\]
*192 DDATA\[13\]\[4\]
*193 DDATA\[13\]\[5\]
*194 DDATA\[13\]\[6\]
*195 DDATA\[13\]\[7\]
*196 DDATA\[13\]\[8\]
*197 DDATA\[13\]\[9\]
*198 DDATA\[14\]\[0\]
*199 DDATA\[14\]\[10\]
*200 DDATA\[14\]\[11\]
*201 DDATA\[14\]\[12\]
*202 DDATA\[14\]\[13\]
*203 DDATA\[14\]\[14\]
*204 DDATA\[14\]\[15\]
*205 DDATA\[14\]\[1\]
*206 DDATA\[14\]\[2\]
*207 DDATA\[14\]\[3\]
*208 DDATA\[14\]\[4\]
*209 DDATA\[14\]\[5\]
*210 DDATA\[14\]\[6\]
*211 DDATA\[14\]\[7\]
*212 DDATA\[14\]\[8\]
*213 DDATA\[14\]\[9\]
*214 DDATA\[15\]\[0\]
*215 DDATA\[15\]\[10\]
*216 DDATA\[15\]\[11\]
*217 DDATA\[15\]\[12\]
*218 DDATA\[15\]\[13\]
*219 DDATA\[15\]\[14\]
*220 DDATA\[15\]\[15\]
*221 DDATA\[15\]\[1\]
*222 DDATA\[15\]\[2\]
*223 DDATA\[15\]\[3\]
*224 DDATA\[15\]\[4\]
*225 DDATA\[15\]\[5\]
*226 DDATA\[15\]\[6\]
*227 DDATA\[15\]\[7\]
*228 DDATA\[15\]\[8\]
*229 DDATA\[15\]\[9\]
*230 DDATA\[1\]\[0\]
*231 DDATA\[1\]\[10\]
*232 DDATA\[1\]\[11\]
*233 DDATA\[1\]\[12\]
*234 DDATA\[1\]\[13\]
*235 DDATA\[1\]\[14\]
*236 DDATA\[1\]\[15\]
*237 DDATA\[1\]\[1\]
*238 DDATA\[1\]\[2\]
*239 DDATA\[1\]\[3\]
*240 DDATA\[1\]\[4\]
*241 DDATA\[1\]\[5\]
*242 DDATA\[1\]\[6\]
*243 DDATA\[1\]\[7\]
*244 DDATA\[1\]\[8\]
*245 DDATA\[1\]\[9\]
*246 DDATA\[2\]\[0\]
*247 DDATA\[2\]\[10\]
*248 DDATA\[2\]\[11\]
*249 DDATA\[2\]\[12\]
*250 DDATA\[2\]\[13\]
*251 DDATA\[2\]\[14\]
*252 DDATA\[2\]\[15\]
*253 DDATA\[2\]\[1\]
*254 DDATA\[2\]\[2\]
*255 DDATA\[2\]\[3\]
*256 DDATA\[2\]\[4\]
*257 DDATA\[2\]\[5\]
*258 DDATA\[2\]\[6\]
*259 DDATA\[2\]\[7\]
*260 DDATA\[2\]\[8\]
*261 DDATA\[2\]\[9\]
*262 DDATA\[3\]\[0\]
*263 DDATA\[3\]\[10\]
*264 DDATA\[3\]\[11\]
*265 DDATA\[3\]\[12\]
*266 DDATA\[3\]\[13\]
*267 DDATA\[3\]\[14\]
*268 DDATA\[3\]\[15\]
*269 DDATA\[3\]\[1\]
*270 DDATA\[3\]\[2\]
*271 DDATA\[3\]\[3\]
*272 DDATA\[3\]\[4\]
*273 DDATA\[3\]\[5\]
*274 DDATA\[3\]\[6\]
*275 DDATA\[3\]\[7\]
*276 DDATA\[3\]\[8\]
*277 DDATA\[3\]\[9\]
*278 DDATA\[4\]\[0\]
*279 DDATA\[4\]\[10\]
*280 DDATA\[4\]\[11\]
*281 DDATA\[4\]\[12\]
*282 DDATA\[4\]\[13\]
*283 DDATA\[4\]\[14\]
*284 DDATA\[4\]\[15\]
*285 DDATA\[4\]\[1\]
*286 DDATA\[4\]\[2\]
*287 DDATA\[4\]\[3\]
*288 DDATA\[4\]\[4\]
*289 DDATA\[4\]\[5\]
*290 DDATA\[4\]\[6\]
*291 DDATA\[4\]\[7\]
*292 DDATA\[4\]\[8\]
*293 DDATA\[4\]\[9\]
*294 DDATA\[5\]\[0\]
*295 DDATA\[5\]\[10\]
*296 DDATA\[5\]\[11\]
*297 DDATA\[5\]\[12\]
*298 DDATA\[5\]\[13\]
*299 DDATA\[5\]\[14\]
*300 DDATA\[5\]\[15\]
*301 DDATA\[5\]\[1\]
*302 DDATA\[5\]\[2\]
*303 DDATA\[5\]\[3\]
*304 DDATA\[5\]\[4\]
*305 DDATA\[5\]\[5\]
*306 DDATA\[5\]\[6\]
*307 DDATA\[5\]\[7\]
*308 DDATA\[5\]\[8\]
*309 DDATA\[5\]\[9\]
*310 DDATA\[6\]\[0\]
*311 DDATA\[6\]\[10\]
*312 DDATA\[6\]\[11\]
*313 DDATA\[6\]\[12\]
*314 DDATA\[6\]\[13\]
*315 DDATA\[6\]\[14\]
*316 DDATA\[6\]\[15\]
*317 DDATA\[6\]\[1\]
*318 DDATA\[6\]\[2\]
*319 DDATA\[6\]\[3\]
*320 DDATA\[6\]\[4\]
*321 DDATA\[6\]\[5\]
*322 DDATA\[6\]\[6\]
*323 DDATA\[6\]\[7\]
*324 DDATA\[6\]\[8\]
*325 DDATA\[6\]\[9\]
*326 DDATA\[7\]\[0\]
*327 DDATA\[7\]\[10\]
*328 DDATA\[7\]\[11\]
*329 DDATA\[7\]\[12\]
*330 DDATA\[7\]\[13\]
*331 DDATA\[7\]\[14\]
*332 DDATA\[7\]\[15\]
*333 DDATA\[7\]\[1\]
*334 DDATA\[7\]\[2\]
*335 DDATA\[7\]\[3\]
*336 DDATA\[7\]\[4\]
*337 DDATA\[7\]\[5\]
*338 DDATA\[7\]\[6\]
*339 DDATA\[7\]\[7\]
*340 DDATA\[7\]\[8\]
*341 DDATA\[7\]\[9\]
*342 DDATA\[8\]\[0\]
*343 DDATA\[8\]\[10\]
*344 DDATA\[8\]\[11\]
*345 DDATA\[8\]\[12\]
*346 DDATA\[8\]\[13\]
*347 DDATA\[8\]\[14\]
*348 DDATA\[8\]\[15\]
*349 DDATA\[8\]\[1\]
*350 DDATA\[8\]\[2\]
*351 DDATA\[8\]\[3\]
*352 DDATA\[8\]\[4\]
*353 DDATA\[8\]\[5\]
*354 DDATA\[8\]\[6\]
*355 DDATA\[8\]\[7\]
*356 DDATA\[8\]\[8\]
*357 DDATA\[8\]\[9\]
*358 DDATA\[9\]\[0\]
*359 DDATA\[9\]\[10\]
*360 DDATA\[9\]\[11\]
*361 DDATA\[9\]\[12\]
*362 DDATA\[9\]\[13\]
*363 DDATA\[9\]\[14\]
*364 DDATA\[9\]\[15\]
*365 DDATA\[9\]\[1\]
*366 DDATA\[9\]\[2\]
*367 DDATA\[9\]\[3\]
*368 DDATA\[9\]\[4\]
*369 DDATA\[9\]\[5\]
*370 DDATA\[9\]\[6\]
*371 DDATA\[9\]\[7\]
*372 DDATA\[9\]\[8\]
*373 DDATA\[9\]\[9\]
*374 DWREQ\[0\]
*375 DWREQ\[1\]
*376 _0000_
*377 _0001_
*378 _0002_
*379 _0003_
*380 _0004_
*381 _0005_
*382 _0006_
*383 _0007_
*384 _0008_
*385 _0009_
*386 _0010_
*387 _0011_
*388 _0012_
*389 _0013_
*390 _0014_
*391 _0015_
*392 _0016_
*393 _0017_
*394 _0018_
*395 _0019_
*396 _0020_
*397 _0021_
*398 _0022_
*399 _0023_
*400 _0024_
*401 _0025_
*402 _0026_
*403 _0027_
*404 _0028_
*405 _0029_
*406 _0030_
*407 _0031_
*408 _0032_
*409 _0033_
*410 _0034_
*411 _0035_
*412 _0036_
*413 _0037_
*414 _0038_
*415 _0039_
*416 _0040_
*417 _0041_
*418 _0042_
*419 _0043_
*420 _0044_
*421 _0045_
*422 _0046_
*423 _0047_
*424 _0048_
*425 _0049_
*426 _0050_
*427 _0051_
*428 _0052_
*429 _0053_
*430 _0054_
*431 _0055_
*432 _0056_
*433 _0057_
*434 _0058_
*435 _0059_
*436 _0060_
*437 _0061_
*438 _0062_
*439 _0063_
*440 _0064_
*441 _0065_
*442 _0066_
*443 _0067_
*444 _0068_
*445 _0069_
*446 _0070_
*447 _0071_
*448 _0072_
*449 _0073_
*450 _0074_
*451 _0075_
*452 _0076_
*453 _0077_
*454 _0078_
*455 _0079_
*456 _0080_
*457 _0081_
*458 _0082_
*459 _0083_
*460 _0084_
*461 _0085_
*462 _0086_
*463 _0087_
*464 _0088_
*465 _0089_
*466 _0090_
*467 _0091_
*468 _0092_
*469 _0093_
*470 _0094_
*471 _0095_
*472 _0096_
*473 _0097_
*474 _0098_
*475 _0099_
*476 _0100_
*477 _0101_
*478 _0102_
*479 _0103_
*480 _0104_
*481 _0105_
*482 _0106_
*483 _0107_
*484 _0108_
*485 _0109_
*486 _0110_
*487 _0111_
*488 _0112_
*489 _0113_
*490 _0114_
*491 _0115_
*492 _0116_
*493 _0117_
*494 _0118_
*495 _0119_
*496 _0120_
*497 _0121_
*498 _0122_
*499 _0123_
*500 _0124_
*501 _0125_
*502 _0126_
*503 _0127_
*504 _0128_
*505 _0129_
*506 _0130_
*507 _0131_
*508 _0132_
*509 _0133_
*510 _0134_
*511 _0135_
*512 _0136_
*513 _0137_
*514 _0138_
*515 _0139_
*516 _0140_
*517 _0141_
*518 _0142_
*519 _0143_
*520 _0144_
*521 _0145_
*522 _0146_
*523 _0147_
*524 _0148_
*525 _0149_
*526 _0150_
*527 _0151_
*528 _0152_
*529 _0153_
*530 _0154_
*531 _0155_
*532 _0156_
*533 _0157_
*534 _0158_
*535 _0159_
*536 _0160_
*537 _0161_
*538 _0162_
*539 _0163_
*540 _0164_
*541 _0165_
*542 _0166_
*543 _0167_
*544 _0168_
*545 _0169_
*546 _0170_
*547 _0171_
*548 _0172_
*549 _0173_
*550 _0174_
*551 _0175_
*552 _0176_
*553 _0177_
*554 _0178_
*555 _0179_
*556 _0180_
*557 _0181_
*558 _0182_
*559 _0183_
*560 _0184_
*561 _0185_
*562 _0186_
*563 _0187_
*564 _0188_
*565 _0189_
*566 _0190_
*567 _0191_
*568 _0192_
*569 _0193_
*570 _0194_
*571 _0195_
*572 _0196_
*573 _0197_
*574 _0198_
*575 _0199_
*576 _0200_
*577 _0201_
*578 _0202_
*579 _0203_
*580 _0204_
*581 _0205_
*582 _0206_
*583 _0207_
*584 _0208_
*585 _0209_
*586 _0210_
*587 _0211_
*588 _0212_
*589 _0213_
*590 _0214_
*591 _0215_
*592 _0216_
*593 _0217_
*594 _0218_
*595 _0219_
*596 _0220_
*597 _0221_
*598 _0222_
*599 _0223_
*600 _0224_
*601 _0225_
*602 _0226_
*603 _0227_
*604 _0228_
*605 _0229_
*606 _0230_
*607 _0231_
*608 _0232_
*609 _0233_
*610 _0234_
*611 _0235_
*612 _0236_
*613 _0237_
*614 _0238_
*615 _0239_
*616 _0240_
*617 _0241_
*618 _0242_
*619 _0243_
*620 _0244_
*621 _0245_
*622 _0246_
*623 _0247_
*624 _0248_
*625 _0249_
*626 _0250_
*627 _0251_
*628 _0252_
*629 _0253_
*630 _0254_
*631 _0255_
*632 _0256_
*633 _0257_
*634 _0258_
*635 _0259_
*636 _0260_
*637 _0261_
*638 _0262_
*639 _0263_
*640 _0264_
*641 _0265_
*642 _0266_
*643 _0267_
*644 _0268_
*645 _0269_
*646 _0270_
*647 _0271_
*648 _0272_
*649 _0273_
*650 _0274_
*651 _0275_
*652 _0276_
*653 _0277_
*654 _0278_
*655 _0279_
*656 _0280_
*657 _0281_
*658 _0282_
*659 _0283_
*660 _0284_
*661 _0285_
*662 _0286_
*663 _0287_
*664 _0288_
*665 _0289_
*666 _0290_
*667 _0291_
*668 _0292_
*669 _0293_
*670 _0294_
*671 _0295_
*672 _0296_
*673 _0297_
*674 _0298_
*675 _0299_
*676 _0300_
*677 _0301_
*678 _0302_
*679 _0303_
*680 _0304_
*681 _0305_
*682 _0306_
*683 _0307_
*684 _0308_
*685 _0309_
*686 _0310_
*687 _0311_
*688 _0312_
*689 _0313_
*690 _0314_
*691 _0315_
*692 _0316_
*693 _0317_
*694 _0318_
*695 _0319_
*696 _0320_
*697 _0321_
*698 _0322_
*699 _0323_
*700 _0324_
*701 _0325_
*702 _0326_
*703 _0327_
*704 _0328_
*705 _0329_
*706 _0330_
*707 _0331_
*708 _0332_
*709 _0333_
*710 _0334_
*711 _0335_
*712 _0336_
*713 _0337_
*714 _0338_
*715 _0339_
*716 _0340_
*717 _0341_
*718 _0342_
*719 _0343_
*720 _0344_
*721 _0345_
*722 _0346_
*723 _0347_
*724 _0348_
*725 _0349_
*726 _0350_
*727 _0351_
*728 _0352_
*729 _0353_
*730 _0354_
*731 _0355_
*732 _0356_
*733 _0357_
*734 _0358_
*735 _0359_
*736 _0360_
*737 _0361_
*738 _0362_
*739 _0363_
*740 _0364_
*741 _0365_
*742 _0366_
*743 _0367_
*744 _0368_
*745 _0369_
*746 _0370_
*747 _0371_
*748 _0372_
*749 _0373_
*750 _0374_
*751 _0375_
*752 _0376_
*753 _0377_
*754 _0378_
*755 _0379_
*756 _0380_
*757 _0381_
*758 _0382_
*759 _0383_
*760 _0384_
*761 _0385_
*762 _0386_
*763 _0387_
*764 _0388_
*765 _0389_
*766 addr\[3\]
*767 addr\[4\]
*768 burst\[0\]
*769 burst\[1\]
*770 clknet_0_clk
*771 clknet_1_0__leaf_clk
*772 clknet_1_1__leaf_clk
*773 current_state\[0\]
*774 current_state\[1\]
*775 current_state\[2\]
*776 current_state\[3\]
*777 i\[0\]
*778 i\[1\]
*779 i\[2\]
*780 i\[3\]
*781 last
*782 lenM\[0\]
*783 lenM\[1\]
*784 lenM\[2\]
*785 lenM\[3\]
*786 lenS\[0\]
*787 lenS\[1\]
*788 lenS\[2\]
*789 lenS\[3\]
*790 net1
*791 net10
*792 net100
*793 net101
*794 net102
*795 net103
*796 net104
*797 net105
*798 net106
*799 net107
*800 net108
*801 net109
*802 net11
*803 net110
*804 net111
*805 net112
*806 net113
*807 net114
*808 net115
*809 net116
*810 net117
*811 net118
*812 net119
*813 net12
*814 net120
*815 net121
*816 net122
*817 net123
*818 net124
*819 net125
*820 net126
*821 net127
*822 net128
*823 net129
*824 net13
*825 net130
*826 net131
*827 net132
*828 net133
*829 net134
*830 net135
*831 net136
*832 net137
*833 net138
*834 net139
*835 net14
*836 net140
*837 net141
*838 net142
*839 net143
*840 net144
*841 net145
*842 net146
*843 net147
*844 net148
*845 net149
*846 net15
*847 net150
*848 net151
*849 net152
*850 net153
*851 net154
*852 net155
*853 net156
*854 net157
*855 net158
*856 net159
*857 net16
*858 net160
*859 net161
*860 net162
*861 net163
*862 net164
*863 net165
*864 net166
*865 net167
*866 net168
*867 net169
*868 net17
*869 net170
*870 net171
*871 net172
*872 net173
*873 net174
*874 net175
*875 net176
*876 net177
*877 net178
*878 net179
*879 net18
*880 net180
*881 net181
*882 net182
*883 net183
*884 net184
*885 net185
*886 net186
*887 net187
*888 net188
*889 net189
*890 net19
*891 net190
*892 net191
*893 net192
*894 net193
*895 net194
*896 net195
*897 net196
*898 net197
*899 net198
*900 net199
*901 net2
*902 net20
*903 net200
*904 net201
*905 net202
*906 net203
*907 net204
*908 net205
*909 net206
*910 net207
*911 net208
*912 net209
*913 net21
*914 net210
*915 net211
*916 net212
*917 net213
*918 net214
*919 net215
*920 net216
*921 net217
*922 net218
*923 net219
*924 net22
*925 net220
*926 net221
*927 net222
*928 net223
*929 net224
*930 net225
*931 net226
*932 net227
*933 net228
*934 net229
*935 net23
*936 net230
*937 net231
*938 net232
*939 net233
*940 net234
*941 net235
*942 net236
*943 net237
*944 net238
*945 net239
*946 net24
*947 net240
*948 net241
*949 net242
*950 net243
*951 net244
*952 net245
*953 net246
*954 net247
*955 net248
*956 net249
*957 net25
*958 net250
*959 net251
*960 net252
*961 net253
*962 net254
*963 net255
*964 net256
*965 net257
*966 net258
*967 net259
*968 net26
*969 net260
*970 net261
*971 net262
*972 net263
*973 net264
*974 net265
*975 net266
*976 net267
*977 net268
*978 net269
*979 net27
*980 net270
*981 net28
*982 net29
*983 net3
*984 net30
*985 net31
*986 net32
*987 net33
*988 net34
*989 net35
*990 net36
*991 net37
*992 net38
*993 net39
*994 net4
*995 net40
*996 net41
*997 net42
*998 net43
*999 net44
*1000 net45
*1001 net46
*1002 net47
*1003 net48
*1004 net49
*1005 net5
*1006 net50
*1007 net51
*1008 net52
*1009 net53
*1010 net54
*1011 net55
*1012 net56
*1013 net57
*1014 net58
*1015 net59
*1016 net6
*1017 net60
*1018 net61
*1019 net62
*1020 net63
*1021 net64
*1022 net65
*1023 net66
*1024 net67
*1025 net68
*1026 net69
*1027 net7
*1028 net70
*1029 net71
*1030 net72
*1031 net73
*1032 net74
*1033 net75
*1034 net76
*1035 net77
*1036 net78
*1037 net79
*1038 net8
*1039 net80
*1040 net81
*1041 net82
*1042 net83
*1043 net84
*1044 net85
*1045 net86
*1046 net87
*1047 net88
*1048 net89
*1049 net9
*1050 net90
*1051 net91
*1052 net92
*1053 net93
*1054 net94
*1055 net95
*1056 net96
*1057 net97
*1058 net98
*1059 net99
*1060 FILLER_0_105
*1061 FILLER_0_111
*1062 FILLER_0_113
*1063 FILLER_0_118
*1064 FILLER_0_125
*1065 FILLER_0_132
*1066 FILLER_0_139
*1067 FILLER_0_141
*1068 FILLER_0_146
*1069 FILLER_0_15
*1070 FILLER_0_153
*1071 FILLER_0_160
*1072 FILLER_0_167
*1073 FILLER_0_184
*1074 FILLER_0_188
*1075 FILLER_0_195
*1076 FILLER_0_197
*1077 FILLER_0_202
*1078 FILLER_0_209
*1079 FILLER_0_225
*1080 FILLER_0_231
*1081 FILLER_0_238
*1082 FILLER_0_245
*1083 FILLER_0_253
*1084 FILLER_0_266
*1085 FILLER_0_27
*1086 FILLER_0_29
*1087 FILLER_0_3
*1088 FILLER_0_41
*1089 FILLER_0_53
*1090 FILLER_0_57
*1091 FILLER_0_69
*1092 FILLER_0_81
*1093 FILLER_0_85
*1094 FILLER_0_93
*1095 FILLER_0_97
*1096 FILLER_10_108
*1097 FILLER_10_141
*1098 FILLER_10_15
*1099 FILLER_10_189
*1100 FILLER_10_195
*1101 FILLER_10_197
*1102 FILLER_10_207
*1103 FILLER_10_219
*1104 FILLER_10_227
*1105 FILLER_10_235
*1106 FILLER_10_244
*1107 FILLER_10_253
*1108 FILLER_10_259
*1109 FILLER_10_266
*1110 FILLER_10_280
*1111 FILLER_10_29
*1112 FILLER_10_3
*1113 FILLER_10_33
*1114 FILLER_10_70
*1115 FILLER_10_82
*1116 FILLER_10_85
*1117 FILLER_11_107
*1118 FILLER_11_11
*1119 FILLER_11_111
*1120 FILLER_11_113
*1121 FILLER_11_125
*1122 FILLER_11_155
*1123 FILLER_11_193
*1124 FILLER_11_209
*1125 FILLER_11_221
*1126 FILLER_11_225
*1127 FILLER_11_241
*1128 FILLER_11_253
*1129 FILLER_11_259
*1130 FILLER_11_271
*1131 FILLER_11_275
*1132 FILLER_11_281
*1133 FILLER_11_3
*1134 FILLER_11_38
*1135 FILLER_11_42
*1136 FILLER_11_51
*1137 FILLER_11_55
*1138 FILLER_11_76
*1139 FILLER_11_82
*1140 FILLER_12_101
*1141 FILLER_12_110
*1142 FILLER_12_122
*1143 FILLER_12_134
*1144 FILLER_12_141
*1145 FILLER_12_15
*1146 FILLER_12_153
*1147 FILLER_12_159
*1148 FILLER_12_188
*1149 FILLER_12_241
*1150 FILLER_12_249
*1151 FILLER_12_262
*1152 FILLER_12_27
*1153 FILLER_12_280
*1154 FILLER_12_29
*1155 FILLER_12_3
*1156 FILLER_12_41
*1157 FILLER_12_53
*1158 FILLER_12_78
*1159 FILLER_12_97
*1160 FILLER_13_103
*1161 FILLER_13_111
*1162 FILLER_13_113
*1163 FILLER_13_128
*1164 FILLER_13_143
*1165 FILLER_13_15
*1166 FILLER_13_155
*1167 FILLER_13_166
*1168 FILLER_13_176
*1169 FILLER_13_184
*1170 FILLER_13_223
*1171 FILLER_13_254
*1172 FILLER_13_260
*1173 FILLER_13_267
*1174 FILLER_13_281
*1175 FILLER_13_3
*1176 FILLER_13_43
*1177 FILLER_13_55
*1178 FILLER_13_57
*1179 FILLER_13_61
*1180 FILLER_13_86
*1181 FILLER_13_94
*1182 FILLER_14_15
*1183 FILLER_14_151
*1184 FILLER_14_155
*1185 FILLER_14_168
*1186 FILLER_14_180
*1187 FILLER_14_192
*1188 FILLER_14_209
*1189 FILLER_14_221
*1190 FILLER_14_234
*1191 FILLER_14_244
*1192 FILLER_14_253
*1193 FILLER_14_265
*1194 FILLER_14_279
*1195 FILLER_14_3
*1196 FILLER_14_56
*1197 FILLER_14_85
*1198 FILLER_14_96
*1199 FILLER_15_102
*1200 FILLER_15_109
*1201 FILLER_15_113
*1202 FILLER_15_130
*1203 FILLER_15_15
*1204 FILLER_15_150
*1205 FILLER_15_176
*1206 FILLER_15_188
*1207 FILLER_15_196
*1208 FILLER_15_206
*1209 FILLER_15_218
*1210 FILLER_15_237
*1211 FILLER_15_246
*1212 FILLER_15_250
*1213 FILLER_15_258
*1214 FILLER_15_270
*1215 FILLER_15_3
*1216 FILLER_15_39
*1217 FILLER_15_51
*1218 FILLER_15_55
*1219 FILLER_15_57
*1220 FILLER_15_69
*1221 FILLER_15_77
*1222 FILLER_15_87
*1223 FILLER_16_113
*1224 FILLER_16_138
*1225 FILLER_16_141
*1226 FILLER_16_15
*1227 FILLER_16_179
*1228 FILLER_16_194
*1229 FILLER_16_201
*1230 FILLER_16_215
*1231 FILLER_16_251
*1232 FILLER_16_265
*1233 FILLER_16_29
*1234 FILLER_16_3
*1235 FILLER_16_50
*1236 FILLER_16_58
*1237 FILLER_16_71
*1238 FILLER_16_83
*1239 FILLER_16_85
*1240 FILLER_17_111
*1241 FILLER_17_123
*1242 FILLER_17_15
*1243 FILLER_17_151
*1244 FILLER_17_167
*1245 FILLER_17_177
*1246 FILLER_17_192
*1247 FILLER_17_222
*1248 FILLER_17_225
*1249 FILLER_17_23
*1250 FILLER_17_230
*1251 FILLER_17_261
*1252 FILLER_17_281
*1253 FILLER_17_3
*1254 FILLER_17_44
*1255 FILLER_17_80
*1256 FILLER_18_121
*1257 FILLER_18_129
*1258 FILLER_18_139
*1259 FILLER_18_147
*1260 FILLER_18_15
*1261 FILLER_18_159
*1262 FILLER_18_163
*1263 FILLER_18_229
*1264 FILLER_18_239
*1265 FILLER_18_248
*1266 FILLER_18_253
*1267 FILLER_18_27
*1268 FILLER_18_29
*1269 FILLER_18_3
*1270 FILLER_18_41
*1271 FILLER_18_49
*1272 FILLER_18_83
*1273 FILLER_18_85
*1274 FILLER_18_89
*1275 FILLER_19_108
*1276 FILLER_19_113
*1277 FILLER_19_144
*1278 FILLER_19_15
*1279 FILLER_19_156
*1280 FILLER_19_169
*1281 FILLER_19_193
*1282 FILLER_19_208
*1283 FILLER_19_220
*1284 FILLER_19_237
*1285 FILLER_19_255
*1286 FILLER_19_267
*1287 FILLER_19_27
*1288 FILLER_19_281
*1289 FILLER_19_3
*1290 FILLER_19_41
*1291 FILLER_19_53
*1292 FILLER_19_80
*1293 FILLER_19_92
*1294 FILLER_1_107
*1295 FILLER_1_111
*1296 FILLER_1_113
*1297 FILLER_1_117
*1298 FILLER_1_139
*1299 FILLER_1_15
*1300 FILLER_1_162
*1301 FILLER_1_190
*1302 FILLER_1_202
*1303 FILLER_1_216
*1304 FILLER_1_223
*1305 FILLER_1_228
*1306 FILLER_1_236
*1307 FILLER_1_250
*1308 FILLER_1_27
*1309 FILLER_1_3
*1310 FILLER_1_53
*1311 FILLER_1_57
*1312 FILLER_1_65
*1313 FILLER_1_69
*1314 FILLER_1_82
*1315 FILLER_20_115
*1316 FILLER_20_15
*1317 FILLER_20_153
*1318 FILLER_20_165
*1319 FILLER_20_177
*1320 FILLER_20_185
*1321 FILLER_20_195
*1322 FILLER_20_197
*1323 FILLER_20_210
*1324 FILLER_20_251
*1325 FILLER_20_253
*1326 FILLER_20_265
*1327 FILLER_20_27
*1328 FILLER_20_277
*1329 FILLER_20_29
*1330 FILLER_20_3
*1331 FILLER_20_51
*1332 FILLER_20_62
*1333 FILLER_20_68
*1334 FILLER_20_80
*1335 FILLER_20_85
*1336 FILLER_21_107
*1337 FILLER_21_111
*1338 FILLER_21_113
*1339 FILLER_21_121
*1340 FILLER_21_143
*1341 FILLER_21_151
*1342 FILLER_21_166
*1343 FILLER_21_176
*1344 FILLER_21_188
*1345 FILLER_21_196
*1346 FILLER_21_205
*1347 FILLER_21_217
*1348 FILLER_21_223
*1349 FILLER_21_225
*1350 FILLER_21_255
*1351 FILLER_21_267
*1352 FILLER_21_275
*1353 FILLER_21_281
*1354 FILLER_21_3
*1355 FILLER_21_51
*1356 FILLER_21_55
*1357 FILLER_21_64
*1358 FILLER_21_84
*1359 FILLER_21_98
*1360 FILLER_22_107
*1361 FILLER_22_111
*1362 FILLER_22_15
*1363 FILLER_22_185
*1364 FILLER_22_209
*1365 FILLER_22_221
*1366 FILLER_22_225
*1367 FILLER_22_259
*1368 FILLER_22_27
*1369 FILLER_22_271
*1370 FILLER_22_3
*1371 FILLER_22_55
*1372 FILLER_22_63
*1373 FILLER_22_68
*1374 FILLER_22_85
*1375 FILLER_23_101
*1376 FILLER_23_107
*1377 FILLER_23_111
*1378 FILLER_23_146
*1379 FILLER_23_15
*1380 FILLER_23_154
*1381 FILLER_23_181
*1382 FILLER_23_211
*1383 FILLER_23_23
*1384 FILLER_23_261
*1385 FILLER_23_265
*1386 FILLER_23_281
*1387 FILLER_23_3
*1388 FILLER_23_38
*1389 FILLER_23_50
*1390 FILLER_23_57
*1391 FILLER_23_61
*1392 FILLER_23_74
*1393 FILLER_23_93
*1394 FILLER_24_102
*1395 FILLER_24_114
*1396 FILLER_24_136
*1397 FILLER_24_146
*1398 FILLER_24_158
*1399 FILLER_24_175
*1400 FILLER_24_187
*1401 FILLER_24_19
*1402 FILLER_24_195
*1403 FILLER_24_209
*1404 FILLER_24_221
*1405 FILLER_24_225
*1406 FILLER_24_233
*1407 FILLER_24_243
*1408 FILLER_24_247
*1409 FILLER_24_251
*1410 FILLER_24_253
*1411 FILLER_24_265
*1412 FILLER_24_27
*1413 FILLER_24_278
*1414 FILLER_24_29
*1415 FILLER_24_41
*1416 FILLER_24_49
*1417 FILLER_24_7
*1418 FILLER_24_85
*1419 FILLER_24_89
*1420 FILLER_25_107
*1421 FILLER_25_111
*1422 FILLER_25_113
*1423 FILLER_25_141
*1424 FILLER_25_15
*1425 FILLER_25_153
*1426 FILLER_25_165
*1427 FILLER_25_169
*1428 FILLER_25_181
*1429 FILLER_25_185
*1430 FILLER_25_214
*1431 FILLER_25_222
*1432 FILLER_25_225
*1433 FILLER_25_230
*1434 FILLER_25_250
*1435 FILLER_25_262
*1436 FILLER_25_27
*1437 FILLER_25_279
*1438 FILLER_25_281
*1439 FILLER_25_3
*1440 FILLER_25_41
*1441 FILLER_25_53
*1442 FILLER_25_57
*1443 FILLER_25_78
*1444 FILLER_25_86
*1445 FILLER_26_139
*1446 FILLER_26_145
*1447 FILLER_26_15
*1448 FILLER_26_157
*1449 FILLER_26_177
*1450 FILLER_26_189
*1451 FILLER_26_195
*1452 FILLER_26_197
*1453 FILLER_26_212
*1454 FILLER_26_220
*1455 FILLER_26_251
*1456 FILLER_26_253
*1457 FILLER_26_260
*1458 FILLER_26_27
*1459 FILLER_26_3
*1460 FILLER_26_33
*1461 FILLER_26_56
*1462 FILLER_26_65
*1463 FILLER_26_71
*1464 FILLER_26_83
*1465 FILLER_26_85
*1466 FILLER_27_11
*1467 FILLER_27_111
*1468 FILLER_27_113
*1469 FILLER_27_155
*1470 FILLER_27_169
*1471 FILLER_27_173
*1472 FILLER_27_198
*1473 FILLER_27_212
*1474 FILLER_27_249
*1475 FILLER_27_257
*1476 FILLER_27_262
*1477 FILLER_27_267
*1478 FILLER_27_3
*1479 FILLER_27_64
*1480 FILLER_27_71
*1481 FILLER_27_83
*1482 FILLER_28_113
*1483 FILLER_28_133
*1484 FILLER_28_138
*1485 FILLER_28_141
*1486 FILLER_28_148
*1487 FILLER_28_15
*1488 FILLER_28_152
*1489 FILLER_28_175
*1490 FILLER_28_209
*1491 FILLER_28_251
*1492 FILLER_28_260
*1493 FILLER_28_264
*1494 FILLER_28_27
*1495 FILLER_28_279
*1496 FILLER_28_283
*1497 FILLER_28_29
*1498 FILLER_28_3
*1499 FILLER_28_55
*1500 FILLER_28_67
*1501 FILLER_28_73
*1502 FILLER_28_81
*1503 FILLER_28_85
*1504 FILLER_28_89
*1505 FILLER_28_94
*1506 FILLER_28_99
*1507 FILLER_29_116
*1508 FILLER_29_122
*1509 FILLER_29_127
*1510 FILLER_29_134
*1511 FILLER_29_146
*1512 FILLER_29_15
*1513 FILLER_29_154
*1514 FILLER_29_179
*1515 FILLER_29_253
*1516 FILLER_29_27
*1517 FILLER_29_277
*1518 FILLER_29_3
*1519 FILLER_29_47
*1520 FILLER_29_54
*1521 FILLER_29_78
*1522 FILLER_29_84
*1523 FILLER_2_120
*1524 FILLER_2_137
*1525 FILLER_2_141
*1526 FILLER_2_15
*1527 FILLER_2_158
*1528 FILLER_2_169
*1529 FILLER_2_233
*1530 FILLER_2_249
*1531 FILLER_2_27
*1532 FILLER_2_29
*1533 FILLER_2_3
*1534 FILLER_2_67
*1535 FILLER_2_71
*1536 FILLER_2_97
*1537 FILLER_30_117
*1538 FILLER_30_15
*1539 FILLER_30_152
*1540 FILLER_30_185
*1541 FILLER_30_191
*1542 FILLER_30_217
*1543 FILLER_30_221
*1544 FILLER_30_226
*1545 FILLER_30_235
*1546 FILLER_30_256
*1547 FILLER_30_27
*1548 FILLER_30_279
*1549 FILLER_30_283
*1550 FILLER_30_29
*1551 FILLER_30_3
*1552 FILLER_30_41
*1553 FILLER_30_45
*1554 FILLER_30_73
*1555 FILLER_30_97
*1556 FILLER_31_120
*1557 FILLER_31_15
*1558 FILLER_31_167
*1559 FILLER_31_176
*1560 FILLER_31_210
*1561 FILLER_31_222
*1562 FILLER_31_225
*1563 FILLER_31_229
*1564 FILLER_31_254
*1565 FILLER_31_27
*1566 FILLER_31_3
*1567 FILLER_31_39
*1568 FILLER_31_43
*1569 FILLER_32_115
*1570 FILLER_32_141
*1571 FILLER_32_15
*1572 FILLER_32_182
*1573 FILLER_32_190
*1574 FILLER_32_201
*1575 FILLER_32_213
*1576 FILLER_32_225
*1577 FILLER_32_237
*1578 FILLER_32_249
*1579 FILLER_32_253
*1580 FILLER_32_27
*1581 FILLER_32_270
*1582 FILLER_32_29
*1583 FILLER_32_3
*1584 FILLER_32_41
*1585 FILLER_33_113
*1586 FILLER_33_135
*1587 FILLER_33_15
*1588 FILLER_33_158
*1589 FILLER_33_173
*1590 FILLER_33_185
*1591 FILLER_33_211
*1592 FILLER_33_225
*1593 FILLER_33_237
*1594 FILLER_33_249
*1595 FILLER_33_255
*1596 FILLER_33_261
*1597 FILLER_33_27
*1598 FILLER_33_279
*1599 FILLER_33_281
*1600 FILLER_33_3
*1601 FILLER_33_39
*1602 FILLER_33_51
*1603 FILLER_33_55
*1604 FILLER_33_57
*1605 FILLER_33_94
*1606 FILLER_34_103
*1607 FILLER_34_115
*1608 FILLER_34_134
*1609 FILLER_34_141
*1610 FILLER_34_15
*1611 FILLER_34_153
*1612 FILLER_34_160
*1613 FILLER_34_166
*1614 FILLER_34_178
*1615 FILLER_34_190
*1616 FILLER_34_217
*1617 FILLER_34_250
*1618 FILLER_34_253
*1619 FILLER_34_27
*1620 FILLER_34_279
*1621 FILLER_34_29
*1622 FILLER_34_3
*1623 FILLER_34_41
*1624 FILLER_34_53
*1625 FILLER_34_65
*1626 FILLER_34_71
*1627 FILLER_34_83
*1628 FILLER_34_96
*1629 FILLER_35_108
*1630 FILLER_35_113
*1631 FILLER_35_117
*1632 FILLER_35_121
*1633 FILLER_35_137
*1634 FILLER_35_149
*1635 FILLER_35_15
*1636 FILLER_35_160
*1637 FILLER_35_166
*1638 FILLER_35_173
*1639 FILLER_35_185
*1640 FILLER_35_225
*1641 FILLER_35_27
*1642 FILLER_35_281
*1643 FILLER_35_3
*1644 FILLER_35_39
*1645 FILLER_35_51
*1646 FILLER_35_55
*1647 FILLER_35_57
*1648 FILLER_35_69
*1649 FILLER_35_81
*1650 FILLER_35_96
*1651 FILLER_36_105
*1652 FILLER_36_138
*1653 FILLER_36_15
*1654 FILLER_36_153
*1655 FILLER_36_159
*1656 FILLER_36_180
*1657 FILLER_36_194
*1658 FILLER_36_204
*1659 FILLER_36_250
*1660 FILLER_36_27
*1661 FILLER_36_270
*1662 FILLER_36_282
*1663 FILLER_36_29
*1664 FILLER_36_3
*1665 FILLER_36_41
*1666 FILLER_36_53
*1667 FILLER_36_65
*1668 FILLER_36_77
*1669 FILLER_36_83
*1670 FILLER_36_85
*1671 FILLER_37_113
*1672 FILLER_37_138
*1673 FILLER_37_15
*1674 FILLER_37_166
*1675 FILLER_37_210
*1676 FILLER_37_27
*1677 FILLER_37_279
*1678 FILLER_37_281
*1679 FILLER_37_3
*1680 FILLER_37_39
*1681 FILLER_37_51
*1682 FILLER_37_55
*1683 FILLER_37_57
*1684 FILLER_37_69
*1685 FILLER_38_141
*1686 FILLER_38_149
*1687 FILLER_38_15
*1688 FILLER_38_156
*1689 FILLER_38_176
*1690 FILLER_38_186
*1691 FILLER_38_212
*1692 FILLER_38_251
*1693 FILLER_38_27
*1694 FILLER_38_273
*1695 FILLER_38_29
*1696 FILLER_38_3
*1697 FILLER_38_41
*1698 FILLER_38_53
*1699 FILLER_38_65
*1700 FILLER_38_77
*1701 FILLER_38_83
*1702 FILLER_38_85
*1703 FILLER_39_104
*1704 FILLER_39_136
*1705 FILLER_39_148
*1706 FILLER_39_15
*1707 FILLER_39_162
*1708 FILLER_39_167
*1709 FILLER_39_172
*1710 FILLER_39_205
*1711 FILLER_39_212
*1712 FILLER_39_249
*1713 FILLER_39_260
*1714 FILLER_39_268
*1715 FILLER_39_27
*1716 FILLER_39_277
*1717 FILLER_39_3
*1718 FILLER_39_39
*1719 FILLER_39_51
*1720 FILLER_39_55
*1721 FILLER_39_57
*1722 FILLER_39_69
*1723 FILLER_39_81
*1724 FILLER_39_93
*1725 FILLER_39_97
*1726 FILLER_3_113
*1727 FILLER_3_140
*1728 FILLER_3_15
*1729 FILLER_3_165
*1730 FILLER_3_169
*1731 FILLER_3_223
*1732 FILLER_3_228
*1733 FILLER_3_232
*1734 FILLER_3_255
*1735 FILLER_3_3
*1736 FILLER_3_35
*1737 FILLER_3_77
*1738 FILLER_40_109
*1739 FILLER_40_121
*1740 FILLER_40_133
*1741 FILLER_40_139
*1742 FILLER_40_141
*1743 FILLER_40_149
*1744 FILLER_40_15
*1745 FILLER_40_178
*1746 FILLER_40_190
*1747 FILLER_40_197
*1748 FILLER_40_246
*1749 FILLER_40_253
*1750 FILLER_40_266
*1751 FILLER_40_27
*1752 FILLER_40_29
*1753 FILLER_40_3
*1754 FILLER_40_41
*1755 FILLER_40_53
*1756 FILLER_40_65
*1757 FILLER_40_77
*1758 FILLER_40_83
*1759 FILLER_40_85
*1760 FILLER_40_97
*1761 FILLER_41_105
*1762 FILLER_41_111
*1763 FILLER_41_113
*1764 FILLER_41_125
*1765 FILLER_41_133
*1766 FILLER_41_15
*1767 FILLER_41_152
*1768 FILLER_41_167
*1769 FILLER_41_178
*1770 FILLER_41_186
*1771 FILLER_41_236
*1772 FILLER_41_248
*1773 FILLER_41_27
*1774 FILLER_41_270
*1775 FILLER_41_3
*1776 FILLER_41_39
*1777 FILLER_41_51
*1778 FILLER_41_55
*1779 FILLER_41_57
*1780 FILLER_41_69
*1781 FILLER_41_81
*1782 FILLER_41_93
*1783 FILLER_42_109
*1784 FILLER_42_117
*1785 FILLER_42_138
*1786 FILLER_42_15
*1787 FILLER_42_166
*1788 FILLER_42_171
*1789 FILLER_42_183
*1790 FILLER_42_239
*1791 FILLER_42_247
*1792 FILLER_42_27
*1793 FILLER_42_29
*1794 FILLER_42_3
*1795 FILLER_42_41
*1796 FILLER_42_53
*1797 FILLER_42_65
*1798 FILLER_42_77
*1799 FILLER_42_83
*1800 FILLER_42_85
*1801 FILLER_42_97
*1802 FILLER_43_105
*1803 FILLER_43_111
*1804 FILLER_43_113
*1805 FILLER_43_136
*1806 FILLER_43_15
*1807 FILLER_43_176
*1808 FILLER_43_185
*1809 FILLER_43_208
*1810 FILLER_43_243
*1811 FILLER_43_251
*1812 FILLER_43_27
*1813 FILLER_43_278
*1814 FILLER_43_3
*1815 FILLER_43_39
*1816 FILLER_43_51
*1817 FILLER_43_55
*1818 FILLER_43_57
*1819 FILLER_43_69
*1820 FILLER_43_81
*1821 FILLER_43_93
*1822 FILLER_44_109
*1823 FILLER_44_115
*1824 FILLER_44_136
*1825 FILLER_44_15
*1826 FILLER_44_175
*1827 FILLER_44_187
*1828 FILLER_44_215
*1829 FILLER_44_27
*1830 FILLER_44_29
*1831 FILLER_44_3
*1832 FILLER_44_41
*1833 FILLER_44_53
*1834 FILLER_44_65
*1835 FILLER_44_77
*1836 FILLER_44_83
*1837 FILLER_44_85
*1838 FILLER_44_97
*1839 FILLER_45_108
*1840 FILLER_45_113
*1841 FILLER_45_125
*1842 FILLER_45_15
*1843 FILLER_45_154
*1844 FILLER_45_169
*1845 FILLER_45_178
*1846 FILLER_45_193
*1847 FILLER_45_217
*1848 FILLER_45_248
*1849 FILLER_45_27
*1850 FILLER_45_3
*1851 FILLER_45_39
*1852 FILLER_45_51
*1853 FILLER_45_55
*1854 FILLER_45_57
*1855 FILLER_45_69
*1856 FILLER_45_81
*1857 FILLER_45_96
*1858 FILLER_46_109
*1859 FILLER_46_115
*1860 FILLER_46_134
*1861 FILLER_46_15
*1862 FILLER_46_155
*1863 FILLER_46_164
*1864 FILLER_46_194
*1865 FILLER_46_197
*1866 FILLER_46_208
*1867 FILLER_46_216
*1868 FILLER_46_224
*1869 FILLER_46_228
*1870 FILLER_46_238
*1871 FILLER_46_250
*1872 FILLER_46_27
*1873 FILLER_46_29
*1874 FILLER_46_3
*1875 FILLER_46_41
*1876 FILLER_46_53
*1877 FILLER_46_65
*1878 FILLER_46_77
*1879 FILLER_46_83
*1880 FILLER_46_85
*1881 FILLER_46_97
*1882 FILLER_47_104
*1883 FILLER_47_111
*1884 FILLER_47_113
*1885 FILLER_47_118
*1886 FILLER_47_126
*1887 FILLER_47_132
*1888 FILLER_47_139
*1889 FILLER_47_141
*1890 FILLER_47_147
*1891 FILLER_47_15
*1892 FILLER_47_153
*1893 FILLER_47_160
*1894 FILLER_47_169
*1895 FILLER_47_175
*1896 FILLER_47_191
*1897 FILLER_47_195
*1898 FILLER_47_197
*1899 FILLER_47_202
*1900 FILLER_47_209
*1901 FILLER_47_223
*1902 FILLER_47_269
*1903 FILLER_47_27
*1904 FILLER_47_29
*1905 FILLER_47_3
*1906 FILLER_47_41
*1907 FILLER_47_53
*1908 FILLER_47_57
*1909 FILLER_47_62
*1910 FILLER_47_69
*1911 FILLER_47_76
*1912 FILLER_47_85
*1913 FILLER_47_91
*1914 FILLER_47_99
*1915 FILLER_4_141
*1916 FILLER_4_15
*1917 FILLER_4_172
*1918 FILLER_4_193
*1919 FILLER_4_251
*1920 FILLER_4_258
*1921 FILLER_4_262
*1922 FILLER_4_3
*1923 FILLER_4_36
*1924 FILLER_4_50
*1925 FILLER_4_61
*1926 FILLER_4_92
*1927 FILLER_5_100
*1928 FILLER_5_113
*1929 FILLER_5_15
*1930 FILLER_5_164
*1931 FILLER_5_169
*1932 FILLER_5_190
*1933 FILLER_5_194
*1934 FILLER_5_221
*1935 FILLER_5_257
*1936 FILLER_5_261
*1937 FILLER_5_3
*1938 FILLER_5_41
*1939 FILLER_5_57
*1940 FILLER_5_69
*1941 FILLER_5_81
*1942 FILLER_5_87
*1943 FILLER_6_101
*1944 FILLER_6_113
*1945 FILLER_6_135
*1946 FILLER_6_139
*1947 FILLER_6_141
*1948 FILLER_6_149
*1949 FILLER_6_15
*1950 FILLER_6_171
*1951 FILLER_6_183
*1952 FILLER_6_195
*1953 FILLER_6_197
*1954 FILLER_6_205
*1955 FILLER_6_219
*1956 FILLER_6_231
*1957 FILLER_6_244
*1958 FILLER_6_253
*1959 FILLER_6_265
*1960 FILLER_6_280
*1961 FILLER_6_3
*1962 FILLER_6_56
*1963 FILLER_6_68
*1964 FILLER_6_82
*1965 FILLER_6_85
*1966 FILLER_6_93
*1967 FILLER_7_105
*1968 FILLER_7_111
*1969 FILLER_7_113
*1970 FILLER_7_141
*1971 FILLER_7_15
*1972 FILLER_7_153
*1973 FILLER_7_165
*1974 FILLER_7_169
*1975 FILLER_7_181
*1976 FILLER_7_187
*1977 FILLER_7_208
*1978 FILLER_7_220
*1979 FILLER_7_225
*1980 FILLER_7_237
*1981 FILLER_7_249
*1982 FILLER_7_261
*1983 FILLER_7_27
*1984 FILLER_7_281
*1985 FILLER_7_3
*1986 FILLER_7_39
*1987 FILLER_7_51
*1988 FILLER_7_55
*1989 FILLER_7_57
*1990 FILLER_7_93
*1991 FILLER_8_107
*1992 FILLER_8_121
*1993 FILLER_8_138
*1994 FILLER_8_148
*1995 FILLER_8_15
*1996 FILLER_8_160
*1997 FILLER_8_172
*1998 FILLER_8_209
*1999 FILLER_8_221
*2000 FILLER_8_225
*2001 FILLER_8_238
*2002 FILLER_8_251
*2003 FILLER_8_253
*2004 FILLER_8_267
*2005 FILLER_8_27
*2006 FILLER_8_280
*2007 FILLER_8_29
*2008 FILLER_8_3
*2009 FILLER_8_40
*2010 FILLER_8_52
*2011 FILLER_8_60
*2012 FILLER_8_82
*2013 FILLER_8_85
*2014 FILLER_8_99
*2015 FILLER_9_108
*2016 FILLER_9_113
*2017 FILLER_9_121
*2018 FILLER_9_138
*2019 FILLER_9_15
*2020 FILLER_9_169
*2021 FILLER_9_181
*2022 FILLER_9_208
*2023 FILLER_9_254
*2024 FILLER_9_260
*2025 FILLER_9_273
*2026 FILLER_9_281
*2027 FILLER_9_3
*2028 FILLER_9_40
*2029 FILLER_9_55
*2030 FILLER_9_64
*2031 FILLER_9_76
*2032 PHY_EDGE_ROW_0_Left_48
*2033 PHY_EDGE_ROW_0_Right_0
*2034 PHY_EDGE_ROW_10_Left_58
*2035 PHY_EDGE_ROW_10_Right_10
*2036 PHY_EDGE_ROW_11_Left_59
*2037 PHY_EDGE_ROW_11_Right_11
*2038 PHY_EDGE_ROW_12_Left_60
*2039 PHY_EDGE_ROW_12_Right_12
*2040 PHY_EDGE_ROW_13_Left_61
*2041 PHY_EDGE_ROW_13_Right_13
*2042 PHY_EDGE_ROW_14_Left_62
*2043 PHY_EDGE_ROW_14_Right_14
*2044 PHY_EDGE_ROW_15_Left_63
*2045 PHY_EDGE_ROW_15_Right_15
*2046 PHY_EDGE_ROW_16_Left_64
*2047 PHY_EDGE_ROW_16_Right_16
*2048 PHY_EDGE_ROW_17_Left_65
*2049 PHY_EDGE_ROW_17_Right_17
*2050 PHY_EDGE_ROW_18_Left_66
*2051 PHY_EDGE_ROW_18_Right_18
*2052 PHY_EDGE_ROW_19_Left_67
*2053 PHY_EDGE_ROW_19_Right_19
*2054 PHY_EDGE_ROW_1_Left_49
*2055 PHY_EDGE_ROW_1_Right_1
*2056 PHY_EDGE_ROW_20_Left_68
*2057 PHY_EDGE_ROW_20_Right_20
*2058 PHY_EDGE_ROW_21_Left_69
*2059 PHY_EDGE_ROW_21_Right_21
*2060 PHY_EDGE_ROW_22_Left_70
*2061 PHY_EDGE_ROW_22_Right_22
*2062 PHY_EDGE_ROW_23_Left_71
*2063 PHY_EDGE_ROW_23_Right_23
*2064 PHY_EDGE_ROW_24_Left_72
*2065 PHY_EDGE_ROW_24_Right_24
*2066 PHY_EDGE_ROW_25_Left_73
*2067 PHY_EDGE_ROW_25_Right_25
*2068 PHY_EDGE_ROW_26_Left_74
*2069 PHY_EDGE_ROW_26_Right_26
*2070 PHY_EDGE_ROW_27_Left_75
*2071 PHY_EDGE_ROW_27_Right_27
*2072 PHY_EDGE_ROW_28_Left_76
*2073 PHY_EDGE_ROW_28_Right_28
*2074 PHY_EDGE_ROW_29_Left_77
*2075 PHY_EDGE_ROW_29_Right_29
*2076 PHY_EDGE_ROW_2_Left_50
*2077 PHY_EDGE_ROW_2_Right_2
*2078 PHY_EDGE_ROW_30_Left_78
*2079 PHY_EDGE_ROW_30_Right_30
*2080 PHY_EDGE_ROW_31_Left_79
*2081 PHY_EDGE_ROW_31_Right_31
*2082 PHY_EDGE_ROW_32_Left_80
*2083 PHY_EDGE_ROW_32_Right_32
*2084 PHY_EDGE_ROW_33_Left_81
*2085 PHY_EDGE_ROW_33_Right_33
*2086 PHY_EDGE_ROW_34_Left_82
*2087 PHY_EDGE_ROW_34_Right_34
*2088 PHY_EDGE_ROW_35_Left_83
*2089 PHY_EDGE_ROW_35_Right_35
*2090 PHY_EDGE_ROW_36_Left_84
*2091 PHY_EDGE_ROW_36_Right_36
*2092 PHY_EDGE_ROW_37_Left_85
*2093 PHY_EDGE_ROW_37_Right_37
*2094 PHY_EDGE_ROW_38_Left_86
*2095 PHY_EDGE_ROW_38_Right_38
*2096 PHY_EDGE_ROW_39_Left_87
*2097 PHY_EDGE_ROW_39_Right_39
*2098 PHY_EDGE_ROW_3_Left_51
*2099 PHY_EDGE_ROW_3_Right_3
*2100 PHY_EDGE_ROW_40_Left_88
*2101 PHY_EDGE_ROW_40_Right_40
*2102 PHY_EDGE_ROW_41_Left_89
*2103 PHY_EDGE_ROW_41_Right_41
*2104 PHY_EDGE_ROW_42_Left_90
*2105 PHY_EDGE_ROW_42_Right_42
*2106 PHY_EDGE_ROW_43_Left_91
*2107 PHY_EDGE_ROW_43_Right_43
*2108 PHY_EDGE_ROW_44_Left_92
*2109 PHY_EDGE_ROW_44_Right_44
*2110 PHY_EDGE_ROW_45_Left_93
*2111 PHY_EDGE_ROW_45_Right_45
*2112 PHY_EDGE_ROW_46_Left_94
*2113 PHY_EDGE_ROW_46_Right_46
*2114 PHY_EDGE_ROW_47_Left_95
*2115 PHY_EDGE_ROW_47_Right_47
*2116 PHY_EDGE_ROW_4_Left_52
*2117 PHY_EDGE_ROW_4_Right_4
*2118 PHY_EDGE_ROW_5_Left_53
*2119 PHY_EDGE_ROW_5_Right_5
*2120 PHY_EDGE_ROW_6_Left_54
*2121 PHY_EDGE_ROW_6_Right_6
*2122 PHY_EDGE_ROW_7_Left_55
*2123 PHY_EDGE_ROW_7_Right_7
*2124 PHY_EDGE_ROW_8_Left_56
*2125 PHY_EDGE_ROW_8_Right_8
*2126 PHY_EDGE_ROW_9_Left_57
*2127 PHY_EDGE_ROW_9_Right_9
*2128 TAP_TAPCELL_ROW_0_100
*2129 TAP_TAPCELL_ROW_0_101
*2130 TAP_TAPCELL_ROW_0_102
*2131 TAP_TAPCELL_ROW_0_103
*2132 TAP_TAPCELL_ROW_0_104
*2133 TAP_TAPCELL_ROW_0_105
*2134 TAP_TAPCELL_ROW_0_96
*2135 TAP_TAPCELL_ROW_0_97
*2136 TAP_TAPCELL_ROW_0_98
*2137 TAP_TAPCELL_ROW_0_99
*2138 TAP_TAPCELL_ROW_10_151
*2139 TAP_TAPCELL_ROW_10_152
*2140 TAP_TAPCELL_ROW_10_153
*2141 TAP_TAPCELL_ROW_10_154
*2142 TAP_TAPCELL_ROW_10_155
*2143 TAP_TAPCELL_ROW_11_156
*2144 TAP_TAPCELL_ROW_11_157
*2145 TAP_TAPCELL_ROW_11_158
*2146 TAP_TAPCELL_ROW_11_159
*2147 TAP_TAPCELL_ROW_11_160
*2148 TAP_TAPCELL_ROW_12_161
*2149 TAP_TAPCELL_ROW_12_162
*2150 TAP_TAPCELL_ROW_12_163
*2151 TAP_TAPCELL_ROW_12_164
*2152 TAP_TAPCELL_ROW_12_165
*2153 TAP_TAPCELL_ROW_13_166
*2154 TAP_TAPCELL_ROW_13_167
*2155 TAP_TAPCELL_ROW_13_168
*2156 TAP_TAPCELL_ROW_13_169
*2157 TAP_TAPCELL_ROW_13_170
*2158 TAP_TAPCELL_ROW_14_171
*2159 TAP_TAPCELL_ROW_14_172
*2160 TAP_TAPCELL_ROW_14_173
*2161 TAP_TAPCELL_ROW_14_174
*2162 TAP_TAPCELL_ROW_14_175
*2163 TAP_TAPCELL_ROW_15_176
*2164 TAP_TAPCELL_ROW_15_177
*2165 TAP_TAPCELL_ROW_15_178
*2166 TAP_TAPCELL_ROW_15_179
*2167 TAP_TAPCELL_ROW_15_180
*2168 TAP_TAPCELL_ROW_16_181
*2169 TAP_TAPCELL_ROW_16_182
*2170 TAP_TAPCELL_ROW_16_183
*2171 TAP_TAPCELL_ROW_16_184
*2172 TAP_TAPCELL_ROW_16_185
*2173 TAP_TAPCELL_ROW_17_186
*2174 TAP_TAPCELL_ROW_17_187
*2175 TAP_TAPCELL_ROW_17_188
*2176 TAP_TAPCELL_ROW_17_189
*2177 TAP_TAPCELL_ROW_17_190
*2178 TAP_TAPCELL_ROW_18_191
*2179 TAP_TAPCELL_ROW_18_192
*2180 TAP_TAPCELL_ROW_18_193
*2181 TAP_TAPCELL_ROW_18_194
*2182 TAP_TAPCELL_ROW_18_195
*2183 TAP_TAPCELL_ROW_19_196
*2184 TAP_TAPCELL_ROW_19_197
*2185 TAP_TAPCELL_ROW_19_198
*2186 TAP_TAPCELL_ROW_19_199
*2187 TAP_TAPCELL_ROW_19_200
*2188 TAP_TAPCELL_ROW_1_106
*2189 TAP_TAPCELL_ROW_1_107
*2190 TAP_TAPCELL_ROW_1_108
*2191 TAP_TAPCELL_ROW_1_109
*2192 TAP_TAPCELL_ROW_1_110
*2193 TAP_TAPCELL_ROW_20_201
*2194 TAP_TAPCELL_ROW_20_202
*2195 TAP_TAPCELL_ROW_20_203
*2196 TAP_TAPCELL_ROW_20_204
*2197 TAP_TAPCELL_ROW_20_205
*2198 TAP_TAPCELL_ROW_21_206
*2199 TAP_TAPCELL_ROW_21_207
*2200 TAP_TAPCELL_ROW_21_208
*2201 TAP_TAPCELL_ROW_21_209
*2202 TAP_TAPCELL_ROW_21_210
*2203 TAP_TAPCELL_ROW_22_211
*2204 TAP_TAPCELL_ROW_22_212
*2205 TAP_TAPCELL_ROW_22_213
*2206 TAP_TAPCELL_ROW_22_214
*2207 TAP_TAPCELL_ROW_22_215
*2208 TAP_TAPCELL_ROW_23_216
*2209 TAP_TAPCELL_ROW_23_217
*2210 TAP_TAPCELL_ROW_23_218
*2211 TAP_TAPCELL_ROW_23_219
*2212 TAP_TAPCELL_ROW_23_220
*2213 TAP_TAPCELL_ROW_24_221
*2214 TAP_TAPCELL_ROW_24_222
*2215 TAP_TAPCELL_ROW_24_223
*2216 TAP_TAPCELL_ROW_24_224
*2217 TAP_TAPCELL_ROW_24_225
*2218 TAP_TAPCELL_ROW_25_226
*2219 TAP_TAPCELL_ROW_25_227
*2220 TAP_TAPCELL_ROW_25_228
*2221 TAP_TAPCELL_ROW_25_229
*2222 TAP_TAPCELL_ROW_25_230
*2223 TAP_TAPCELL_ROW_26_231
*2224 TAP_TAPCELL_ROW_26_232
*2225 TAP_TAPCELL_ROW_26_233
*2226 TAP_TAPCELL_ROW_26_234
*2227 TAP_TAPCELL_ROW_26_235
*2228 TAP_TAPCELL_ROW_27_236
*2229 TAP_TAPCELL_ROW_27_237
*2230 TAP_TAPCELL_ROW_27_238
*2231 TAP_TAPCELL_ROW_27_239
*2232 TAP_TAPCELL_ROW_27_240
*2233 TAP_TAPCELL_ROW_28_241
*2234 TAP_TAPCELL_ROW_28_242
*2235 TAP_TAPCELL_ROW_28_243
*2236 TAP_TAPCELL_ROW_28_244
*2237 TAP_TAPCELL_ROW_28_245
*2238 TAP_TAPCELL_ROW_29_246
*2239 TAP_TAPCELL_ROW_29_247
*2240 TAP_TAPCELL_ROW_29_248
*2241 TAP_TAPCELL_ROW_29_249
*2242 TAP_TAPCELL_ROW_29_250
*2243 TAP_TAPCELL_ROW_2_111
*2244 TAP_TAPCELL_ROW_2_112
*2245 TAP_TAPCELL_ROW_2_113
*2246 TAP_TAPCELL_ROW_2_114
*2247 TAP_TAPCELL_ROW_2_115
*2248 TAP_TAPCELL_ROW_30_251
*2249 TAP_TAPCELL_ROW_30_252
*2250 TAP_TAPCELL_ROW_30_253
*2251 TAP_TAPCELL_ROW_30_254
*2252 TAP_TAPCELL_ROW_30_255
*2253 TAP_TAPCELL_ROW_31_256
*2254 TAP_TAPCELL_ROW_31_257
*2255 TAP_TAPCELL_ROW_31_258
*2256 TAP_TAPCELL_ROW_31_259
*2257 TAP_TAPCELL_ROW_31_260
*2258 TAP_TAPCELL_ROW_32_261
*2259 TAP_TAPCELL_ROW_32_262
*2260 TAP_TAPCELL_ROW_32_263
*2261 TAP_TAPCELL_ROW_32_264
*2262 TAP_TAPCELL_ROW_32_265
*2263 TAP_TAPCELL_ROW_33_266
*2264 TAP_TAPCELL_ROW_33_267
*2265 TAP_TAPCELL_ROW_33_268
*2266 TAP_TAPCELL_ROW_33_269
*2267 TAP_TAPCELL_ROW_33_270
*2268 TAP_TAPCELL_ROW_34_271
*2269 TAP_TAPCELL_ROW_34_272
*2270 TAP_TAPCELL_ROW_34_273
*2271 TAP_TAPCELL_ROW_34_274
*2272 TAP_TAPCELL_ROW_34_275
*2273 TAP_TAPCELL_ROW_35_276
*2274 TAP_TAPCELL_ROW_35_277
*2275 TAP_TAPCELL_ROW_35_278
*2276 TAP_TAPCELL_ROW_35_279
*2277 TAP_TAPCELL_ROW_35_280
*2278 TAP_TAPCELL_ROW_36_281
*2279 TAP_TAPCELL_ROW_36_282
*2280 TAP_TAPCELL_ROW_36_283
*2281 TAP_TAPCELL_ROW_36_284
*2282 TAP_TAPCELL_ROW_36_285
*2283 TAP_TAPCELL_ROW_37_286
*2284 TAP_TAPCELL_ROW_37_287
*2285 TAP_TAPCELL_ROW_37_288
*2286 TAP_TAPCELL_ROW_37_289
*2287 TAP_TAPCELL_ROW_37_290
*2288 TAP_TAPCELL_ROW_38_291
*2289 TAP_TAPCELL_ROW_38_292
*2290 TAP_TAPCELL_ROW_38_293
*2291 TAP_TAPCELL_ROW_38_294
*2292 TAP_TAPCELL_ROW_38_295
*2293 TAP_TAPCELL_ROW_39_296
*2294 TAP_TAPCELL_ROW_39_297
*2295 TAP_TAPCELL_ROW_39_298
*2296 TAP_TAPCELL_ROW_39_299
*2297 TAP_TAPCELL_ROW_39_300
*2298 TAP_TAPCELL_ROW_3_116
*2299 TAP_TAPCELL_ROW_3_117
*2300 TAP_TAPCELL_ROW_3_118
*2301 TAP_TAPCELL_ROW_3_119
*2302 TAP_TAPCELL_ROW_3_120
*2303 TAP_TAPCELL_ROW_40_301
*2304 TAP_TAPCELL_ROW_40_302
*2305 TAP_TAPCELL_ROW_40_303
*2306 TAP_TAPCELL_ROW_40_304
*2307 TAP_TAPCELL_ROW_40_305
*2308 TAP_TAPCELL_ROW_41_306
*2309 TAP_TAPCELL_ROW_41_307
*2310 TAP_TAPCELL_ROW_41_308
*2311 TAP_TAPCELL_ROW_41_309
*2312 TAP_TAPCELL_ROW_41_310
*2313 TAP_TAPCELL_ROW_42_311
*2314 TAP_TAPCELL_ROW_42_312
*2315 TAP_TAPCELL_ROW_42_313
*2316 TAP_TAPCELL_ROW_42_314
*2317 TAP_TAPCELL_ROW_42_315
*2318 TAP_TAPCELL_ROW_43_316
*2319 TAP_TAPCELL_ROW_43_317
*2320 TAP_TAPCELL_ROW_43_318
*2321 TAP_TAPCELL_ROW_43_319
*2322 TAP_TAPCELL_ROW_43_320
*2323 TAP_TAPCELL_ROW_44_321
*2324 TAP_TAPCELL_ROW_44_322
*2325 TAP_TAPCELL_ROW_44_323
*2326 TAP_TAPCELL_ROW_44_324
*2327 TAP_TAPCELL_ROW_44_325
*2328 TAP_TAPCELL_ROW_45_326
*2329 TAP_TAPCELL_ROW_45_327
*2330 TAP_TAPCELL_ROW_45_328
*2331 TAP_TAPCELL_ROW_45_329
*2332 TAP_TAPCELL_ROW_45_330
*2333 TAP_TAPCELL_ROW_46_331
*2334 TAP_TAPCELL_ROW_46_332
*2335 TAP_TAPCELL_ROW_46_333
*2336 TAP_TAPCELL_ROW_46_334
*2337 TAP_TAPCELL_ROW_46_335
*2338 TAP_TAPCELL_ROW_47_336
*2339 TAP_TAPCELL_ROW_47_337
*2340 TAP_TAPCELL_ROW_47_338
*2341 TAP_TAPCELL_ROW_47_339
*2342 TAP_TAPCELL_ROW_47_340
*2343 TAP_TAPCELL_ROW_47_341
*2344 TAP_TAPCELL_ROW_47_342
*2345 TAP_TAPCELL_ROW_47_343
*2346 TAP_TAPCELL_ROW_47_344
*2347 TAP_TAPCELL_ROW_47_345
*2348 TAP_TAPCELL_ROW_4_121
*2349 TAP_TAPCELL_ROW_4_122
*2350 TAP_TAPCELL_ROW_4_123
*2351 TAP_TAPCELL_ROW_4_124
*2352 TAP_TAPCELL_ROW_4_125
*2353 TAP_TAPCELL_ROW_5_126
*2354 TAP_TAPCELL_ROW_5_127
*2355 TAP_TAPCELL_ROW_5_128
*2356 TAP_TAPCELL_ROW_5_129
*2357 TAP_TAPCELL_ROW_5_130
*2358 TAP_TAPCELL_ROW_6_131
*2359 TAP_TAPCELL_ROW_6_132
*2360 TAP_TAPCELL_ROW_6_133
*2361 TAP_TAPCELL_ROW_6_134
*2362 TAP_TAPCELL_ROW_6_135
*2363 TAP_TAPCELL_ROW_7_136
*2364 TAP_TAPCELL_ROW_7_137
*2365 TAP_TAPCELL_ROW_7_138
*2366 TAP_TAPCELL_ROW_7_139
*2367 TAP_TAPCELL_ROW_7_140
*2368 TAP_TAPCELL_ROW_8_141
*2369 TAP_TAPCELL_ROW_8_142
*2370 TAP_TAPCELL_ROW_8_143
*2371 TAP_TAPCELL_ROW_8_144
*2372 TAP_TAPCELL_ROW_8_145
*2373 TAP_TAPCELL_ROW_9_146
*2374 TAP_TAPCELL_ROW_9_147
*2375 TAP_TAPCELL_ROW_9_148
*2376 TAP_TAPCELL_ROW_9_149
*2377 TAP_TAPCELL_ROW_9_150
*2378 _0390_
*2379 _0391_
*2380 _0392_
*2381 _0393_
*2382 _0394_
*2383 _0395_
*2384 _0396_
*2385 _0397_
*2386 _0398_
*2387 _0399_
*2388 _0400_
*2389 _0401_
*2390 _0402_
*2391 _0403_
*2392 _0404_
*2393 _0405_
*2394 _0406_
*2395 _0407_
*2396 _0408_
*2397 _0409_
*2398 _0410_
*2399 _0411_
*2400 _0412_
*2401 _0413_
*2402 _0414_
*2403 _0415_
*2404 _0416_
*2405 _0417_
*2406 _0418_
*2407 _0419_
*2408 _0420_
*2409 _0421_
*2410 _0422_
*2411 _0423_
*2412 _0424_
*2413 _0425_
*2414 _0426_
*2415 _0427_
*2416 _0428_
*2417 _0429_
*2418 _0430_
*2419 _0431_
*2420 _0432_
*2421 _0433_
*2422 _0434_
*2423 _0435_
*2424 _0436_
*2425 _0437_
*2426 _0438_
*2427 _0439_
*2428 _0440_
*2429 _0441_
*2430 _0442_
*2431 _0443_
*2432 _0444_
*2433 _0445_
*2434 _0446_
*2435 _0447_
*2436 _0448_
*2437 _0449_
*2438 _0450_
*2439 _0451_
*2440 _0452_
*2441 _0453_
*2442 _0454_
*2443 _0455_
*2444 _0456_
*2445 _0457_
*2446 _0458_
*2447 _0459_
*2448 _0460_
*2449 _0461_
*2450 _0462_
*2451 _0463_
*2452 _0464_
*2453 _0465_
*2454 _0466_
*2455 _0467_
*2456 _0468_
*2457 _0469_
*2458 _0470_
*2459 _0471_
*2460 _0472_
*2461 _0473_
*2462 _0474_
*2463 _0475_
*2464 _0476_
*2465 _0477_
*2466 _0478_
*2467 _0479_
*2468 _0480_
*2469 _0481_
*2470 _0482_
*2471 _0483_
*2472 _0484_
*2473 _0485_
*2474 _0486_
*2475 _0487_
*2476 _0488_
*2477 _0489_
*2478 _0490_
*2479 _0491_
*2480 _0492_
*2481 _0493_
*2482 _0494_
*2483 _0495_
*2484 _0496_
*2485 _0497_
*2486 _0498_
*2487 _0499_
*2488 _0500_
*2489 _0501_
*2490 _0502_
*2491 _0503_
*2492 _0504_
*2493 _0505_
*2494 _0506_
*2495 _0507_
*2496 _0508_
*2497 _0509_
*2498 _0510_
*2499 _0511_
*2500 _0512_
*2501 _0513_
*2502 _0514_
*2503 _0515_
*2504 _0516_
*2505 _0517_
*2506 _0518_
*2507 _0519_
*2508 _0520_
*2509 _0521_
*2510 _0522_
*2511 _0523_
*2512 _0524_
*2513 _0525_
*2514 _0526_
*2515 _0527_
*2516 _0528_
*2517 _0529_
*2518 _0530_
*2519 _0531_
*2520 _0532_
*2521 _0533_
*2522 _0534_
*2523 _0535_
*2524 _0536_
*2525 _0537_
*2526 _0538_
*2527 _0539_
*2528 _0540_
*2529 _0541_
*2530 _0542_
*2531 _0543_
*2532 _0544_
*2533 _0545_
*2534 _0546_
*2535 _0547_
*2536 _0548_
*2537 _0549_
*2538 _0550_
*2539 _0551_
*2540 _0552_
*2541 _0553_
*2542 _0554_
*2543 _0555_
*2544 _0556_
*2545 _0557_
*2546 _0558_
*2547 _0559_
*2548 _0560_
*2549 _0561_
*2550 _0562_
*2551 _0563_
*2552 _0564_
*2553 _0565_
*2554 _0566_
*2555 _0567_
*2556 _0568_
*2557 _0569_
*2558 _0570_
*2559 _0571_
*2560 _0572_
*2561 _0573_
*2562 _0574_
*2563 _0575_
*2564 _0576_
*2565 _0577_
*2566 _0578_
*2567 _0579_
*2568 _0580_
*2569 _0581_
*2570 _0582_
*2571 _0583_
*2572 _0584_
*2573 _0585_
*2574 _0586_
*2575 _0587_
*2576 _0588_
*2577 _0589_
*2578 _0590_
*2579 _0591_
*2580 _0592_
*2581 _0593_
*2582 _0594_
*2583 _0595_
*2584 _0596_
*2585 _0597_
*2586 _0598_
*2587 _0599_
*2588 _0600_
*2589 _0601_
*2590 _0602_
*2591 _0603_
*2592 _0604_
*2593 _0605_
*2594 _0606_
*2595 _0607_
*2596 _0608_
*2597 _0609_
*2598 _0610_
*2599 _0611_
*2600 _0612_
*2601 _0613_
*2602 _0614_
*2603 _0615_
*2604 _0616_
*2605 _0617_
*2606 _0618_
*2607 _0619_
*2608 _0620_
*2609 _0621_
*2610 _0622_
*2611 _0623_
*2612 _0624_
*2613 _0625_
*2614 _0626_
*2615 _0627_
*2616 _0628_
*2617 _0629_
*2618 _0630_
*2619 _0631_
*2620 _0632_
*2621 _0633_
*2622 _0634_
*2623 _0635_
*2624 _0636_
*2625 _0637_
*2626 _0638_
*2627 _0639_
*2628 _0640_
*2629 _0641_
*2630 _0642_
*2631 _0643_
*2632 _0644_
*2633 _0645_
*2634 _0646_
*2635 _0647_
*2636 _0648_
*2637 _0649_
*2638 _0650_
*2639 _0651_
*2640 _0652_
*2641 _0653_
*2642 _0654_
*2643 _0655_
*2644 _0656_
*2645 _0657_
*2646 _0658_
*2647 _0659_
*2648 _0660_
*2649 _0661_
*2650 _0662_
*2651 _0663_
*2652 _0664_
*2653 _0665_
*2654 _0666_
*2655 _0667_
*2656 _0668_
*2657 _0669_
*2658 _0670_
*2659 _0671_
*2660 _0672_
*2661 _0673_
*2662 _0674_
*2663 _0675_
*2664 _0676_
*2665 _0677_
*2666 _0678_
*2667 _0679_
*2668 _0680_
*2669 _0681_
*2670 _0682_
*2671 _0683_
*2672 _0684_
*2673 _0685_
*2674 _0686_
*2675 _0687_
*2676 _0688_
*2677 _0689_
*2678 _0690_
*2679 _0691_
*2680 _0692_
*2681 _0693_
*2682 _0694_
*2683 _0695_
*2684 _0696_
*2685 _0697_
*2686 _0698_
*2687 _0699_
*2688 _0700_
*2689 _0701_
*2690 _0702_
*2691 _0703_
*2692 _0704_
*2693 _0705_
*2694 _0706_
*2695 _0707_
*2696 _0708_
*2697 _0709_
*2698 _0710_
*2699 _0711_
*2700 _0712_
*2701 _0713_
*2702 _0714_
*2703 _0715_
*2704 _0716_
*2705 _0717_
*2706 _0718_
*2707 _0719_
*2708 _0720_
*2709 _0721_
*2710 _0722_
*2711 _0723_
*2712 _0724_
*2713 _0725_
*2714 _0726_
*2715 _0727_
*2716 _0728_
*2717 _0729_
*2718 _0730_
*2719 _0731_
*2720 _0732_
*2721 _0733_
*2722 _0734_
*2723 _0735_
*2724 _0736_
*2725 _0737_
*2726 _0738_
*2727 _0739_
*2728 _0740_
*2729 _0741_
*2730 _0742_
*2731 _0743_
*2732 _0744_
*2733 _0745_
*2734 _0746_
*2735 _0747_
*2736 _0748_
*2737 _0749_
*2738 _0750_
*2739 _0751_
*2740 _0752_
*2741 _0753_
*2742 _0754_
*2743 _0755_
*2744 _0756_
*2745 _0757_
*2746 _0758_
*2747 _0759_
*2748 _0760_
*2749 _0761_
*2750 _0762_
*2751 _0763_
*2752 _0764_
*2753 _0765_
*2754 _0766_
*2755 _0767_
*2756 _0768_
*2757 _0769_
*2758 _0770_
*2759 _0771_
*2760 _0772_
*2761 _0773_
*2762 _0774_
*2763 _0775_
*2764 _0776_
*2765 _0777_
*2766 _0778_
*2767 _0779_
*2768 _0780_
*2769 _0781_
*2770 _0782_
*2771 _0783_
*2772 _0784_
*2773 _0785_
*2774 _0786_
*2775 _0787_
*2776 _0788_
*2777 _0789_
*2778 _0790_
*2779 _0791_
*2780 _0792_
*2781 _0793_
*2782 _0794_
*2783 _0795_
*2784 _0796_
*2785 _0797_
*2786 _0798_
*2787 _0799_
*2788 _0800_
*2789 _0801_
*2790 _0802_
*2791 _0803_
*2792 _0804_
*2793 _0805_
*2794 _0806_
*2795 _0807_
*2796 _0808_
*2797 _0809_
*2798 _0810_
*2799 _0811_
*2800 _0812_
*2801 _0813_
*2802 _0814_
*2803 _0815_
*2804 _0816_
*2805 _0817_
*2806 _0818_
*2807 _0819_
*2808 _0820_
*2809 _0821_
*2810 _0822_
*2811 _0823_
*2812 _0824_
*2813 _0825_
*2814 _0826_
*2815 _0827_
*2816 _0828_
*2817 _0829_
*2818 _0830_
*2819 _0831_
*2820 _0832_
*2821 _0833_
*2822 _0834_
*2823 _0835_
*2824 _0836_
*2825 _0837_
*2826 _0838_
*2827 _0839_
*2828 _0840_
*2829 _0841_
*2830 _0842_
*2831 _0843_
*2832 _0844_
*2833 _0845_
*2834 _0846_
*2835 _0847_
*2836 _0848_
*2837 _0849_
*2838 _0850_
*2839 _0851_
*2840 _0852_
*2841 _0853_
*2842 _0854_
*2843 _0855_
*2844 _0856_
*2845 _0857_
*2846 _0858_
*2847 _0859_
*2848 _0860_
*2849 _0861_
*2850 _0862_
*2851 _0863_
*2852 _0864_
*2853 _0865_
*2854 _0866_
*2855 _0867_
*2856 _0868_
*2857 _0869_
*2858 _0870_
*2859 _0871_
*2860 _0872_
*2861 _0873_
*2862 _0874_
*2863 _0875_
*2864 _0876_
*2865 _0877_
*2866 _0878_
*2867 _0879_
*2868 _0880_
*2869 _0881_
*2870 _0882_
*2871 _0883_
*2872 _0884_
*2873 _0885_
*2874 _0886_
*2875 _0887_
*2876 _0888_
*2877 _0889_
*2878 _0890_
*2879 _0891_
*2880 _0892_
*2881 _0893_
*2882 _0894_
*2883 _0895_
*2884 _0896_
*2885 _0897_
*2886 _0898_
*2887 _0899_
*2888 _0900_
*2889 _0901_
*2890 _0902_
*2891 _0903_
*2892 _0904_
*2893 _0905_
*2894 _0906_
*2895 _0907_
*2896 _0908_
*2897 _0909_
*2898 _0910_
*2899 _0911_
*2900 _0912_
*2901 _0913_
*2902 _0914_
*2903 _0915_
*2904 _0916_
*2905 _0917_
*2906 _0918_
*2907 _0919_
*2908 _0920_
*2909 _0921_
*2910 _0922_
*2911 _0923_
*2912 _0924_
*2913 _0925_
*2914 _0926_
*2915 _0927_
*2916 _0928_
*2917 _0929_
*2918 _0930_
*2919 _0931_
*2920 _0932_
*2921 _0933_
*2922 _0934_
*2923 _0935_
*2924 _0936_
*2925 _0937_
*2926 _0938_
*2927 _0939_
*2928 _0940_
*2929 _0941_
*2930 _0942_
*2931 _0943_
*2932 _0944_
*2933 _0945_
*2934 _0946_
*2935 _0947_
*2936 _0948_
*2937 _0949_
*2938 _0950_
*2939 _0951_
*2940 _0952_
*2941 _0953_
*2942 _0954_
*2943 _0955_
*2944 _0956_
*2945 _0957_
*2946 _0958_
*2947 _0959_
*2948 _0960_
*2949 _0961_
*2950 _0962_
*2951 _0963_
*2952 _0964_
*2953 _0965_
*2954 _0966_
*2955 _0967_
*2956 _0968_
*2957 _0969_
*2958 _0970_
*2959 _0971_
*2960 _0972_
*2961 _0973_
*2962 _0974_
*2963 _0975_
*2964 _0976_
*2965 _0977_
*2966 _0978_
*2967 _0979_
*2968 _0980_
*2969 _0981_
*2970 _0982_
*2971 _0983_
*2972 _0984_
*2973 _0985_
*2974 _0986_
*2975 _0987_
*2976 _0988_
*2977 _0989_
*2978 _0990_
*2979 _0991_
*2980 _0992_
*2981 _0993_
*2982 _0994_
*2983 _0995_
*2984 _0996_
*2985 _0997_
*2986 _0998_
*2987 _0999_
*2988 _1000_
*2989 _1001_
*2990 _1002_
*2991 _1003_
*2992 _1004_
*2993 _1005_
*2994 _1006_
*2995 _1007_
*2996 _1008_
*2997 _1009_
*2998 _1010_
*2999 _1011_
*3000 _1012_
*3001 _1013_
*3002 _1014_
*3003 _1015_
*3004 _1016_
*3005 _1017_
*3006 _1018_
*3007 _1019_
*3008 _1020_
*3009 _1021_
*3010 _1022_
*3011 _1023_
*3012 _1024_
*3013 _1025_
*3014 _1026_
*3015 _1027_
*3016 _1028_
*3017 _1029_
*3018 _1030_
*3019 _1031_
*3020 _1032_
*3021 _1033_
*3022 _1034_
*3023 _1035_
*3024 _1036_
*3025 _1037_
*3026 _1038_
*3027 _1039_
*3028 _1040_
*3029 _1041_
*3030 _1042_
*3031 _1043_
*3032 _1044_
*3033 _1045_
*3034 _1046_
*3035 _1047_
*3036 _1048_
*3037 _1049_
*3038 _1050_
*3039 _1051_
*3040 _1052_
*3041 _1053_
*3042 _1054_
*3043 _1055_
*3044 _1056_
*3045 _1057_
*3046 _1058_
*3047 _1059_
*3048 _1060_
*3049 _1061_
*3050 _1062_
*3051 _1063_
*3052 _1064_
*3053 _1065_
*3054 _1066_
*3055 _1067_
*3056 _1068_
*3057 _1069_
*3058 _1070_
*3059 _1071_
*3060 _1072_
*3061 _1073_
*3062 _1074_
*3063 _1075_
*3064 _1076_
*3065 _1077_
*3066 _1078_
*3067 _1079_
*3068 _1080_
*3069 _1081_
*3070 _1082_
*3071 _1083_
*3072 _1084_
*3073 _1085_
*3074 _1086_
*3075 _1087_
*3076 _1088_
*3077 _1089_
*3078 _1090_
*3079 _1091_
*3080 _1092_
*3081 _1093_
*3082 _1094_
*3083 _1095_
*3084 _1096_
*3085 _1097_
*3086 _1098_
*3087 _1099_
*3088 _1100_
*3089 _1101_
*3090 _1102_
*3091 _1103_
*3092 _1104_
*3093 _1105_
*3094 _1106_
*3095 _1107_
*3096 _1108_
*3097 _1109_
*3098 _1110_
*3099 clkbuf_0_clk
*3100 clkbuf_1_0__f_clk
*3101 clkbuf_1_1__f_clk
*3102 clkload0
*3103 clone12
*3104 clone15
*3105 clone6
*3106 fanout112
*3107 fanout113
*3108 fanout114
*3109 fanout115
*3110 fanout116
*3111 fanout117
*3112 fanout118
*3113 fanout119
*3114 fanout120
*3115 fanout121
*3116 fanout122
*3117 fanout123
*3118 fanout124
*3119 fanout125
*3120 fanout126
*3121 fanout127
*3122 fanout128
*3123 fanout129
*3124 fanout130
*3125 fanout131
*3126 fanout132
*3127 fanout133
*3128 fanout134
*3129 fanout135
*3130 fanout136
*3131 fanout137
*3132 fanout138
*3133 fanout139
*3134 fanout140
*3135 fanout141
*3136 fanout142
*3137 fanout143
*3138 fanout144
*3139 fanout145
*3140 fanout146
*3141 fanout147
*3142 fanout148
*3143 fanout149
*3144 fanout150
*3145 fanout151
*3146 fanout152
*3147 fanout153
*3148 fanout154
*3149 fanout155
*3150 fanout156
*3151 fanout157
*3152 fanout158
*3153 fanout159
*3154 fanout160
*3155 fanout161
*3156 fanout162
*3157 fanout163
*3158 fanout164
*3159 fanout165
*3160 fanout166
*3161 fanout167
*3162 fanout168
*3163 fanout169
*3164 fanout170
*3165 fanout171
*3166 fanout172
*3167 fanout173
*3168 fanout174
*3169 fanout175
*3170 fanout176
*3171 fanout177
*3172 fanout178
*3173 fanout179
*3174 fanout180
*3175 fanout181
*3176 fanout182
*3177 fanout184
*3178 fanout185
*3179 fanout186
*3180 fanout187
*3181 fanout188
*3182 fanout189
*3183 fanout190
*3184 fanout191
*3185 fanout192
*3186 fanout193
*3187 fanout194
*3188 fanout195
*3189 fanout196
*3190 fanout197
*3191 fanout198
*3192 fanout199
*3193 fanout200
*3194 fanout201
*3195 fanout202
*3196 fanout203
*3197 fanout204
*3198 fanout205
*3199 fanout206
*3200 fanout208
*3201 fanout209
*3202 fanout210
*3203 fanout211
*3204 fanout212
*3205 fanout213
*3206 fanout214
*3207 fanout215
*3208 fanout217
*3209 fanout218
*3210 fanout219
*3211 fanout220
*3212 fanout223
*3213 fanout224
*3214 fanout227
*3215 fanout228
*3216 fanout229
*3217 fanout230
*3218 fanout232
*3219 fanout233
*3220 fanout234
*3221 fanout235
*3222 fanout236
*3223 fanout237
*3224 fanout238
*3225 fanout239
*3226 fanout240
*3227 fanout241
*3228 fanout242
*3229 fanout243
*3230 fanout244
*3231 fanout245
*3232 fanout246
*3233 fanout247
*3234 fanout248
*3235 fanout249
*3236 hold17
*3237 hold18
*3238 hold19
*3239 hold20
*3240 hold21
*3241 hold22
*3242 input1
*3243 input10
*3244 input11
*3245 input12
*3246 input13
*3247 input14
*3248 input15
*3249 input16
*3250 input17
*3251 input18
*3252 input19
*3253 input2
*3254 input20
*3255 input21
*3256 input22
*3257 input23
*3258 input24
*3259 input25
*3260 input26
*3261 input27
*3262 input28
*3263 input29
*3264 input3
*3265 input30
*3266 input31
*3267 input32
*3268 input33
*3269 input34
*3270 input35
*3271 input36
*3272 input37
*3273 input38
*3274 input39
*3275 input4
*3276 input40
*3277 input41
*3278 input42
*3279 input43
*3280 input44
*3281 input45
*3282 input46
*3283 input47
*3284 input48
*3285 input49
*3286 input5
*3287 input50
*3288 input51
*3289 input52
*3290 input53
*3291 input54
*3292 input55
*3293 input56
*3294 input57
*3295 input58
*3296 input59
*3297 input6
*3298 input60
*3299 input61
*3300 input62
*3301 input7
*3302 input8
*3303 input9
*3304 max_cap207
*3305 max_cap222
*3306 max_cap225
*3307 max_cap226
*3308 max_cap231
*3309 output100
*3310 output101
*3311 output102
*3312 output103
*3313 output104
*3314 output105
*3315 output106
*3316 output107
*3317 output108
*3318 output109
*3319 output110
*3320 output111
*3321 output63
*3322 output64
*3323 output65
*3324 output66
*3325 output67
*3326 output68
*3327 output69
*3328 output70
*3329 output71
*3330 output72
*3331 output73
*3332 output74
*3333 output75
*3334 output76
*3335 output77
*3336 output78
*3337 output79
*3338 output80
*3339 output81
*3340 output82
*3341 output83
*3342 output84
*3343 output85
*3344 output86
*3345 output87
*3346 output88
*3347 output89
*3348 output90
*3349 output91
*3350 output92
*3351 output93
*3352 output94
*3353 output95
*3354 output96
*3355 output97
*3356 output98
*3357 output99
*3358 rebuffer1
*3359 rebuffer10
*3360 rebuffer11
*3361 rebuffer13
*3362 rebuffer14
*3363 rebuffer16
*3364 rebuffer2
*3365 rebuffer3
*3366 rebuffer4
*3367 rebuffer5
*3368 rebuffer7
*3369 rebuffer8
*3370 rebuffer9
*3371 wire216
*3372 wire221

*PORTS
PADDR[0] O
PADDR[1] O
PADDR[2] O
PENABLE O
PRDATA[0] I
PRDATA[10] I
PRDATA[11] I
PRDATA[12] I
PRDATA[13] I
PRDATA[14] I
PRDATA[15] I
PRDATA[1] I
PRDATA[2] I
PRDATA[3] I
PRDATA[4] I
PRDATA[5] I
PRDATA[6] I
PRDATA[7] I
PRDATA[8] I
PRDATA[9] I
PREADY I
PSEL1 O
PSEL2 O
PSEL3 O
PSEL4 O
PWDATA[0] O
PWDATA[10] O
PWDATA[11] O
PWDATA[12] O
PWDATA[13] O
PWDATA[14] O
PWDATA[15] O
PWDATA[1] O
PWDATA[2] O
PWDATA[3] O
PWDATA[4] O
PWDATA[5] O
PWDATA[6] O
PWDATA[7] O
PWDATA[8] O
PWDATA[9] O
PWRITE O
araddr[0] I
araddr[1] I
araddr[2] I
araddr[3] I
araddr[4] I
arburst[0] I
arburst[1] I
arlen[0] I
arlen[1] I
arlen[2] I
arlen[3] I
arready O
arvalid I
awaddr[0] I
awaddr[1] I
awaddr[2] I
awaddr[3] I
awaddr[4] I
awburst[0] I
awburst[1] I
awlen[0] I
awlen[1] I
awlen[2] I
awlen[3] I
awready O
awvalid I
bready I
bresp O
bvalid O
clk I
rdata[0] O
rdata[10] O
rdata[11] O
rdata[12] O
rdata[13] O
rdata[14] O
rdata[15] O
rdata[1] O
rdata[2] O
rdata[3] O
rdata[4] O
rdata[5] O
rdata[6] O
rdata[7] O
rdata[8] O
rdata[9] O
res_n I
rlast O
rready I
rresp O
rvalid O
wdata[0] I
wdata[10] I
wdata[11] I
wdata[12] I
wdata[13] I
wdata[14] I
wdata[15] I
wdata[1] I
wdata[2] I
wdata[3] I
wdata[4] I
wdata[5] I
wdata[6] I
wdata[7] I
wdata[8] I
wdata[9] I
wlast I
wready O
wvalid I

*D_NET *1 0.00246713
*CONN
*P PADDR[0] O
*I *3321:X O *D sky130_fd_sc_hd__buf_2
*CAP
1 PADDR[0] 0.000619158
2 *3321:X 0.000619158
3 PADDR[0] PSEL3 0.000110425
4 PADDR[0] *3252:A 7.34964e-05
5 PADDR[0] *3265:A 0.000237055
6 PADDR[0] *3269:A 7.29049e-05
7 PADDR[0] *3270:A 0.000123847
8 PADDR[0] *3311:A 0
9 PADDR[0] *794:12 0.00015862
10 PADDR[0] *990:12 0.000452468
*RES
1 *3321:X PADDR[0] 31.5508 
*END

*D_NET *2 0.00230658
*CONN
*P PADDR[1] O
*I *3322:X O *D sky130_fd_sc_hd__buf_2
*CAP
1 PADDR[1] 0.000702365
2 *3322:X 0.000702365
3 PADDR[1] PSEL1 2.58821e-05
4 PADDR[1] arready 0.000146309
5 PADDR[1] *2759:A1 5.52238e-05
6 PADDR[1] *2759:B2 0.000271345
7 PADDR[1] *3254:A 7.04286e-05
8 PADDR[1] *3267:A 0.000164713
9 PADDR[1] *3278:A 0.000139037
10 PADDR[1] *1024:12 2.89114e-05
*RES
1 *3322:X PADDR[1] 24.1828 
*END

*D_NET *3 0.00340727
*CONN
*P PADDR[2] O
*I *3323:X O *D sky130_fd_sc_hd__buf_2
*CAP
1 PADDR[2] 0.000855021
2 *3323:X 0.000855021
3 PADDR[2] PENABLE 9.1414e-05
4 PADDR[2] *2436:C 3.75452e-05
5 PADDR[2] *2758:B 0.000218679
6 PADDR[2] *3263:A 0
7 PADDR[2] *3266:A 8.92165e-05
8 PADDR[2] *3327:A 6.26559e-05
9 PADDR[2] *3361:A 0.000161947
10 PADDR[2] *503:31 2.14757e-05
11 PADDR[2] *505:6 9.41642e-05
12 PADDR[2] *505:10 3.63805e-05
13 PADDR[2] *989:18 0
14 PADDR[2] *1022:24 0.000621107
15 PADDR[2] *1024:12 0.000262647
*RES
1 *3323:X PADDR[2] 30.2185 
*END

*D_NET *4 0.00101911
*CONN
*P PENABLE O
*I *3324:X O *D sky130_fd_sc_hd__buf_2
*CAP
1 PENABLE 0.000322021
2 *3324:X 0.000322021
3 PENABLE *2437:A 3.48013e-05
4 PENABLE *3263:A 0.000115509
5 PENABLE *794:12 0.000133344
6 PENABLE *989:18 0
7 PADDR[2] PENABLE 9.1414e-05
*RES
1 *3324:X PENABLE 21.3027 
*END

*D_NET *5 0.00084331
*CONN
*P PRDATA[0] I
*I *3242:A I *D sky130_fd_sc_hd__clkbuf_1
*CAP
1 PRDATA[0] 0.000421655
2 *3242:A 0.000421655
3 *3242:A rdata[12] 0
*RES
1 PRDATA[0] *3242:A 21.8357 
*END

*D_NET *6 0.000893871
*CONN
*P PRDATA[10] I
*I *3253:A I *D sky130_fd_sc_hd__clkbuf_1
*CAP
1 PRDATA[10] 0.000404864
2 *3253:A 0.000404864
3 *3253:A *3282:A 0
4 *3253:A *3287:A 0
5 *3253:A *3353:A 2.89114e-05
6 *3253:A *790:8 5.52302e-05
*RES
1 PRDATA[10] *3253:A 21.8357 
*END

*D_NET *7 0.000893871
*CONN
*P PRDATA[11] I
*I *3264:A I *D sky130_fd_sc_hd__clkbuf_1
*CAP
1 PRDATA[11] 0.000404864
2 *3264:A 0.000404864
3 *3264:A *3282:A 0
4 *3264:A *3291:A 0
5 *3264:A *3353:A 2.89114e-05
6 *3264:A *790:8 5.52302e-05
*RES
1 PRDATA[11] *3264:A 21.8357 
*END

*D_NET *8 0.000691882
*CONN
*P PRDATA[12] I
*I *3275:A I *D sky130_fd_sc_hd__clkbuf_1
*CAP
1 PRDATA[12] 0.000195864
2 *3275:A 0.000195864
3 *3275:A PWDATA[10] 9.23325e-05
4 *3275:A PWDATA[12] 9.23325e-05
5 *3275:A *987:10 0.00011549
6 *3275:A *1057:14 0
*RES
1 PRDATA[12] *3275:A 19.4092 
*END

*D_NET *9 0.000990337
*CONN
*P PRDATA[13] I
*I *3286:A I *D sky130_fd_sc_hd__clkbuf_1
*CAP
1 PRDATA[13] 0.000495168
2 *3286:A 0.000495168
3 *3286:A *3300:A 0
*RES
1 PRDATA[13] *3286:A 23.6571 
*END

*D_NET *10 0.00134734
*CONN
*P PRDATA[14] I
*I *3297:A I *D sky130_fd_sc_hd__buf_1
*CAP
1 PRDATA[14] 0.000296764
2 *3297:A 0.000296764
3 *3297:A PWDATA[11] 0.000110364
4 *3297:A PWDATA[2] 8.92165e-05
5 *3297:A rdata[14] 0.000137678
6 *3297:A *3310:A 0.000114843
7 *3297:A *1016:22 0.000301715
*RES
1 PRDATA[14] *3297:A 22.7485 
*END

*D_NET *11 0.000518097
*CONN
*P PRDATA[15] I
*I *3301:A I *D sky130_fd_sc_hd__clkbuf_1
*CAP
1 PRDATA[15] 0.000160851
2 *3301:A 0.000160851
3 *3301:A PWDATA[12] 8.54999e-05
4 *3301:A PWDATA[15] 8.97528e-05
5 *3301:A *987:10 2.11419e-05
6 *3301:A *1057:14 0
*RES
1 PRDATA[15] *3301:A 18.1949 
*END

*D_NET *12 0.00102059
*CONN
*P PRDATA[1] I
*I *3302:A I *D sky130_fd_sc_hd__clkbuf_1
*CAP
1 PRDATA[1] 0.000510293
2 *3302:A 0.000510293
3 *3302:A wready 0
4 *3302:A *3279:A 0
*RES
1 PRDATA[1] *3302:A 23.6571 
*END

*D_NET *13 0.00110989
*CONN
*P PRDATA[2] I
*I *3303:A I *D sky130_fd_sc_hd__clkbuf_1
*CAP
1 PRDATA[2] 0.000412087
2 *3303:A 0.000412087
3 *3303:A *3287:A 0
4 *3303:A *3290:A 0
5 *3303:A *3353:A 0.000142856
6 *3303:A *790:8 0.000142856
*RES
1 PRDATA[2] *3303:A 22.6571 
*END

*D_NET *14 0.00194205
*CONN
*P PRDATA[3] I
*I *3243:A I *D sky130_fd_sc_hd__buf_1
*CAP
1 PRDATA[3] 0.000627027
2 *3243:A 0.000627027
3 *3243:A rdata[11] 0
4 *3243:A *3245:A 0.000688
*RES
1 PRDATA[3] *3243:A 28.98 
*END

*D_NET *15 0.000990337
*CONN
*P PRDATA[4] I
*I *3244:A I *D sky130_fd_sc_hd__clkbuf_1
*CAP
1 PRDATA[4] 0.000495168
2 *3244:A 0.000495168
3 *3244:A *3259:A 0
4 *3244:A *3300:A 0
*RES
1 PRDATA[4] *3244:A 23.6571 
*END

*D_NET *16 0.0023427
*CONN
*P PRDATA[5] I
*I *3245:A I *D sky130_fd_sc_hd__buf_1
*CAP
1 PRDATA[5] 0.000372091
2 *3245:A 0.000372091
3 *3245:A PWDATA[0] 9.23325e-05
4 *3245:A rdata[11] 0
5 *3245:A rdata[14] 0.000818183
6 *3243:A *3245:A 0.000688
*RES
1 PRDATA[5] *3245:A 28.2128 
*END

*D_NET *17 0.000717412
*CONN
*P PRDATA[6] I
*I *3246:A I *D sky130_fd_sc_hd__clkbuf_1
*CAP
1 PRDATA[6] 0.000195127
2 *3246:A 0.000195127
3 *3246:A PWDATA[6] 8.47995e-05
4 *3246:A PWDATA[7] 9.23325e-05
5 *3246:A *2649:A1 3.454e-05
6 *3246:A *3342:A 0
7 *3246:A *987:10 0.000115485
*RES
1 PRDATA[6] *3246:A 19.4092 
*END

*D_NET *18 0.00170332
*CONN
*P PRDATA[7] I
*I *3247:A I *D sky130_fd_sc_hd__clkbuf_1
*CAP
1 PRDATA[7] 0.000472533
2 *3247:A 0.000472533
3 *3247:A *2643:A0 0.000315158
4 *3247:A *2646:A1 0
5 *3247:A *2650:A1 4.51526e-05
6 *3247:A *3281:A 0.000140933
7 *3247:A *3295:A 0
8 *3247:A *3353:A 7.03393e-05
9 *3247:A *790:8 0.000186669
*RES
1 PRDATA[7] *3247:A 25.5321 
*END

*D_NET *19 0.00212084
*CONN
*P PRDATA[8] I
*I *3248:A I *D sky130_fd_sc_hd__clkbuf_1
*CAP
1 PRDATA[8] 0.000771033
2 *3248:A 0.000771033
3 *3248:A PWDATA[0] 0.000176993
4 *3248:A PWDATA[5] 0.000229044
5 *3248:A rdata[3] 0
6 *3248:A rdata[7] 2.06413e-05
7 *3248:A *3313:A 0
8 *3248:A *3314:A 9.25014e-06
9 *3248:A *791:14 0.00014285
10 *3248:A *1016:22 0
*RES
1 PRDATA[8] *3248:A 22.1356 
*END

*D_NET *20 0.00087571
*CONN
*P PRDATA[9] I
*I *3249:A I *D sky130_fd_sc_hd__clkbuf_1
*CAP
1 PRDATA[9] 0.000426506
2 *3249:A 0.000426506
3 *3249:A *3281:A 0
4 *3249:A *3284:A 0
5 *3249:A *1055:16 2.26973e-05
*RES
1 PRDATA[9] *3249:A 21.8357 
*END

*D_NET *21 0.00106134
*CONN
*P PREADY I
*I *3250:A I *D sky130_fd_sc_hd__clkbuf_2
*CAP
1 PREADY 0.000514735
2 *3250:A 0.000514735
3 *3250:A rdata[5] 0
4 *3250:A *2710:C1 3.18676e-05
5 *3250:A *3262:A 0
*RES
1 PREADY *3250:A 23.8893 
*END

*D_NET *22 0.00362066
*CONN
*P PSEL1 O
*I *3325:X O *D sky130_fd_sc_hd__buf_6
*CAP
1 PSEL1 0.00080014
2 *3325:X 0.00080014
3 PSEL1 PSEL3 0
4 PSEL1 rdata[4] 0.000500832
5 PSEL1 *2759:B2 2.59355e-05
6 PSEL1 *3254:A 0.00134951
7 PSEL1 *3278:A 0
8 PSEL1 *3311:A 5.33005e-05
9 PSEL1 *3321:A 9.69119e-06
10 PSEL1 *1024:12 5.52302e-05
11 PADDR[1] PSEL1 2.58821e-05
*RES
1 *3325:X PSEL1 36.1987 
*END

*D_NET *23 0.0019038
*CONN
*P PSEL2 O
*I *3326:X O *D sky130_fd_sc_hd__buf_6
*CAP
1 PSEL2 0.000595722
2 *3326:X 0.000595722
3 PSEL2 PSEL4 0
4 PSEL2 PWRITE 0.000106071
5 PSEL2 *2437:B 4.38243e-05
6 PSEL2 *2438:B 2.89114e-05
7 PSEL2 *2662:S 4.58194e-05
8 PSEL2 *2825:D 9.90431e-05
9 PSEL2 *3263:A 0.000128072
10 PSEL2 *3324:A 2.77173e-05
11 PSEL2 *3345:A 0.0001406
12 PSEL2 *767:27 9.22948e-05
*RES
1 *3326:X PSEL2 22.612 
*END

*D_NET *24 0.00225634
*CONN
*P PSEL3 O
*I *3327:X O *D sky130_fd_sc_hd__buf_6
*CAP
1 PSEL3 0.000687293
2 *3327:X 0.000687293
3 PSEL3 rdata[4] 0.00022712
4 PSEL3 *3254:A 9.63574e-05
5 PSEL3 *3267:A 9.63574e-05
6 PSEL3 *3270:A 0
7 PSEL3 *3311:A 0.000338346
8 PSEL3 *3321:A 1.31516e-05
9 PADDR[0] PSEL3 0.000110425
10 PSEL1 PSEL3 0
*RES
1 *3327:X PSEL3 31.017 
*END

*D_NET *25 0.00219864
*CONN
*P PSEL4 O
*I *3328:X O *D sky130_fd_sc_hd__buf_6
*CAP
1 PSEL4 0.00055717
2 *3328:X 0.00055717
3 PSEL4 PWRITE 9.8005e-05
4 PSEL4 *2660:A1 9.86823e-05
5 PSEL4 *2661:A1 0.000134561
6 PSEL4 *3255:A 8.97528e-05
7 PSEL4 *935:12 0.000663301
8 PSEL4 *987:10 0
9 PSEL2 PSEL4 0
*RES
1 *3328:X PSEL4 26.7517 
*END

*D_NET *26 0.0040659
*CONN
*P PWDATA[0] O
*I *3329:X O *D sky130_fd_sc_hd__buf_2
*CAP
1 PWDATA[0] 0.00112323
2 *3329:X 0.00112323
3 PWDATA[0] PWDATA[5] 9.41642e-05
4 PWDATA[0] rdata[10] 0.000296457
5 PWDATA[0] rdata[3] 0
6 PWDATA[0] *2461:A 1.85932e-05
7 PWDATA[0] *2461:B 0.000287627
8 PWDATA[0] *2802:D 0.000110527
9 PWDATA[0] *2809:D 2.27416e-05
10 PWDATA[0] *3340:A 5.17614e-05
11 PWDATA[0] *77:20 0.000137983
12 PWDATA[0] *1054:28 0.00053027
13 *3245:A PWDATA[0] 9.23325e-05
14 *3248:A PWDATA[0] 0.000176993
*RES
1 *3329:X PWDATA[0] 36.3977 
*END

*D_NET *27 0.000987097
*CONN
*P PWDATA[10] O
*I *3330:X O *D sky130_fd_sc_hd__buf_2
*CAP
1 PWDATA[10] 0.000355681
2 *3330:X 0.000355681
3 PWDATA[10] PWDATA[12] 0
4 PWDATA[10] PWDATA[9] 0.00014181
5 PWDATA[10] *3310:A 0
6 PWDATA[10] *3330:A 4.15914e-05
7 PWDATA[10] *1057:14 0
8 *3275:A PWDATA[10] 9.23325e-05
*RES
1 *3330:X PWDATA[10] 19.8416 
*END

*D_NET *28 0.000696981
*CONN
*P PWDATA[11] O
*I *3331:X O *D sky130_fd_sc_hd__buf_2
*CAP
1 PWDATA[11] 0.000237334
2 *3331:X 0.000237334
3 PWDATA[11] PWDATA[2] 0
4 PWDATA[11] *3268:A 8.97528e-05
5 PWDATA[11] *3310:A 2.21972e-05
6 *3297:A PWDATA[11] 0.000110364
*RES
1 *3331:X PWDATA[11] 18.267 
*END

*D_NET *29 0.000864792
*CONN
*P PWDATA[12] O
*I *3332:X O *D sky130_fd_sc_hd__buf_2
*CAP
1 PWDATA[12] 0.000332053
2 *3332:X 0.000332053
3 PWDATA[12] *3332:A 2.28544e-05
4 PWDATA[12] *1057:14 0
5 PWDATA[10] PWDATA[12] 0
6 *3275:A PWDATA[12] 9.23325e-05
7 *3301:A PWDATA[12] 8.54999e-05
*RES
1 *3332:X PWDATA[12] 18.9309 
*END

*D_NET *30 0.000556952
*CONN
*P PWDATA[13] O
*I *3333:X O *D sky130_fd_sc_hd__buf_2
*CAP
1 PWDATA[13] 0.000168112
2 *3333:X 0.000168112
3 PWDATA[13] PWDATA[1] 9.94734e-05
4 PWDATA[13] PWDATA[4] 9.94734e-05
5 PWDATA[13] *3333:A 1.21859e-05
6 PWDATA[13] *987:10 9.59532e-06
*RES
1 *3333:X PWDATA[13] 18.267 
*END

*D_NET *31 0.000546276
*CONN
*P PWDATA[14] O
*I *3334:X O *D sky130_fd_sc_hd__buf_2
*CAP
1 PWDATA[14] 0.000160853
2 *3334:X 0.000160853
3 PWDATA[14] PWDATA[3] 0.000102046
4 PWDATA[14] PWDATA[6] 9.94734e-05
5 PWDATA[14] *3338:A 1.28585e-05
6 PWDATA[14] *987:10 1.01912e-05
*RES
1 *3334:X PWDATA[14] 18.267 
*END

*D_NET *32 0.000731029
*CONN
*P PWDATA[15] O
*I *3335:X O *D sky130_fd_sc_hd__buf_2
*CAP
1 PWDATA[15] 0.000209915
2 *3335:X 0.000209915
3 PWDATA[15] PWDATA[7] 9.94734e-05
4 PWDATA[15] *3335:A 6.27457e-05
5 PWDATA[15] *987:10 5.92267e-05
6 *3301:A PWDATA[15] 8.97528e-05
*RES
1 *3335:X PWDATA[15] 19.4813 
*END

*D_NET *33 0.000784172
*CONN
*P PWDATA[1] O
*I *3336:X O *D sky130_fd_sc_hd__buf_2
*CAP
1 PWDATA[1] 0.000227977
2 *3336:X 0.000227977
3 PWDATA[1] *3257:A 0.000102046
4 PWDATA[1] *3336:A 3.92757e-05
5 PWDATA[1] *935:12 0
6 PWDATA[1] *987:10 8.74238e-05
7 PWDATA[13] PWDATA[1] 9.94734e-05
*RES
1 *3336:X PWDATA[1] 20.0884 
*END

*D_NET *34 0.00184908
*CONN
*P PWDATA[2] O
*I *3337:X O *D sky130_fd_sc_hd__buf_2
*CAP
1 PWDATA[2] 0.000462312
2 *3337:X 0.000462312
3 PWDATA[2] PWDATA[5] 7.09336e-05
4 PWDATA[2] rdata[10] 0.000103847
5 PWDATA[2] *2807:D 0.000150611
6 PWDATA[2] *3350:A 0.000349222
7 PWDATA[2] *813:26 0.000117997
8 PWDATA[2] *1016:22 4.26315e-05
9 PWDATA[11] PWDATA[2] 0
10 *3297:A PWDATA[2] 8.92165e-05
*RES
1 *3337:X PWDATA[2] 22.8773 
*END

*D_NET *35 0.000633969
*CONN
*P PWDATA[3] O
*I *3338:X O *D sky130_fd_sc_hd__buf_2
*CAP
1 PWDATA[3] 0.000181904
2 *3338:X 0.000181904
3 PWDATA[3] PWDATA[8] 0.000102046
4 PWDATA[3] *3338:A 3.454e-05
5 PWDATA[3] *987:10 3.15282e-05
6 PWDATA[14] PWDATA[3] 0.000102046
*RES
1 *3338:X PWDATA[3] 18.8741 
*END

*D_NET *36 0.000564143
*CONN
*P PWDATA[4] O
*I *3339:X O *D sky130_fd_sc_hd__buf_2
*CAP
1 PWDATA[4] 0.000184783
2 *3339:X 0.000184783
3 PWDATA[4] *3258:A 8.54999e-05
4 PWDATA[4] *935:12 0
5 PWDATA[4] *987:10 9.60337e-06
6 PWDATA[13] PWDATA[4] 9.94734e-05
*RES
1 *3339:X PWDATA[4] 18.267 
*END

*D_NET *37 0.00296109
*CONN
*P PWDATA[5] O
*I *3340:X O *D sky130_fd_sc_hd__buf_2
*CAP
1 PWDATA[5] 0.000784418
2 *3340:X 0.000784418
3 PWDATA[5] rdata[3] 0.000196657
4 PWDATA[5] *2627:A 5.44215e-05
5 PWDATA[5] *2638:B 1.41029e-05
6 PWDATA[5] *2802:D 6.8646e-06
7 PWDATA[5] *2802:GATE_N 4.53834e-05
8 PWDATA[5] *2807:GATE_N 0.000144038
9 PWDATA[5] *880:62 0
10 PWDATA[5] *880:86 0
11 PWDATA[5] *1016:22 0.000415068
12 PWDATA[5] *1054:28 0.000121573
13 PWDATA[0] PWDATA[5] 9.41642e-05
14 PWDATA[2] PWDATA[5] 7.09336e-05
15 *3248:A PWDATA[5] 0.000229044
*RES
1 *3340:X PWDATA[5] 25.1516 
*END

*D_NET *38 0.000726343
*CONN
*P PWDATA[6] O
*I *3341:X O *D sky130_fd_sc_hd__buf_2
*CAP
1 PWDATA[6] 0.000236801
2 *3341:X 0.000236801
3 PWDATA[6] PWDATA[7] 0
4 PWDATA[6] *2649:A1 9.25014e-06
5 PWDATA[6] *842:18 0
6 PWDATA[6] *987:10 5.92181e-05
7 PWDATA[14] PWDATA[6] 9.94734e-05
8 *3246:A PWDATA[6] 8.47995e-05
*RES
1 *3341:X PWDATA[6] 19.4813 
*END

*D_NET *39 0.000876518
*CONN
*P PWDATA[7] O
*I *3342:X O *D sky130_fd_sc_hd__buf_2
*CAP
1 PWDATA[7] 0.000326592
2 *3342:X 0.000326592
3 PWDATA[7] *3342:A 3.15282e-05
4 PWDATA[7] *842:18 0
5 PWDATA[15] PWDATA[7] 9.94734e-05
6 PWDATA[6] PWDATA[7] 0
7 *3246:A PWDATA[7] 9.23325e-05
*RES
1 *3342:X PWDATA[7] 19.2345 
*END

*D_NET *40 0.00099132
*CONN
*P PWDATA[8] O
*I *3343:X O *D sky130_fd_sc_hd__buf_2
*CAP
1 PWDATA[8] 0.000361835
2 *3343:X 0.000361835
3 PWDATA[8] *3257:A 0.000114543
4 PWDATA[8] *3343:A 5.10602e-05
5 PWDATA[8] *842:18 0
6 PWDATA[8] *987:10 0
7 PWDATA[3] PWDATA[8] 0.000102046
*RES
1 *3343:X PWDATA[8] 20.1452 
*END

*D_NET *41 0.00083348
*CONN
*P PWDATA[9] O
*I *3344:X O *D sky130_fd_sc_hd__buf_2
*CAP
1 PWDATA[9] 0.000297574
2 *3344:X 0.000297574
3 PWDATA[9] *3268:A 8.63301e-05
4 PWDATA[9] *3344:A 1.01912e-05
5 PWDATA[9] *1057:14 0
6 PWDATA[10] PWDATA[9] 0.00014181
*RES
1 *3344:X PWDATA[9] 18.6273 
*END

*D_NET *42 0.000632632
*CONN
*P PWRITE O
*I *3345:X O *D sky130_fd_sc_hd__buf_8
*CAP
1 PWRITE 0.000211142
2 *3345:X 0.000211142
3 PWRITE *794:12 6.27272e-06
4 PWRITE *935:12 0
5 PSEL2 PWRITE 0.000106071
6 PSEL4 PWRITE 9.8005e-05
*RES
1 *3345:X PWRITE 18.3391 
*END

*D_NET *45 0.00327729
*CONN
*P araddr[0] I
*I *3251:A I *D sky130_fd_sc_hd__clkbuf_1
*CAP
1 araddr[0] 0.00124694
2 *3251:A 0.00124694
3 *3251:A arready 0.000253533
4 *3251:A *2750:A 2.84109e-05
5 *3251:A *2751:B1 1.66761e-05
6 *3251:A *2753:B1 5.33005e-05
7 *3251:A *2760:A2 0
8 *3251:A *3090:CLK 0.000254261
9 *3251:A *3092:D 0
10 *3251:A *3252:A 0
11 *3251:A *3265:A 7.69231e-05
12 *3251:A *3278:A 0
13 *3251:A *505:38 3.17148e-05
14 *3251:A *505:57 3.8326e-05
15 *3251:A *505:61 3.02517e-05
*RES
1 araddr[0] *3251:A 23.8563 
*END

*D_NET *46 0.00103167
*CONN
*P araddr[1] I
*I *3252:A I *D sky130_fd_sc_hd__clkbuf_1
*CAP
1 araddr[1] 0.000262635
2 *3252:A 0.000262635
3 *3252:A *3265:A 0.000306168
4 *3252:A *3269:A 0
5 *3252:A *3311:A 0.000126736
6 PADDR[0] *3252:A 7.34964e-05
7 *3251:A *3252:A 0
*RES
1 araddr[1] *3252:A 20.9271 
*END

*D_NET *47 0.00527552
*CONN
*P araddr[2] I
*I *3254:A I *D sky130_fd_sc_hd__clkbuf_1
*CAP
1 araddr[2] 0.00138207
2 *3254:A 0.00138207
3 *3254:A *2759:A2 0.000351029
4 *3254:A *2759:B2 1.02821e-05
5 *3254:A *3267:A 0.00022138
6 *3254:A *3278:A 0.00028555
7 *3254:A *3321:A 0
8 *3254:A *1024:12 1.49749e-05
9 *3254:A *1047:123 0.000111872
10 PADDR[1] *3254:A 7.04286e-05
11 PSEL1 *3254:A 0.00134951
12 PSEL3 *3254:A 9.63574e-05
*RES
1 araddr[2] *3254:A 40.9672 
*END

*D_NET *48 0.00118583
*CONN
*P araddr[3] I
*I *3255:A I *D sky130_fd_sc_hd__clkbuf_1
*CAP
1 araddr[3] 0.000255018
2 *3255:A 0.000255018
3 *3255:A *2660:A1 0.000132426
4 *3255:A *2661:A1 2.91931e-05
5 *3255:A *3256:A 9.54485e-05
6 *3255:A *794:12 0.000328976
7 PSEL4 *3255:A 8.97528e-05
*RES
1 araddr[3] *3255:A 22.1413 
*END

*D_NET *49 0.000796324
*CONN
*P araddr[4] I
*I *3256:A I *D sky130_fd_sc_hd__clkbuf_1
*CAP
1 araddr[4] 0.000224208
2 *3256:A 0.000224208
3 *3256:A *2660:A1 0.000101797
4 *3256:A *3258:A 9.23325e-05
5 *3256:A *794:12 5.83304e-05
6 *3255:A *3256:A 9.54485e-05
*RES
1 araddr[4] *3256:A 20.3199 
*END

*D_NET *50 0.000708977
*CONN
*P arburst[0] I
*I *3257:A I *D sky130_fd_sc_hd__clkbuf_1
*CAP
1 arburst[0] 0.00024142
2 *3257:A 0.00024142
3 *3257:A *3336:A 9.54798e-06
4 *3257:A *842:18 0
5 PWDATA[1] *3257:A 0.000102046
6 PWDATA[8] *3257:A 0.000114543
*RES
1 arburst[0] *3257:A 18.4832 
*END

*D_NET *51 0.000557214
*CONN
*P arburst[1] I
*I *3258:A I *D sky130_fd_sc_hd__clkbuf_1
*CAP
1 arburst[1] 0.000166921
2 *3258:A 0.000166921
3 *3258:A *935:12 0
4 *3258:A *987:10 4.5539e-05
5 PWDATA[4] *3258:A 8.54999e-05
6 *3256:A *3258:A 9.23325e-05
*RES
1 arburst[1] *3258:A 18.4985 
*END

*D_NET *52 0.00105571
*CONN
*P arlen[0] I
*I *3259:A I *D sky130_fd_sc_hd__clkbuf_2
*CAP
1 arlen[0] 0.000475369
2 *3259:A 0.000475369
3 *3259:A rvalid 0
4 *3259:A *957:10 0.000104974
5 *3244:A *3259:A 0
*RES
1 arlen[0] *3259:A 23.7643 
*END

*D_NET *53 0.00200853
*CONN
*P arlen[1] I
*I *3260:A I *D sky130_fd_sc_hd__dlymetal6s2s_1
*CAP
1 arlen[1] 0.000841415
2 *3260:A 0.000841415
3 *3260:A *3270:A 0
4 *3260:A *3271:A 0.000183726
5 *3260:A *990:12 0.000141975
*RES
1 arlen[1] *3260:A 30.6571 
*END

*D_NET *54 0.00190396
*CONN
*P arlen[2] I
*I *3261:A I *D sky130_fd_sc_hd__buf_1
*CAP
1 arlen[2] 0.00064073
2 *3261:A 0.00064073
3 *3261:A rdata[13] 3.69047e-06
4 *3261:A rdata[5] 0.000357054
5 *3261:A *2710:B2 7.39203e-06
6 *3261:A *882:8 7.00853e-05
7 *3261:A *882:19 0.000184281
*RES
1 arlen[2] *3261:A 28.2643 
*END

*D_NET *55 0.00109618
*CONN
*P arlen[3] I
*I *3262:A I *D sky130_fd_sc_hd__buf_1
*CAP
1 arlen[3] 0.000540941
2 *3262:A 0.000540941
3 *3262:A *2709:A1 1.43e-05
4 *3250:A *3262:A 0
*RES
1 arlen[3] *3262:A 24.4786 
*END

*D_NET *56 0.00261113
*CONN
*P arready O
*I *3346:X O *D sky130_fd_sc_hd__buf_2
*CAP
1 arready 0.000897122
2 *3346:X 0.000897122
3 arready *2759:A1 0
4 arready *3267:A 7.55769e-05
5 arready *3278:A 0.000299216
6 arready *3322:A 3.19493e-05
7 arready *3349:A 1.02969e-05
8 PADDR[1] arready 0.000146309
9 *3251:A arready 0.000253533
*RES
1 *3346:X arready 20.9947 
*END

*D_NET *57 0.000971852
*CONN
*P arvalid I
*I *3263:A I *D sky130_fd_sc_hd__dlymetal6s2s_1
*CAP
1 arvalid 0.000274649
2 *3263:A 0.000274649
3 *3263:A *2437:A 6.39808e-05
4 *3263:A *989:18 0.000114992
5 PADDR[2] *3263:A 0
6 PENABLE *3263:A 0.000115509
7 PSEL2 *3263:A 0.000128072
*RES
1 arvalid *3263:A 19.6975 
*END

*D_NET *58 0.00110231
*CONN
*P awaddr[0] I
*I *3265:A I *D sky130_fd_sc_hd__clkbuf_1
*CAP
1 awaddr[0] 0.000238573
2 *3265:A 0.000238573
3 *3265:A *3311:A 5.01876e-06
4 PADDR[0] *3265:A 0.000237055
5 *3251:A *3265:A 7.69231e-05
6 *3252:A *3265:A 0.000306168
*RES
1 awaddr[0] *3265:A 21.3907 
*END

*D_NET *59 0.000852169
*CONN
*P awaddr[1] I
*I *3266:A I *D sky130_fd_sc_hd__clkbuf_1
*CAP
1 awaddr[1] 0.000243132
2 *3266:A 0.000243132
3 *3266:A *3269:A 8.66369e-05
4 *3266:A *794:12 0.000190051
5 *3266:A *989:18 0
6 PADDR[2] *3266:A 8.92165e-05
*RES
1 awaddr[1] *3266:A 20.3199 
*END

*D_NET *60 0.00294008
*CONN
*P awaddr[2] I
*I *3267:A I *D sky130_fd_sc_hd__clkbuf_1
*CAP
1 awaddr[2] 0.00101623
2 *3267:A 0.00101623
3 *3267:A bresp 0
4 *3267:A bvalid 6.08008e-05
5 *3267:A rdata[13] 0
6 *3267:A *2759:A1 0
7 *3267:A *2759:A2 4.18895e-05
8 *3267:A *3278:A 0
9 *3267:A *3349:A 0.000114039
10 *3267:A *1047:123 0.000132872
11 PADDR[1] *3267:A 0.000164713
12 PSEL3 *3267:A 9.63574e-05
13 arready *3267:A 7.55769e-05
14 *3254:A *3267:A 0.00022138
*RES
1 awaddr[2] *3267:A 27.5132 
*END

*D_NET *61 0.000591848
*CONN
*P awaddr[3] I
*I *3268:A I *D sky130_fd_sc_hd__buf_1
*CAP
1 awaddr[3] 0.000187682
2 *3268:A 0.000187682
3 *3268:A *3310:A 4.04012e-05
4 PWDATA[11] *3268:A 8.97528e-05
5 PWDATA[9] *3268:A 8.63301e-05
*RES
1 awaddr[3] *3268:A 18.8021 
*END

*D_NET *62 0.00122103
*CONN
*P awaddr[4] I
*I *3269:A I *D sky130_fd_sc_hd__clkbuf_1
*CAP
1 awaddr[4] 0.000364619
2 *3269:A 0.000364619
3 *3269:A *794:12 0.000332254
4 *3269:A *989:18 0
5 PADDR[0] *3269:A 7.29049e-05
6 *3252:A *3269:A 0
7 *3266:A *3269:A 8.66369e-05
*RES
1 awaddr[4] *3269:A 22.1413 
*END

*D_NET *63 0.00213201
*CONN
*P awburst[0] I
*I *3270:A I *D sky130_fd_sc_hd__clkbuf_1
*CAP
1 awburst[0] 0.000845354
2 *3270:A 0.000845354
3 *3270:A rdata[4] 0
4 *3270:A *990:12 0.000317452
5 PADDR[0] *3270:A 0.000123847
6 PSEL3 *3270:A 0
7 *3260:A *3270:A 0
*RES
1 awburst[0] *3270:A 30.6929 
*END

*D_NET *64 0.00215413
*CONN
*P awburst[1] I
*I *3271:A I *D sky130_fd_sc_hd__clkbuf_1
*CAP
1 awburst[1] 0.000662268
2 *3271:A 0.000662268
3 *3271:A bresp 0
4 *3271:A *3278:A 0.000421282
5 *3271:A *968:14 0.000224583
6 *3260:A *3271:A 0.000183726
*RES
1 awburst[1] *3271:A 29.5321 
*END

*D_NET *65 0.00100118
*CONN
*P awlen[0] I
*I *3272:A I *D sky130_fd_sc_hd__dlymetal6s2s_1
*CAP
1 awlen[0] 0.000500588
2 *3272:A 0.000500588
3 *3272:A rlast 0
4 *3272:A *3299:A 0
5 *3272:A *3347:A 0
6 *3272:A *957:16 0
*RES
1 awlen[0] *3272:A 23.6571 
*END

*D_NET *66 0.00101604
*CONN
*P awlen[1] I
*I *3273:A I *D sky130_fd_sc_hd__clkbuf_1
*CAP
1 awlen[1] 0.000508019
2 *3273:A 0.000508019
3 *3273:A *3279:A 0
4 *3273:A *74:9 0
*RES
1 awlen[1] *3273:A 23.6571 
*END

*D_NET *67 0.00109908
*CONN
*P awlen[2] I
*I *3274:A I *D sky130_fd_sc_hd__clkbuf_1
*CAP
1 awlen[2] 0.000532823
2 *3274:A 0.000532823
3 *3274:A *2709:B1 3.34295e-05
4 *3274:A *3276:A 0
5 *3274:A *3299:A 0
*RES
1 awlen[2] *3274:A 24.4786 
*END

*D_NET *68 0.00108711
*CONN
*P awlen[3] I
*I *3276:A I *D sky130_fd_sc_hd__clkbuf_1
*CAP
1 awlen[3] 0.000537463
2 *3276:A 0.000537463
3 *3276:A *3293:A 0
4 *3276:A *968:24 1.21859e-05
5 *3274:A *3276:A 0
*RES
1 awlen[3] *3276:A 24.4786 
*END

*D_NET *69 0.00097348
*CONN
*P awready O
*I *3347:X O *D sky130_fd_sc_hd__buf_4
*CAP
1 awready 0.00048674
2 *3347:X 0.00048674
3 awready rlast 0
4 awready *3285:A 0
5 awready *957:16 0
*RES
1 *3347:X awready 23.3536 
*END

*D_NET *70 0.00167676
*CONN
*P awvalid I
*I *3277:A I *D sky130_fd_sc_hd__buf_1
*CAP
1 awvalid 0.000625027
2 *3277:A 0.000625027
3 *3277:A *2709:A1 0.000186662
4 *3277:A *2709:B1 0.00010096
5 *3277:A *2710:C1 0.000139087
6 *3277:A *3293:A 0
*RES
1 awvalid *3277:A 27.1929 
*END

*D_NET *71 0.00473765
*CONN
*P bready I
*I *3278:A I *D sky130_fd_sc_hd__buf_1
*CAP
1 bready 0.00136098
2 *3278:A 0.00136098
3 *3278:A *2710:B2 0.000142965
4 *3278:A *2711:S 1.10856e-05
5 *3278:A *2718:A2 0
6 *3278:A *2759:A1 0
7 *3278:A *505:61 0
8 *3278:A *795:26 0.000507783
9 *3278:A *968:14 8.20256e-06
10 *3278:A *968:24 3.73017e-05
11 *3278:A *1047:123 2.09897e-05
12 *3278:A *1056:26 0.000142269
13 PADDR[1] *3278:A 0.000139037
14 PSEL1 *3278:A 0
15 arready *3278:A 0.000299216
16 *3251:A *3278:A 0
17 *3254:A *3278:A 0.00028555
18 *3267:A *3278:A 0
19 *3271:A *3278:A 0.000421282
*RES
1 bready *3278:A 36.2423 
*END

*D_NET *72 0.00131278
*CONN
*P bresp O
*I *3348:X O *D sky130_fd_sc_hd__buf_2
*CAP
1 bresp 0.00061038
2 *3348:X 0.00061038
3 bresp bvalid 0
4 bresp *3348:A 5.71472e-05
5 bresp *968:14 3.48705e-05
6 *3267:A bresp 0
7 *3271:A bresp 0
*RES
1 *3348:X bresp 25.2286 
*END

*D_NET *73 0.00165401
*CONN
*P bvalid O
*I *3349:X O *D sky130_fd_sc_hd__buf_2
*CAP
1 bvalid 0.000659971
2 *3349:X 0.000659971
3 bvalid rdata[13] 0
4 bvalid *3348:A 0.000273269
5 bresp bvalid 0
6 *3267:A bvalid 6.08008e-05
*RES
1 *3349:X bvalid 26.4607 
*END

*D_NET *74 0.0105562
*CONN
*P clk I
*I *3099:A I *D sky130_fd_sc_hd__clkbuf_16
*CAP
1 clk 0.00153974
2 *3099:A 0.00291271
3 *74:9 0.00445245
4 *3099:A *2683:A1 3.18676e-05
5 *3099:A *2768:A1 0.000102197
6 *3099:A *2768:B1 0.000137647
7 *3099:A *2829:D 0.000166416
8 *3099:A *3225:A 9.06662e-05
9 *3099:A *672:53 1.21289e-05
10 *3099:A *672:70 0.000289529
11 *3099:A *754:12 1.1979e-05
12 *3099:A *804:10 0.000681014
13 *3099:A *945:6 4.46231e-06
14 *74:9 rvalid 0
15 *74:9 *3319:A 0.0001234
16 *74:9 *992:16 0
17 *3273:A *74:9 0
*RES
1 clk *74:9 34 
2 *74:9 *3099:A 46.4071 
*END

*D_NET *75 0.00383451
*CONN
*P rdata[0] O
*I *3350:X O *D sky130_fd_sc_hd__buf_2
*CAP
1 rdata[0] 0.00163385
2 *3350:X 0.00163385
3 rdata[0] rdata[11] 0
4 rdata[0] rdata[14] 5.38242e-05
5 rdata[0] *2809:D 3.14193e-05
6 rdata[0] *3350:A 0.000481575
*RES
1 *3350:X rdata[0] 44.4786 
*END

*D_NET *76 0.00253271
*CONN
*P rdata[10] O
*I *3351:X O *D sky130_fd_sc_hd__buf_2
*CAP
1 rdata[10] 0.000759784
2 *3351:X 0.000759784
3 rdata[10] rdata[14] 9.90367e-05
4 rdata[10] rdata[3] 0
5 rdata[10] *2461:B 2.6949e-05
6 rdata[10] *2807:D 0.000152333
7 rdata[10] *3350:A 2.86349e-05
8 rdata[10] *1054:28 0.000305889
9 PWDATA[0] rdata[10] 0.000296457
10 PWDATA[2] rdata[10] 0.000103847
*RES
1 *3351:X rdata[10] 31.3536 
*END

*D_NET *77 0.00442157
*CONN
*P rdata[11] O
*I *3352:X O *D sky130_fd_sc_hd__buf_2
*CAP
1 rdata[11] 0.000716433
2 *3352:X 0.00100726
3 *77:20 0.0017237
4 rdata[11] *1016:22 0
5 *77:20 rdata[3] 7.42582e-06
6 *77:20 *2638:A 1.74352e-05
7 *77:20 *2638:B 9.91086e-05
8 *77:20 *2797:GATE_N 5.30637e-06
9 *77:20 *2799:GATE_N 2.47724e-05
10 *77:20 *2807:GATE_N 5.45662e-05
11 *77:20 *3310:A 1.92789e-05
12 *77:20 *3329:A 0.000252536
13 *77:20 *426:10 1.00375e-05
14 *77:20 *888:42 7.48301e-06
15 *77:20 *1054:28 0.00033825
16 PWDATA[0] *77:20 0.000137983
17 rdata[0] rdata[11] 0
18 *3243:A rdata[11] 0
19 *3245:A rdata[11] 0
*RES
1 *3352:X *77:20 38.0857 
2 *77:20 rdata[11] 13.2679 
*END

*D_NET *78 0.000884996
*CONN
*P rdata[12] O
*I *3353:X O *D sky130_fd_sc_hd__buf_2
*CAP
1 rdata[12] 0.000424135
2 *3353:X 0.000424135
3 rdata[12] *3290:A 0
4 rdata[12] *790:8 3.67257e-05
5 *3242:A rdata[12] 0
*RES
1 *3353:X rdata[12] 21.6393 
*END

*D_NET *79 0.00197631
*CONN
*P rdata[13] O
*I *3354:X O *D sky130_fd_sc_hd__buf_2
*CAP
1 rdata[13] 0.000789175
2 *3354:X 0.000789175
3 rdata[13] rdata[5] 5.74499e-06
4 rdata[13] *3348:A 0.00010477
5 rdata[13] *882:19 5.7248e-05
6 rdata[13] *968:14 0.000226507
7 bvalid rdata[13] 0
8 *3261:A rdata[13] 3.69047e-06
9 *3267:A rdata[13] 0
*RES
1 *3354:X rdata[13] 28.9071 
*END

*D_NET *80 0.00384705
*CONN
*P rdata[14] O
*I *3355:X O *D sky130_fd_sc_hd__buf_2
*CAP
1 rdata[14] 0.000949743
2 *3355:X 0.000949743
3 rdata[14] *2809:D 5.33005e-05
4 rdata[14] *3310:A 0.000359752
5 rdata[14] *3350:A 0.000129487
6 rdata[14] *813:26 2.06112e-05
7 rdata[14] *1016:22 0.000194108
8 rdata[14] *1057:14 8.1579e-05
9 rdata[0] rdata[14] 5.38242e-05
10 rdata[10] rdata[14] 9.90367e-05
11 *3245:A rdata[14] 0.000818183
12 *3297:A rdata[14] 0.000137678
*RES
1 *3355:X rdata[14] 36.7286 
*END

*D_NET *81 0.000940345
*CONN
*P rdata[15] O
*I *3356:X O *D sky130_fd_sc_hd__buf_2
*CAP
1 rdata[15] 0.000420651
2 *3356:X 0.000420651
3 rdata[15] rdata[2] 0
4 rdata[15] rdata[9] 0
5 rdata[15] *791:14 9.90431e-05
*RES
1 *3356:X rdata[15] 21.6393 
*END

*D_NET *82 0.000619382
*CONN
*P rdata[1] O
*I *3357:X O *D sky130_fd_sc_hd__buf_2
*CAP
1 rdata[1] 0.000280077
2 *3357:X 0.000280077
3 rdata[1] *3357:A 5.92267e-05
*RES
1 *3357:X rdata[1] 19.4092 
*END

*D_NET *83 0.000940345
*CONN
*P rdata[2] O
*I *3309:X O *D sky130_fd_sc_hd__buf_2
*CAP
1 rdata[2] 0.000420651
2 *3309:X 0.000420651
3 rdata[2] rdata[8] 0
4 rdata[2] *791:14 9.90431e-05
5 rdata[15] rdata[2] 0
*RES
1 *3309:X rdata[2] 21.6393 
*END

*D_NET *84 0.00292903
*CONN
*P rdata[3] O
*I *3310:X O *D sky130_fd_sc_hd__buf_2
*CAP
1 rdata[3] 0.00101356
2 *3310:X 0.00101356
3 rdata[3] rdata[7] 0
4 rdata[3] *2802:D 0.000236086
5 rdata[3] *2802:GATE_N 5.53052e-05
6 rdata[3] *2807:GATE_N 0.000364528
7 rdata[3] *3310:A 3.18676e-05
8 rdata[3] *3314:A 1.00375e-05
9 PWDATA[0] rdata[3] 0
10 PWDATA[5] rdata[3] 0.000196657
11 rdata[10] rdata[3] 0
12 *3248:A rdata[3] 0
13 *77:20 rdata[3] 7.42582e-06
*RES
1 *3310:X rdata[3] 31.425 
*END

*D_NET *85 0.00163306
*CONN
*P rdata[4] O
*I *3311:X O *D sky130_fd_sc_hd__buf_2
*CAP
1 rdata[4] 0.00043662
2 *3311:X 0.00043662
3 rdata[4] *3311:A 3.18676e-05
4 PSEL1 rdata[4] 0.000500832
5 PSEL3 rdata[4] 0.00022712
6 *3270:A rdata[4] 0
*RES
1 *3311:X rdata[4] 27.1393 
*END

*D_NET *86 0.00288788
*CONN
*P rdata[5] O
*I *3312:X O *D sky130_fd_sc_hd__buf_2
*CAP
1 rdata[5] 0.0010631
2 *3312:X 0.0010631
3 rdata[5] *2710:B2 6.26774e-06
4 rdata[5] *2710:C1 0.000230475
5 rdata[5] *3348:A 0.000139913
6 rdata[5] *882:8 2.2233e-05
7 rdata[13] rdata[5] 5.74499e-06
8 *3250:A rdata[5] 0
9 *3261:A rdata[5] 0.000357054
*RES
1 *3312:X rdata[5] 31.8 
*END

*D_NET *87 0.00103762
*CONN
*P rdata[6] O
*I *3313:X O *D sky130_fd_sc_hd__buf_2
*CAP
1 rdata[6] 0.000447383
2 *3313:X 0.000447383
3 rdata[6] rdata[7] 0
4 rdata[6] rdata[8] 0
5 rdata[6] *791:14 0.000142856
*RES
1 *3313:X rdata[6] 22.05 
*END

*D_NET *88 0.000942098
*CONN
*P rdata[7] O
*I *3314:X O *D sky130_fd_sc_hd__buf_2
*CAP
1 rdata[7] 0.000411207
2 *3314:X 0.000411207
3 rdata[7] *791:14 9.90431e-05
4 rdata[3] rdata[7] 0
5 rdata[6] rdata[7] 0
6 *3248:A rdata[7] 2.06413e-05
*RES
1 *3314:X rdata[7] 21.6393 
*END

*D_NET *89 0.00103762
*CONN
*P rdata[8] O
*I *3315:X O *D sky130_fd_sc_hd__buf_2
*CAP
1 rdata[8] 0.000447383
2 *3315:X 0.000447383
3 rdata[8] *791:14 0.000142856
4 rdata[2] rdata[8] 0
5 rdata[6] rdata[8] 0
*RES
1 *3315:X rdata[8] 22.05 
*END

*D_NET *90 0.000935777
*CONN
*P rdata[9] O
*I *3316:X O *D sky130_fd_sc_hd__buf_2
*CAP
1 rdata[9] 0.000418367
2 *3316:X 0.000418367
3 rdata[9] *3294:A 0
4 rdata[9] *791:14 9.90431e-05
5 rdata[15] rdata[9] 0
*RES
1 *3316:X rdata[9] 21.6393 
*END

*D_NET *91 0.00120834
*CONN
*P res_n I
*I *3279:A I *D sky130_fd_sc_hd__buf_1
*CAP
1 res_n 0.000526501
2 *3279:A 0.000526501
3 *3279:A *2647:A1 5.62995e-05
4 *3279:A *1005:16 9.90431e-05
5 *3273:A *3279:A 0
6 *3302:A *3279:A 0
*RES
1 res_n *3279:A 24.6036 
*END

*D_NET *92 0.00102127
*CONN
*P rlast O
*I *3317:X O *D sky130_fd_sc_hd__buf_2
*CAP
1 rlast 0.000492783
2 *3317:X 0.000492783
3 rlast *957:16 3.5707e-05
4 awready rlast 0
5 *3272:A rlast 0
*RES
1 *3317:X rlast 23.8714 
*END

*D_NET *93 0.00101604
*CONN
*P rready I
*I *3280:A I *D sky130_fd_sc_hd__clkbuf_1
*CAP
1 rready 0.000508019
2 *3280:A 0.000508019
3 *3280:A rresp 0
4 *3280:A *3289:A 0
5 *3280:A *3318:A 0
*RES
1 rready *3280:A 23.6571 
*END

*D_NET *94 0.000983965
*CONN
*P rresp O
*I *3318:X O *D sky130_fd_sc_hd__buf_2
*CAP
1 rresp 0.000491982
2 *3318:X 0.000491982
3 rresp *3292:A 0
4 *3280:A rresp 0
*RES
1 *3318:X rresp 23.4607 
*END

*D_NET *95 0.000982089
*CONN
*P rvalid O
*I *3319:X O *D sky130_fd_sc_hd__buf_2
*CAP
1 rvalid 0.000491044
2 *3319:X 0.000491044
3 rvalid *957:10 0
4 *3259:A rvalid 0
5 *74:9 rvalid 0
*RES
1 *3319:X rvalid 23.4607 
*END

*D_NET *96 0.0013212
*CONN
*P wdata[0] I
*I *3281:A I *D sky130_fd_sc_hd__clkbuf_1
*CAP
1 wdata[0] 0.00055256
2 *3281:A 0.00055256
3 *3281:A *2643:A0 2.28598e-05
4 *3281:A *2643:S 1.02504e-05
5 *3281:A *2650:A1 2.89114e-05
6 *3281:A *1055:16 1.31235e-05
7 *3247:A *3281:A 0.000140933
8 *3249:A *3281:A 0
*RES
1 wdata[0] *3281:A 24.6214 
*END

*D_NET *97 0.00105388
*CONN
*P wdata[10] I
*I *3282:A I *D sky130_fd_sc_hd__clkbuf_1
*CAP
1 wdata[10] 0.000416627
2 *3282:A 0.000416627
3 *3282:A *3353:A 7.77751e-05
4 *3282:A *790:8 0.000142856
5 *3253:A *3282:A 0
6 *3264:A *3282:A 0
*RES
1 wdata[10] *3282:A 22.6571 
*END

*D_NET *98 0.000893871
*CONN
*P wdata[11] I
*I *3283:A I *D sky130_fd_sc_hd__clkbuf_1
*CAP
1 wdata[11] 0.000404864
2 *3283:A 0.000404864
3 *3283:A *3291:A 0
4 *3283:A *3295:A 0
5 *3283:A *3353:A 2.89114e-05
6 *3283:A *790:8 5.52302e-05
*RES
1 wdata[11] *3283:A 21.8357 
*END

*D_NET *99 0.000887299
*CONN
*P wdata[12] I
*I *3284:A I *D sky130_fd_sc_hd__clkbuf_1
*CAP
1 wdata[12] 0.000416034
2 *3284:A 0.000416034
3 *3284:A *3298:A 0
4 *3284:A *884:34 5.52302e-05
5 *3249:A *3284:A 0
*RES
1 wdata[12] *3284:A 21.8357 
*END

*D_NET *100 0.00108357
*CONN
*P wdata[13] I
*I *3285:A I *D sky130_fd_sc_hd__clkbuf_1
*CAP
1 wdata[13] 0.000541785
2 *3285:A 0.000541785
3 *3285:A *3292:A 0
4 awready *3285:A 0
*RES
1 wdata[13] *3285:A 24.4786 
*END

*D_NET *101 0.000940798
*CONN
*P wdata[14] I
*I *3287:A I *D sky130_fd_sc_hd__clkbuf_1
*CAP
1 wdata[14] 0.000415169
2 *3287:A 0.000415169
3 *3287:A *3353:A 5.52302e-05
4 *3287:A *790:8 5.52302e-05
5 *3253:A *3287:A 0
6 *3303:A *3287:A 0
*RES
1 wdata[14] *3287:A 21.8357 
*END

*D_NET *102 0.0016714
*CONN
*P wdata[15] I
*I *3288:A I *D sky130_fd_sc_hd__clkbuf_1
*CAP
1 wdata[15] 0.000465538
2 *3288:A 0.000465538
3 *3288:A *2651:A0 0.000186669
4 *3288:A *2651:A1 0.000273269
5 *3288:A *3294:A 0
6 *3288:A *3296:A 0
7 *3288:A *791:14 0.000183726
8 *3288:A *884:24 4.14279e-05
9 *3288:A *884:34 5.52302e-05
*RES
1 wdata[15] *3288:A 25.1214 
*END

*D_NET *103 0.00113657
*CONN
*P wdata[1] I
*I *3289:A I *D sky130_fd_sc_hd__clkbuf_1
*CAP
1 wdata[1] 0.000563441
2 *3289:A 0.000563441
3 *3289:A wready 0
4 *3289:A *1005:16 9.69119e-06
5 *3280:A *3289:A 0
*RES
1 wdata[1] *3289:A 24.4786 
*END

*D_NET *104 0.000919899
*CONN
*P wdata[2] I
*I *3290:A I *D sky130_fd_sc_hd__clkbuf_1
*CAP
1 wdata[2] 0.000404719
2 *3290:A 0.000404719
3 *3290:A *3353:A 5.52302e-05
4 *3290:A *790:8 5.52302e-05
5 rdata[12] *3290:A 0
6 *3303:A *3290:A 0
*RES
1 wdata[2] *3290:A 21.8357 
*END

*D_NET *105 0.000893871
*CONN
*P wdata[3] I
*I *3291:A I *D sky130_fd_sc_hd__clkbuf_1
*CAP
1 wdata[3] 0.000404864
2 *3291:A 0.000404864
3 *3291:A *3353:A 2.89114e-05
4 *3291:A *790:8 5.52302e-05
5 *3264:A *3291:A 0
6 *3283:A *3291:A 0
*RES
1 wdata[3] *3291:A 21.8357 
*END

*D_NET *106 0.0011055
*CONN
*P wdata[4] I
*I *3292:A I *D sky130_fd_sc_hd__clkbuf_1
*CAP
1 wdata[4] 0.000536036
2 *3292:A 0.000536036
3 *3292:A *3320:A 3.34295e-05
4 rresp *3292:A 0
5 *3285:A *3292:A 0
*RES
1 wdata[4] *3292:A 24.4786 
*END

*D_NET *107 0.00101375
*CONN
*P wdata[5] I
*I *3293:A I *D sky130_fd_sc_hd__buf_1
*CAP
1 wdata[5] 0.000503984
2 *3293:A 0.000503984
3 *3293:A *968:24 5.7836e-06
4 *3276:A *3293:A 0
5 *3277:A *3293:A 0
*RES
1 wdata[5] *3293:A 23.6571 
*END

*D_NET *108 0.00156077
*CONN
*P wdata[6] I
*I *3294:A I *D sky130_fd_sc_hd__clkbuf_1
*CAP
1 wdata[6] 0.000645547
2 *3294:A 0.000645547
3 *3294:A *3174:A 5.52302e-05
4 *3294:A *390:12 4.57445e-05
5 *3294:A *521:18 0.000117621
6 *3294:A *791:14 5.10822e-05
7 rdata[9] *3294:A 0
8 *3288:A *3294:A 0
*RES
1 wdata[6] *3294:A 26.7464 
*END

*D_NET *109 0.00091088
*CONN
*P wdata[7] I
*I *3295:A I *D sky130_fd_sc_hd__clkbuf_1
*CAP
1 wdata[7] 0.000381257
2 *3295:A 0.000381257
3 *3295:A *2646:A1 6.42242e-05
4 *3295:A *3353:A 2.89114e-05
5 *3295:A *790:8 5.52302e-05
6 *3247:A *3295:A 0
7 *3283:A *3295:A 0
*RES
1 wdata[7] *3295:A 21.8357 
*END

*D_NET *110 0.000903092
*CONN
*P wdata[8] I
*I *3296:A I *D sky130_fd_sc_hd__clkbuf_1
*CAP
1 wdata[8] 0.000423931
2 *3296:A 0.000423931
3 *3296:A *3298:A 0
4 *3296:A *884:34 5.52302e-05
5 *3288:A *3296:A 0
*RES
1 wdata[8] *3296:A 21.8357 
*END

*D_NET *111 0.00103636
*CONN
*P wdata[9] I
*I *3298:A I *D sky130_fd_sc_hd__clkbuf_1
*CAP
1 wdata[9] 0.000446751
2 *3298:A 0.000446751
3 *3298:A *884:34 0.000142856
4 *3284:A *3298:A 0
5 *3296:A *3298:A 0
*RES
1 wdata[9] *3298:A 22.6571 
*END

*D_NET *112 0.0011775
*CONN
*P wlast I
*I *3299:A I *D sky130_fd_sc_hd__clkbuf_1
*CAP
1 wlast 0.000560175
2 *3299:A 0.000560175
3 *3299:A *2709:B1 0
4 *3299:A *3235:A 5.71472e-05
5 *3272:A *3299:A 0
6 *3274:A *3299:A 0
*RES
1 wlast *3299:A 25.0143 
*END

*D_NET *113 0.0010786
*CONN
*P wready O
*I *3320:X O *D sky130_fd_sc_hd__buf_2
*CAP
1 wready 0.000510727
2 *3320:X 0.000510727
3 wready *1005:16 5.71472e-05
4 *3289:A wready 0
5 *3302:A wready 0
*RES
1 *3320:X wready 23.5857 
*END

*D_NET *114 0.000990337
*CONN
*P wvalid I
*I *3300:A I *D sky130_fd_sc_hd__buf_1
*CAP
1 wvalid 0.000495168
2 *3300:A 0.000495168
3 *3244:A *3300:A 0
4 *3286:A *3300:A 0
*RES
1 wvalid *3300:A 23.6571 
*END

*D_NET *115 0.00447571
*CONN
*I *2444:B I *D sky130_fd_sc_hd__and2_1
*I *2752:A0 I *D sky130_fd_sc_hd__mux2_1
*I *2758:C I *D sky130_fd_sc_hd__and4b_1
*I *2753:A1 I *D sky130_fd_sc_hd__a21o_1
*I *2755:B1 I *D sky130_fd_sc_hd__o2bb2a_2
*I *2750:A I *D sky130_fd_sc_hd__nor2_1
*I *3090:Q O *D sky130_fd_sc_hd__dfrtp_1
*CAP
1 *2444:B 0
2 *2752:A0 0
3 *2758:C 1.35541e-05
4 *2753:A1 0
5 *2755:B1 0.000262928
6 *2750:A 0.000166831
7 *3090:Q 4.60472e-05
8 *115:34 0.000507767
9 *115:26 0.000141259
10 *115:22 0.000122201
11 *115:16 0.000288593
12 *115:10 0.000289244
13 *2750:A *2753:B1 8.43932e-05
14 *2750:A *2754:B 0.000223142
15 *2750:A *2755:A2_N 5.52238e-05
16 *2750:A *882:25 5.72597e-05
17 *2750:A *891:110 3.2006e-05
18 *2750:A *891:127 2.83786e-05
19 *2750:A *1050:37 0.00021985
20 *2755:B1 *2445:B 3.07555e-05
21 *2755:B1 *3092:D 2.11419e-05
22 *2755:B1 *116:10 4.98872e-05
23 *2755:B1 *505:38 0.000226758
24 *2755:B1 *882:44 0.000180336
25 *2755:B1 *982:52 8.07951e-05
26 *2758:C *2753:A2 4.18895e-05
27 *2758:C *2759:B1 5.33005e-05
28 *115:10 *2759:B2 0.000151476
29 *115:10 *1024:12 0.000151476
30 *115:16 *2444:A 1.21258e-05
31 *115:16 *2751:A2 0
32 *115:16 *2751:B2 0.000177815
33 *115:22 *2759:A1 0.000100831
34 *115:22 *3322:A 5.01213e-05
35 *115:26 *2753:A2 0.000183726
36 *115:26 *2753:B1 0
37 *115:26 *2755:A2_N 7.48301e-06
38 *115:26 *2759:B1 0.000235013
39 *115:34 *2753:A2 0
40 *115:34 *2753:B1 3.481e-05
41 *115:34 *2755:A2_N 8.71191e-05
42 *115:34 *2759:B1 3.17594e-05
43 *3251:A *2750:A 2.84109e-05
*RES
1 *3090:Q *115:10 20.2464 
2 *115:10 *115:16 3.85714 
3 *115:16 *115:22 10.3393 
4 *115:22 *115:26 2.60714 
5 *115:26 *115:34 2.33929 
6 *115:34 *2750:A 23.7464 
7 *115:34 *2755:B1 25.4071 
8 *115:26 *2753:A1 9.3 
9 *115:22 *2758:C 9.83571 
10 *115:16 *2752:A0 9.3 
11 *115:10 *2444:B 9.3 
*END

*D_NET *116 0.0049685
*CONN
*I *2758:D I *D sky130_fd_sc_hd__and4b_1
*I *2753:A2 I *D sky130_fd_sc_hd__a21o_1
*I *3241:A I *D sky130_fd_sc_hd__dlygate4sd3_1
*I *2755:B2 I *D sky130_fd_sc_hd__o2bb2a_2
*I *2445:B I *D sky130_fd_sc_hd__and2_1
*I *3091:Q O *D sky130_fd_sc_hd__dfrtp_1
*CAP
1 *2758:D 0
2 *2753:A2 0.000122103
3 *3241:A 5.98952e-05
4 *2755:B2 2.85076e-05
5 *2445:B 0.000208203
6 *3091:Q 0
7 *116:57 0.000330727
8 *116:38 0.000420443
9 *116:10 0.00062711
10 *116:4 0.000542324
11 *2445:B *2445:A 7.25712e-05
12 *2445:B *2448:A 5.52302e-05
13 *2445:B *2448:B 5.49489e-05
14 *2445:B *2672:A 0.000256949
15 *2445:B *2757:B2 0.000103788
16 *2445:B *3178:A 1.76135e-05
17 *2445:B *882:52 9.9974e-05
18 *2445:B *982:27 9.69119e-06
19 *2445:B *982:52 5.53406e-05
20 *2753:A2 *2755:A2_N 1.21258e-05
21 *2753:A2 *2758:A_N 9.60875e-05
22 *2753:A2 *2759:A1 4.34249e-05
23 *2753:A2 *2759:B1 3.16723e-05
24 *2755:B2 *2756:B 5.52238e-05
25 *3241:A *2751:B2 4.58194e-05
26 *116:10 *3091:D 0.000188071
27 *116:10 *882:44 4.66203e-05
28 *116:10 *882:52 4.46186e-06
29 *116:10 *988:14 5.52302e-05
30 *116:38 *2446:B 8.07951e-05
31 *116:38 *3091:D 5.41794e-05
32 *116:38 *117:23 0.000167691
33 *116:38 *739:22 2.19684e-05
34 *116:38 *739:44 4.57445e-05
35 *116:38 *988:14 9.60875e-05
36 *116:57 *2751:B2 4.16711e-05
37 *116:57 *2759:A1 0.000195144
38 *116:57 *2759:B1 9.69243e-05
39 *116:57 *2759:B2 1.38106e-05
40 *116:57 *2759:C1 4.8365e-05
41 *116:57 *117:23 7.57946e-05
42 *116:57 *739:44 1.18554e-05
43 *116:57 *1024:12 6.80589e-05
44 *2755:B1 *2445:B 3.07555e-05
45 *2755:B1 *116:10 4.98872e-05
46 *2758:C *2753:A2 4.18895e-05
47 *115:26 *2753:A2 0.000183726
48 *115:34 *2753:A2 0
*RES
1 *3091:Q *116:4 9.3 
2 *116:4 *116:10 10.0714 
3 *116:10 *2445:B 20.3893 
4 *116:10 *2755:B2 14.3357 
5 *116:4 *116:38 8.60714 
6 *116:38 *3241:A 14.7464 
7 *116:38 *116:57 9.78125 
8 *116:57 *2753:A2 12.5545 
9 *116:57 *2758:D 9.3 
*END

*D_NET *117 0.00320188
*CONN
*I *3236:A I *D sky130_fd_sc_hd__dlygate4sd3_1
*I *2446:B I *D sky130_fd_sc_hd__and2_1
*I *2758:A_N I *D sky130_fd_sc_hd__and4b_1
*I *3092:Q O *D sky130_fd_sc_hd__dfrtp_1
*CAP
1 *3236:A 0
2 *2446:B 0.000198779
3 *2758:A_N 0.000391217
4 *3092:Q 0
5 *117:23 0.000274509
6 *117:4 0.000466947
7 *2446:B *2446:A 7.47221e-05
8 *2446:B *2659:S 9.46929e-05
9 *2446:B *3091:D 2.8046e-05
10 *2446:B *374:27 8.07879e-05
11 *2446:B *1022:24 0.00030824
12 *2446:B *1024:12 0.000220455
13 *2758:A_N *2751:B2 0.000137983
14 *2758:A_N *2755:A2_N 6.05161e-06
15 *2758:A_N *2758:B 0.000126439
16 *2758:A_N *3322:A 0.000128154
17 *117:23 *1024:12 0.000244486
18 *2753:A2 *2758:A_N 9.60875e-05
19 *116:38 *2446:B 8.07951e-05
20 *116:38 *117:23 0.000167691
21 *116:57 *117:23 7.57946e-05
*RES
1 *3092:Q *117:4 9.3 
2 *117:4 *2758:A_N 24.3 
3 *117:4 *117:23 7.66071 
4 *117:23 *2446:B 20.4786 
5 *117:23 *3236:A 13.8 
*END

*D_NET *118 0.0011068
*CONN
*I *2460:A1 I *D sky130_fd_sc_hd__o22ai_2
*I *2830:Q O *D sky130_fd_sc_hd__dlxtn_1
*CAP
1 *2460:A1 0.000365969
2 *2830:Q 0.000365969
3 *2460:A1 *2452:A1 0
4 *2460:A1 *2830:GATE_N 1.34703e-05
5 *2460:A1 *2841:GATE_N 0
6 *2460:A1 *521:12 0.000306163
7 *2460:A1 *521:18 5.52302e-05
*RES
1 *2830:Q *2460:A1 33.7429 
*END

*D_NET *119 0.000597019
*CONN
*I *2570:A1 I *D sky130_fd_sc_hd__o22ai_1
*I *2840:Q O *D sky130_fd_sc_hd__dlxtn_1
*CAP
1 *2570:A1 0.000193501
2 *2840:Q 0.000193501
3 *2570:A1 *2649:A0 5.74562e-05
4 *2570:A1 *428:16 0.000119124
5 *2570:A1 *932:134 3.34366e-05
*RES
1 *2840:Q *2570:A1 30.9036 
*END

*D_NET *120 0.000842528
*CONN
*I *2581:A1 I *D sky130_fd_sc_hd__o22ai_2
*I *2841:Q O *D sky130_fd_sc_hd__dlxtn_1
*CAP
1 *2581:A1 0.000152575
2 *2841:Q 0.000152575
3 *2581:A1 *2550:A2 2.70725e-06
4 *2581:A1 *2551:B1 0.000119506
5 *2581:A1 *2551:B2 1.21258e-05
6 *2581:A1 *631:18 0.000146947
7 *2581:A1 *858:15 0.000110029
8 *2581:A1 *892:121 0.000146063
*RES
1 *2841:Q *2581:A1 31.725 
*END

*D_NET *121 0.00153878
*CONN
*I *2592:A1 I *D sky130_fd_sc_hd__o22ai_2
*I *2842:Q O *D sky130_fd_sc_hd__dlxtn_1
*CAP
1 *2592:A1 0.00033318
2 *2842:Q 0.00033318
3 *2592:A1 *2584:A1 0.000222163
4 *2592:A1 *641:10 0.00031275
5 *2592:A1 *825:130 5.90443e-06
6 *2592:A1 *838:105 0.00026737
7 *2592:A1 *896:48 5.84267e-05
8 *2592:A1 *932:30 5.80706e-06
*RES
1 *2842:Q *2592:A1 34.5643 
*END

*D_NET *122 0.00046872
*CONN
*I *2603:A1 I *D sky130_fd_sc_hd__o22ai_2
*I *2843:Q O *D sky130_fd_sc_hd__dlxtn_1
*CAP
1 *2603:A1 0.000153293
2 *2843:Q 0.000153293
3 *2603:A1 *2471:A2 5.80706e-06
4 *2603:A1 *2595:A1 7.14469e-05
5 *2603:A1 *2603:B2 5.33005e-05
6 *2603:A1 *849:98 0
7 *2603:A1 *933:82 3.15795e-05
*RES
1 *2843:Q *2603:A1 30.0821 
*END

*D_NET *123 0.00162473
*CONN
*I *2614:A1 I *D sky130_fd_sc_hd__o22ai_2
*I *2844:Q O *D sky130_fd_sc_hd__dlxtn_1
*CAP
1 *2614:A1 0.000315795
2 *2844:Q 0.000315795
3 *2614:A1 *2605:A2 0.00051385
4 *2614:A1 *2606:C1 0.000207188
5 *2614:A1 *827:44 0.000141555
6 *2614:A1 *894:127 0.000130544
*RES
1 *2844:Q *2614:A1 35.7607 
*END

*D_NET *124 0.00117863
*CONN
*I *2625:A1 I *D sky130_fd_sc_hd__o22ai_2
*I *2845:Q O *D sky130_fd_sc_hd__dlxtn_1
*CAP
1 *2625:A1 0.000373658
2 *2845:Q 0.000373658
3 *2625:A1 *2515:A2 0.000148555
4 *2625:A1 *2845:D 3.14163e-05
5 *2625:A1 *3143:A 0.000148555
6 *2625:A1 *531:18 0.000102783
*RES
1 *2845:Q *2625:A1 33.7786 
*END

*D_NET *125 0.000646205
*CONN
*I *2471:A1 I *D sky130_fd_sc_hd__o22ai_2
*I *2831:Q O *D sky130_fd_sc_hd__dlxtn_1
*CAP
1 *2471:A1 0.000229771
2 *2831:Q 0.000229771
3 *2471:A1 *829:20 0
4 *2471:A1 *830:31 0
5 *2471:A1 *917:34 0.000186662
*RES
1 *2831:Q *2471:A1 31.0107 
*END

*D_NET *126 0.000282461
*CONN
*I *2482:A1 I *D sky130_fd_sc_hd__o22ai_1
*I *2832:Q O *D sky130_fd_sc_hd__dlxtn_1
*CAP
1 *2482:A1 0.000125522
2 *2832:Q 0.000125522
3 *2482:A1 *2474:B1 3.14163e-05
4 *2482:A1 *2482:A2 0
*RES
1 *2832:Q *2482:A1 20.6893 
*END

*D_NET *127 0.00118112
*CONN
*I *2493:A1 I *D sky130_fd_sc_hd__o22ai_2
*I *2833:Q O *D sky130_fd_sc_hd__dlxtn_1
*CAP
1 *2493:A1 0.000264779
2 *2833:Q 0.000264779
3 *2493:A1 *2493:A2 5.71472e-05
4 *2493:A1 *3041:D 4.62539e-05
5 *2493:A1 *551:22 5.52302e-05
6 *2493:A1 *590:24 6.49214e-05
7 *2493:A1 *811:143 0
8 *2493:A1 *822:49 0.000428011
*RES
1 *2833:Q *2493:A1 34.2607 
*END

*D_NET *128 0.000884086
*CONN
*I *2504:A1 I *D sky130_fd_sc_hd__o22ai_2
*I *2834:Q O *D sky130_fd_sc_hd__dlxtn_1
*CAP
1 *2504:A1 0.000264619
2 *2834:Q 0.000264619
3 *2504:A1 *2504:A2 8.6229e-06
4 *2504:A1 *3138:A 1.37312e-05
5 *2504:A1 *561:14 9.11806e-06
6 *2504:A1 *826:12 0
7 *2504:A1 *828:18 7.69776e-06
8 *2504:A1 *839:50 0.000180777
9 *2504:A1 *919:49 0.000134901
*RES
1 *2834:Q *2504:A1 31.85 
*END

*D_NET *129 0.000873414
*CONN
*I *2515:A1 I *D sky130_fd_sc_hd__o22ai_1
*I *2835:Q O *D sky130_fd_sc_hd__dlxtn_1
*CAP
1 *2515:A1 0.00019787
2 *2835:Q 0.00019787
3 *2515:A1 *2507:A1 0
4 *2515:A1 *2604:B 0.000246319
5 *2515:A1 *2640:B 8.15792e-05
6 *2515:A1 *570:18 0.000149776
*RES
1 *2835:Q *2515:A1 32.5107 
*END

*D_NET *130 0.000811729
*CONN
*I *2526:A1 I *D sky130_fd_sc_hd__o22ai_1
*I *2836:Q O *D sky130_fd_sc_hd__dlxtn_1
*CAP
1 *2526:A1 0.000242402
2 *2836:Q 0.000242402
3 *2526:A1 *2515:A2 0.000145127
4 *2526:A1 *3161:A 0.000128154
5 *2526:A1 *581:10 3.77065e-05
6 *2526:A1 *885:32 0
7 *2526:A1 *933:39 1.59373e-05
*RES
1 *2836:Q *2526:A1 32.6536 
*END

*D_NET *131 0.000529764
*CONN
*I *2537:A1 I *D sky130_fd_sc_hd__o22ai_1
*I *2837:Q O *D sky130_fd_sc_hd__dlxtn_1
*CAP
1 *2537:A1 9.05671e-05
2 *2837:Q 9.05671e-05
3 *2537:A1 *2537:B1 0.0001839
4 *2537:A1 *2537:B2 0.00016473
*RES
1 *2837:Q *2537:A1 22.4571 
*END

*D_NET *132 0.000855695
*CONN
*I *2548:A1 I *D sky130_fd_sc_hd__o22ai_1
*I *2838:Q O *D sky130_fd_sc_hd__dlxtn_1
*CAP
1 *2548:A1 0.000185944
2 *2838:Q 0.000185944
3 *2548:A1 *2548:A2 0.000139625
4 *2548:A1 *2635:B 0.000128154
5 *2548:A1 *3161:A 0.000128154
6 *2548:A1 *601:8 8.78754e-05
*RES
1 *2838:Q *2548:A1 32.2429 
*END

*D_NET *133 0.000626297
*CONN
*I *2559:A1 I *D sky130_fd_sc_hd__o22ai_2
*I *2839:Q O *D sky130_fd_sc_hd__dlxtn_1
*CAP
1 *2559:A1 0.000181847
2 *2839:Q 0.000181847
3 *2559:A1 *3157:A 0.000122689
4 *2559:A1 *838:54 0.000139913
5 *2559:A1 *874:20 0
*RES
1 *2839:Q *2559:A1 30.6 
*END

*D_NET *134 0.000922347
*CONN
*I *2455:A1 I *D sky130_fd_sc_hd__a22o_1
*I *2990:Q O *D sky130_fd_sc_hd__dlxtn_1
*CAP
1 *2455:A1 0.000295291
2 *2990:Q 0.000295291
3 *2455:A1 *2455:A2 3.50166e-05
4 *2455:A1 *2455:B1 1.58163e-05
5 *2455:A1 *2455:B2 5.49489e-05
6 *2455:A1 *2478:A1 0.000225982
7 *2455:A1 *873:60 0
*RES
1 *2990:Q *2455:A1 33.4929 
*END

*D_NET *135 0.000479967
*CONN
*I *2568:A1 I *D sky130_fd_sc_hd__a211o_1
*I *3000:Q O *D sky130_fd_sc_hd__dlxtn_1
*CAP
1 *2568:A1 0.000159869
2 *3000:Q 0.000159869
3 *2568:A1 *2568:A2 3.57366e-05
4 *2568:A1 *2568:C1 8.47274e-05
5 *2568:A1 *855:20 3.97657e-05
*RES
1 *3000:Q *2568:A1 22.0464 
*END

*D_NET *136 0.00116419
*CONN
*I *2578:B2 I *D sky130_fd_sc_hd__a22o_1
*I *3001:Q O *D sky130_fd_sc_hd__dlxtn_1
*CAP
1 *2578:B2 0.000392979
2 *3001:Q 0.000392979
3 *2578:B2 *2459:A 1.92789e-05
4 *2578:B2 *2554:A1 0
5 *2578:B2 *2578:B1 1.73088e-05
6 *2578:B2 *3001:D 0
7 *2578:B2 *833:18 0.000273753
8 *2578:B2 *853:67 0
9 *2578:B2 *877:38 5.71472e-05
10 *2578:B2 *923:50 1.07401e-05
*RES
1 *3001:Q *2578:B2 34.3857 
*END

*D_NET *137 0.000203995
*CONN
*I *2589:B2 I *D sky130_fd_sc_hd__a22o_1
*I *3002:Q O *D sky130_fd_sc_hd__dlxtn_1
*CAP
1 *2589:B2 4.10942e-05
2 *3002:Q 4.10942e-05
3 *2589:B2 *2536:B 1.55885e-05
4 *2589:B2 *2589:A1 5.71472e-05
5 *2589:B2 *908:28 4.9071e-05
*RES
1 *3002:Q *2589:B2 19.8679 
*END

*D_NET *138 0.00114079
*CONN
*I *2599:A1 I *D sky130_fd_sc_hd__a211o_1
*I *3003:Q O *D sky130_fd_sc_hd__dlxtn_1
*CAP
1 *2599:A1 0.000249254
2 *3003:Q 0.000249254
3 *2599:A1 *2597:A1 6.82922e-05
4 *2599:A1 *2599:B1 5.80706e-06
5 *2599:A1 *3193:A 0
6 *2599:A1 *3194:A 3.69697e-05
7 *2599:A1 *496:16 0
8 *2599:A1 *850:31 0.000196269
9 *2599:A1 *925:33 0.000136958
10 *2599:A1 *938:26 0.000197984
*RES
1 *3003:Q *2599:A1 33.3321 
*END

*D_NET *139 0.00022926
*CONN
*I *2610:B2 I *D sky130_fd_sc_hd__a221o_1
*I *3004:Q O *D sky130_fd_sc_hd__dlxtn_1
*CAP
1 *2610:B2 9.18628e-05
2 *3004:Q 9.18628e-05
3 *2610:B2 *2610:C1 3.22794e-05
4 *2610:B2 *928:33 1.32552e-05
*RES
1 *3004:Q *2610:B2 20.533 
*END

*D_NET *140 0.0010247
*CONN
*I *2620:B2 I *D sky130_fd_sc_hd__a22o_1
*I *3005:Q O *D sky130_fd_sc_hd__dlxtn_1
*CAP
1 *2620:B2 0.000176978
2 *3005:Q 0.000176978
3 *2620:B2 *2524:A2 7.8327e-05
4 *2620:B2 *2989:D 0.000181381
5 *2620:B2 *3134:A 0.000152333
6 *2620:B2 *819:35 0.000109844
7 *2620:B2 *905:33 0.00014886
*RES
1 *3005:Q *2620:B2 32.9571 
*END

*D_NET *141 0.0020153
*CONN
*I *2462:A1 I *D sky130_fd_sc_hd__a22o_1
*I *2991:Q O *D sky130_fd_sc_hd__dlxtn_1
*CAP
1 *2462:A1 0.000496552
2 *2991:Q 0.000496552
3 *2462:A1 *2395:A 0.000109932
4 *2462:A1 *2468:B2 9.82829e-05
5 *2462:A1 *2469:C1 0.00018077
6 *2462:A1 *2948:GATE_N 0.000171151
7 *2462:A1 *906:10 0.000285478
8 *2462:A1 *906:20 7.13226e-06
9 *2462:A1 *937:12 0.000169443
*RES
1 *2991:Q *2462:A1 38.1893 
*END

*D_NET *142 0.000975187
*CONN
*I *2479:B2 I *D sky130_fd_sc_hd__a22o_1
*I *2992:Q O *D sky130_fd_sc_hd__dlxtn_1
*CAP
1 *2479:B2 0.000305874
2 *2992:Q 0.000305874
3 *2479:B2 *2456:A1 7.77652e-05
4 *2479:B2 *3006:GATE_N 4.95401e-05
5 *2479:B2 *873:50 0.000165271
6 *2479:B2 *904:61 7.08622e-05
*RES
1 *2992:Q *2479:B2 33.0286 
*END

*D_NET *143 0.000647455
*CONN
*I *2491:A1 I *D sky130_fd_sc_hd__a211o_1
*I *2993:Q O *D sky130_fd_sc_hd__dlxtn_1
*CAP
1 *2491:A1 0.000233872
2 *2993:Q 0.000233872
3 *2491:A1 *2490:A2 7.6644e-05
4 *2491:A1 *2490:B1 3.48705e-05
5 *2491:A1 *2490:B2 5.52302e-05
6 *2491:A1 *2491:B1 9.15621e-06
7 *2491:A1 *855:20 3.80953e-06
8 *2491:A1 *906:22 0
*RES
1 *2993:Q *2491:A1 31.0107 
*END

*D_NET *144 0.00156322
*CONN
*I *2500:B2 I *D sky130_fd_sc_hd__a22o_1
*I *2994:Q O *D sky130_fd_sc_hd__dlxtn_1
*CAP
1 *2500:B2 0.000224045
2 *2994:Q 0.000224045
3 *2500:B2 *2500:A2 0
4 *2500:B2 *2502:B1 3.67257e-05
5 *2500:B2 *815:12 5.01213e-05
6 *2500:B2 *817:28 0.000615118
7 *2500:B2 *870:41 0.000183713
8 *2500:B2 *870:43 0.000229456
*RES
1 *2994:Q *2500:B2 35.2429 
*END

*D_NET *145 0.00230769
*CONN
*I *2510:B2 I *D sky130_fd_sc_hd__a22o_1
*I *2995:Q O *D sky130_fd_sc_hd__dlxtn_1
*CAP
1 *2510:B2 0.000681139
2 *2995:Q 0.000681139
3 *2510:B2 *2510:A2 5.52302e-05
4 *2510:B2 *2511:A1 9.0145e-05
5 *2510:B2 *2512:B2 3.79877e-06
6 *2510:B2 *2513:A1 5.52302e-05
7 *2510:B2 *2513:C1 0.000134549
8 *2510:B2 *2851:D 1.83136e-05
9 *2510:B2 *2851:GATE_N 7.9568e-05
10 *2510:B2 *929:26 0.000426743
11 *2510:B2 *936:49 8.18357e-05
*RES
1 *2995:Q *2510:B2 31.1 
*END

*D_NET *146 0.000815123
*CONN
*I *2524:A1 I *D sky130_fd_sc_hd__a211o_1
*I *2996:Q O *D sky130_fd_sc_hd__dlxtn_1
*CAP
1 *2524:A1 0.00026227
2 *2996:Q 0.00026227
3 *2524:A1 *2524:A2 3.57366e-05
4 *2524:A1 *2524:B1 0.000164747
5 *2524:A1 *2524:C1 5.52302e-05
6 *2524:A1 *864:47 3.48705e-05
*RES
1 *2996:Q *2524:A1 23.6893 
*END

*D_NET *147 0.000367632
*CONN
*I *2535:A1 I *D sky130_fd_sc_hd__a211o_1
*I *2997:Q O *D sky130_fd_sc_hd__dlxtn_1
*CAP
1 *2535:A1 0.000124244
2 *2997:Q 0.000124244
3 *2535:A1 *2535:B1 5.52238e-05
4 *2535:A1 *2535:C1 4.83316e-05
5 *2535:A1 *921:34 1.55885e-05
*RES
1 *2997:Q *2535:A1 21.225 
*END

*D_NET *148 0.00148553
*CONN
*I *2542:B2 I *D sky130_fd_sc_hd__a22o_1
*I *2998:Q O *D sky130_fd_sc_hd__dlxtn_1
*CAP
1 *2542:B2 0.000368123
2 *2998:Q 0.000368123
3 *2542:B2 *2542:A2 0
4 *2542:B2 *2544:A1 3.75052e-05
5 *2542:B2 *2544:A2 0.00014576
6 *2542:B2 *2544:B1 0
7 *2542:B2 *851:102 3.88139e-05
8 *2542:B2 *904:16 3.34366e-05
9 *2542:B2 *904:22 0.000493772
*RES
1 *2998:Q *2542:B2 35.7607 
*END

*D_NET *149 0.0011993
*CONN
*I *2554:A1 I *D sky130_fd_sc_hd__a22o_1
*I *2999:Q O *D sky130_fd_sc_hd__dlxtn_1
*CAP
1 *2554:A1 0.00041897
2 *2999:Q 0.00041897
3 *2554:A1 *2554:A2 1.02504e-05
4 *2554:A1 *2855:GATE_N 4.69661e-05
5 *2554:A1 *2871:GATE_N 3.14539e-05
6 *2554:A1 *858:42 0
7 *2554:A1 *877:38 0.000229456
8 *2554:A1 *923:50 0
9 *2554:A1 *928:59 4.32309e-05
10 *2578:B2 *2554:A1 0
*RES
1 *2999:Q *2554:A1 34.1536 
*END

*D_NET *150 0.00101958
*CONN
*I *2455:B2 I *D sky130_fd_sc_hd__a22o_1
*I *3006:Q O *D sky130_fd_sc_hd__dlxtn_1
*CAP
1 *2455:B2 0.000291716
2 *3006:Q 0.000291716
3 *2455:B2 *2478:A1 5.41794e-05
4 *2455:B2 *3006:D 2.89016e-05
5 *2455:B2 *877:40 2.59355e-05
6 *2455:B2 *877:51 0.000125731
7 *2455:B2 *877:68 0.000146451
8 *2455:A1 *2455:B2 5.49489e-05
*RES
1 *3006:Q *2455:B2 33.4571 
*END

*D_NET *151 0.00127514
*CONN
*I *2565:B2 I *D sky130_fd_sc_hd__a22o_1
*I *3016:Q O *D sky130_fd_sc_hd__dlxtn_1
*CAP
1 *2565:B2 0.000487824
2 *3016:Q 0.000487824
3 *2565:B2 *2567:B2 0.000225193
4 *2565:B2 *2856:GATE_N 9.11048e-06
5 *2565:B2 *2888:GATE_N 0
6 *2565:B2 *814:80 0
7 *2565:B2 *855:32 6.5185e-05
*RES
1 *3016:Q *2565:B2 35.8857 
*END

*D_NET *152 0.000179767
*CONN
*I *2576:B2 I *D sky130_fd_sc_hd__a22o_1
*I *3017:Q O *D sky130_fd_sc_hd__dlxtn_1
*CAP
1 *2576:B2 5.41001e-05
2 *3017:Q 5.41001e-05
3 *2576:B2 *2576:A2 0
4 *2576:B2 *2576:B1 7.15665e-05
5 *2576:B2 *900:71 0
*RES
1 *3017:Q *2576:B2 19.8679 
*END

*D_NET *153 0.000385071
*CONN
*I *2590:A1 I *D sky130_fd_sc_hd__a211o_1
*I *3018:Q O *D sky130_fd_sc_hd__dlxtn_1
*CAP
1 *2590:A1 9.87996e-05
2 *3018:Q 9.87996e-05
3 *2590:A1 *2961:GATE_N 3.92757e-05
4 *2590:A1 *2993:GATE_N 0
5 *2590:A1 *833:12 0.000148196
*RES
1 *3018:Q *2590:A1 29.5464 
*END

*D_NET *154 0.000637507
*CONN
*I *2597:B2 I *D sky130_fd_sc_hd__a22o_1
*I *3019:Q O *D sky130_fd_sc_hd__dlxtn_1
*CAP
1 *2597:B2 0.000173485
2 *3019:Q 0.000173485
3 *2597:B2 *2597:A1 3.0285e-05
4 *2597:B2 *870:18 0.000136958
5 *2597:B2 *938:14 0.000123295
*RES
1 *3019:Q *2597:B2 30.6 
*END

*D_NET *155 0.000481333
*CONN
*I *2612:A1 I *D sky130_fd_sc_hd__a211o_1
*I *3020:Q O *D sky130_fd_sc_hd__dlxtn_1
*CAP
1 *2612:A1 0.000112551
2 *3020:Q 0.000112551
3 *2612:A1 *2612:A2 3.57366e-05
4 *2612:A1 *2612:B1 5.33005e-05
5 *2612:A1 *3192:A 5.96516e-05
6 *2612:A1 *496:16 1.04232e-05
7 *2612:A1 *900:21 9.71197e-05
*RES
1 *3020:Q *2612:A1 21.225 
*END

*D_NET *156 0.00101377
*CONN
*I *2622:B2 I *D sky130_fd_sc_hd__a22o_1
*I *3021:Q O *D sky130_fd_sc_hd__dlxtn_1
*CAP
1 *2622:B2 0.000216565
2 *3021:Q 0.000216565
3 *2622:B2 *2622:A1 0.000188682
4 *2622:B2 *2988:GATE_N 0.000166223
5 *2622:B2 *3132:A 3.25247e-05
6 *2622:B2 *821:16 5.52302e-05
7 *2622:B2 *834:44 0.000137983
8 *2622:B2 *907:56 0
*RES
1 *3021:Q *2622:B2 33.3321 
*END

*D_NET *157 0.000608704
*CONN
*I *2462:B2 I *D sky130_fd_sc_hd__a22o_1
*I *3007:Q O *D sky130_fd_sc_hd__dlxtn_1
*CAP
1 *2462:B2 0.00019668
2 *3007:Q 0.00019668
3 *2462:B2 *2462:A2 0.000137983
4 *2462:B2 *2462:B1 4.43256e-05
5 *2462:B2 *3209:A 3.30352e-05
*RES
1 *3007:Q *2462:B2 22.4571 
*END

*D_NET *158 0.000456473
*CONN
*I *2480:A1 I *D sky130_fd_sc_hd__a211o_1
*I *3008:Q O *D sky130_fd_sc_hd__dlxtn_1
*CAP
1 *2480:A1 0.000173221
2 *3008:Q 0.000173221
3 *2480:A1 *2480:B1 7.24849e-05
4 *2480:A1 *3015:GATE_N 2.72967e-05
5 *2480:A1 *853:67 0
6 *2480:A1 *900:79 1.02504e-05
*RES
1 *3008:Q *2480:A1 30.4929 
*END

*D_NET *159 0.000860208
*CONN
*I *2489:B2 I *D sky130_fd_sc_hd__a221o_1
*I *3009:Q O *D sky130_fd_sc_hd__dlxtn_1
*CAP
1 *2489:B2 0.000289875
2 *3009:Q 0.000289875
3 *2489:B2 *2489:A1 2.28335e-05
4 *2489:B2 *2489:C1 1.02504e-05
5 *2489:B2 *2491:A2 7.77751e-05
6 *2489:B2 *2492:B 0
7 *2489:B2 *590:24 3.82227e-06
8 *2489:B2 *906:22 0.000102893
9 *2489:B2 *921:26 5.66157e-05
10 *2489:B2 *921:28 6.26774e-06
*RES
1 *3009:Q *2489:B2 33.158 
*END

*D_NET *160 0.00043991
*CONN
*I *2502:A1 I *D sky130_fd_sc_hd__a211o_1
*I *3010:Q O *D sky130_fd_sc_hd__dlxtn_1
*CAP
1 *2502:A1 9.3021e-05
2 *3010:Q 9.3021e-05
3 *2502:A1 *2500:A1 7.6644e-05
4 *2502:A1 *2502:B1 0.000135857
5 *2502:A1 *903:102 1.02504e-05
6 *2502:A1 *904:16 3.11166e-05
*RES
1 *3010:Q *2502:A1 30.0821 
*END

*D_NET *161 0.00278033
*CONN
*I *2512:B2 I *D sky130_fd_sc_hd__a22o_1
*I *3011:Q O *D sky130_fd_sc_hd__dlxtn_1
*CAP
1 *2512:B2 0.00110552
2 *3011:Q 0.00110552
3 *2512:B2 *2851:GATE_N 0.00013833
4 *2512:B2 *2995:GATE_N 3.07932e-05
5 *2512:B2 *3011:D 0.000161859
6 *2512:B2 *817:30 0.000131247
7 *2512:B2 *866:100 0.00010326
8 *2510:B2 *2512:B2 3.79877e-06
*RES
1 *3011:Q *2512:B2 43.1893 
*END

*D_NET *162 0.00145891
*CONN
*I *2521:B2 I *D sky130_fd_sc_hd__a22o_1
*I *3012:Q O *D sky130_fd_sc_hd__dlxtn_1
*CAP
1 *2521:B2 0.000404058
2 *3012:Q 0.000404058
3 *2521:B2 *2852:GATE_N 1.76039e-05
4 *2521:B2 *2980:GATE_N 0.000148189
5 *2521:B2 *815:38 0.000484997
*RES
1 *3012:Q *2521:B2 34.1893 
*END

*D_NET *163 0.000974441
*CONN
*I *2533:B2 I *D sky130_fd_sc_hd__a221o_1
*I *3013:Q O *D sky130_fd_sc_hd__dlxtn_1
*CAP
1 *2533:B2 0.000270286
2 *3013:Q 0.000270286
3 *2533:B2 *2532:A2 8.17618e-05
4 *2533:B2 *2533:A1 6.26774e-06
5 *2533:B2 *2587:A2 0.000114759
6 *2533:B2 *2588:A2 0.000111796
7 *2533:B2 *862:35 1.28809e-05
8 *2533:B2 *923:80 0.000106403
*RES
1 *3013:Q *2533:B2 33.5866 
*END

*D_NET *164 0.000507005
*CONN
*I *2544:A1 I *D sky130_fd_sc_hd__a211o_1
*I *3014:Q O *D sky130_fd_sc_hd__dlxtn_1
*CAP
1 *2544:A1 0.000126875
2 *3014:Q 0.000126875
3 *2544:A1 *2543:B2 9.90367e-05
4 *2544:A1 *2544:A2 4.46186e-06
5 *2544:A1 *2544:B1 1.3142e-05
6 *2544:A1 *906:93 9.91086e-05
7 *2542:B2 *2544:A1 3.75052e-05
*RES
1 *3014:Q *2544:A1 30.1893 
*END

*D_NET *165 0.000447672
*CONN
*I *2554:B2 I *D sky130_fd_sc_hd__a22o_1
*I *3015:Q O *D sky130_fd_sc_hd__dlxtn_1
*CAP
1 *2554:B2 9.97089e-05
2 *3015:Q 9.97089e-05
3 *2554:B2 *2459:A 5.52302e-05
4 *2554:B2 *2554:B1 5.52302e-05
5 *2554:B2 *2855:GATE_N 6.76487e-05
6 *2554:B2 *923:50 6.55423e-05
7 *2554:B2 *923:63 4.6025e-06
*RES
1 *3015:Q *2554:B2 30.0821 
*END

*D_NET *166 0.0010322
*CONN
*I *2454:A1 I *D sky130_fd_sc_hd__a221o_1
*I *3022:Q O *D sky130_fd_sc_hd__dlxtn_1
*CAP
1 *2454:A1 0.000301924
2 *3022:Q 0.000301924
3 *2454:A1 *2454:B2 5.59533e-05
4 *2454:A1 *2475:B1 0.000136358
5 *2454:A1 *2653:A0 0.000170055
6 *2454:A1 *2903:GATE_N 0
7 *2454:A1 *3172:A 1.40415e-05
8 *2454:A1 *377:12 3.26628e-05
9 *2454:A1 *877:6 1.92789e-05
*RES
1 *3022:Q *2454:A1 33.1357 
*END

*D_NET *167 0.000913163
*CONN
*I *2564:A1 I *D sky130_fd_sc_hd__a221o_1
*I *3032:Q O *D sky130_fd_sc_hd__dlxtn_1
*CAP
1 *2564:A1 0.000320452
2 *3032:Q 0.000320452
3 *2564:A1 *2492:A 0
4 *2564:A1 *2564:A2 4.46186e-06
5 *2564:A1 *2564:B1 1.02504e-05
6 *2564:A1 *2564:B2 5.12344e-05
7 *2564:A1 *811:52 0.000144773
8 *2564:A1 *822:176 6.15399e-05
9 *2564:A1 *827:100 0
10 *2564:A1 *892:49 0
*RES
1 *3032:Q *2564:A1 33.3321 
*END

*D_NET *168 0.000866793
*CONN
*I *2572:A1 I *D sky130_fd_sc_hd__a22o_1
*I *3033:Q O *D sky130_fd_sc_hd__dlxtn_1
*CAP
1 *2572:A1 0.00019829
2 *3033:Q 0.00019829
3 *2572:A1 *2550:A2 0.000146992
4 *2572:A1 *3031:GATE_N 0.000177815
5 *2572:A1 *1003:14 0.000145406
*RES
1 *3033:Q *2572:A1 31.3143 
*END

*D_NET *169 0.00118817
*CONN
*I *2585:B2 I *D sky130_fd_sc_hd__a22o_1
*I *3034:Q O *D sky130_fd_sc_hd__dlxtn_1
*CAP
1 *2585:B2 0.000272503
2 *3034:Q 0.000272503
3 *2585:B2 *2540:A2 0.000170964
4 *2585:B2 *831:22 0.000315422
5 *2585:B2 *892:33 0.000156776
*RES
1 *3034:Q *2585:B2 34.6714 
*END

*D_NET *170 0.00100013
*CONN
*I *2596:B2 I *D sky130_fd_sc_hd__a22o_1
*I *3035:Q O *D sky130_fd_sc_hd__dlxtn_1
*CAP
1 *2596:B2 0.000212566
2 *3035:Q 0.000212566
3 *2596:B2 *3146:A 2.31791e-05
4 *2596:B2 *3191:A 5.52302e-05
5 *2596:B2 *3203:A 0.0001827
6 *2596:B2 *491:6 4.85033e-05
7 *2596:B2 *647:10 4.58194e-05
8 *2596:B2 *834:72 4.78056e-05
9 *2596:B2 *849:10 0
10 *2596:B2 *850:8 0.000127439
11 *2596:B2 *919:14 4.43256e-05
*RES
1 *3035:Q *2596:B2 32.9571 
*END

*D_NET *171 0.00122464
*CONN
*I *2605:B2 I *D sky130_fd_sc_hd__a22o_1
*I *3036:Q O *D sky130_fd_sc_hd__dlxtn_1
*CAP
1 *2605:B2 0.000423945
2 *3036:Q 0.000423945
3 *2605:B2 *2605:A1 3.34672e-05
4 *2605:B2 *2908:D 5.48067e-05
5 *2605:B2 *3126:A 0.000114369
6 *2605:B2 *448:28 7.50697e-05
7 *2605:B2 *830:90 0
8 *2605:B2 *847:135 9.90367e-05
9 *2605:B2 *914:151 0
*RES
1 *3036:Q *2605:B2 35.0464 
*END

*D_NET *172 0.00138477
*CONN
*I *2618:A1 I *D sky130_fd_sc_hd__a22o_1
*I *3037:Q O *D sky130_fd_sc_hd__dlxtn_1
*CAP
1 *2618:A1 0.000311368
2 *3037:Q 0.000311368
3 *2618:A1 *3037:GATE_N 0.00022266
4 *2618:A1 *812:36 0.000212653
5 *2618:A1 *933:24 0.00032672
*RES
1 *3037:Q *2618:A1 34.1536 
*END

*D_NET *173 0.000398759
*CONN
*I *2467:A1 I *D sky130_fd_sc_hd__a22o_1
*I *3023:Q O *D sky130_fd_sc_hd__dlxtn_1
*CAP
1 *2467:A1 0.000161425
2 *3023:Q 0.000161425
3 *2467:A1 *2467:B2 2.89016e-05
4 *2467:A1 *830:20 4.70078e-05
*RES
1 *3023:Q *2467:A1 20.7964 
*END

*D_NET *174 0.00014164
*CONN
*I *2475:B2 I *D sky130_fd_sc_hd__a22o_1
*I *3024:Q O *D sky130_fd_sc_hd__dlxtn_1
*CAP
1 *2475:B2 7.08202e-05
2 *3024:Q 7.08202e-05
*RES
1 *3024:Q *2475:B2 19.8679 
*END

*D_NET *175 0.000932466
*CONN
*I *2484:B2 I *D sky130_fd_sc_hd__a22o_1
*I *3025:Q O *D sky130_fd_sc_hd__dlxtn_1
*CAP
1 *2484:B2 0.000262915
2 *3025:Q 0.000262915
3 *2484:B2 *2484:A2 9.71197e-05
4 *2484:B2 *2486:B1 0
5 *2484:B2 *389:10 0.000166788
6 *2484:B2 *805:12 4.56089e-05
7 *2484:B2 *916:95 9.71197e-05
*RES
1 *3025:Q *2484:B2 32.9214 
*END

*D_NET *176 0.000843689
*CONN
*I *2495:B2 I *D sky130_fd_sc_hd__a22o_1
*I *3026:Q O *D sky130_fd_sc_hd__dlxtn_1
*CAP
1 *2495:B2 0.00024119
2 *3026:Q 0.00024119
3 *2495:B2 *2495:B1 5.13222e-05
4 *2495:B2 *869:19 4.43256e-05
5 *2495:B2 *899:85 0.00014285
6 *2495:B2 *919:29 0.000113264
7 *2495:B2 *919:35 9.54798e-06
*RES
1 *3026:Q *2495:B2 31.4214 
*END

*D_NET *177 0.00190299
*CONN
*I *2507:A1 I *D sky130_fd_sc_hd__a221o_1
*I *3027:Q O *D sky130_fd_sc_hd__dlxtn_1
*CAP
1 *2507:A1 0.000591717
2 *3027:Q 0.000591717
3 *2507:A1 *2507:B1 9.41642e-05
4 *2507:A1 *2507:B2 0.000240139
5 *2507:A1 *3075:D 6.05161e-06
6 *2507:A1 *3105:A 0.00010197
7 *2507:A1 *3109:A 4.41891e-05
8 *2507:A1 *570:18 0
9 *2507:A1 *808:14 9.60939e-05
10 *2507:A1 *838:18 0
11 *2507:A1 *839:75 0.000136951
12 *2515:A1 *2507:A1 0
*RES
1 *3027:Q *2507:A1 46.0286 
*END

*D_NET *178 0.000408575
*CONN
*I *2520:B2 I *D sky130_fd_sc_hd__a221o_1
*I *3028:Q O *D sky130_fd_sc_hd__dlxtn_1
*CAP
1 *2520:B2 6.87563e-05
2 *3028:Q 6.87563e-05
3 *2520:B2 *2520:A2 1.28809e-05
4 *2520:B2 *2520:C1 0.000145753
5 *2520:B2 *499:38 3.57844e-05
6 *2520:B2 *580:10 7.6644e-05
*RES
1 *3028:Q *2520:B2 29.6759 
*END

*D_NET *179 0.00114213
*CONN
*I *2530:A1 I *D sky130_fd_sc_hd__a22o_1
*I *3029:Q O *D sky130_fd_sc_hd__dlxtn_1
*CAP
1 *2530:A1 0.000192521
2 *3029:Q 0.000192521
3 *2530:A1 *2531:B2 0.000102545
4 *2530:A1 *805:34 5.52302e-05
5 *2530:A1 *831:28 6.19126e-05
6 *2530:A1 *892:33 1.02504e-05
7 *2530:A1 *892:39 0.000341632
8 *2530:A1 *898:31 0.000185519
*RES
1 *3029:Q *2530:A1 34.0286 
*END

*D_NET *180 0.000866855
*CONN
*I *2539:A1 I *D sky130_fd_sc_hd__a22o_1
*I *3030:Q O *D sky130_fd_sc_hd__dlxtn_1
*CAP
1 *2539:A1 0.000204227
2 *3030:Q 0.000204227
3 *2539:A1 *852:16 0.000229456
4 *2539:A1 *881:57 7.8327e-05
5 *2539:A1 *898:95 0.000150618
*RES
1 *3030:Q *2539:A1 31.725 
*END

*D_NET *181 0.000939145
*CONN
*I *2550:A1 I *D sky130_fd_sc_hd__a22o_1
*I *3031:Q O *D sky130_fd_sc_hd__dlxtn_1
*CAP
1 *2550:A1 0.000339894
2 *3031:Q 0.000339894
3 *2550:A1 *2473:B1 0.000102315
4 *2550:A1 *2550:A2 4.46186e-06
5 *2550:A1 *2639:B 7.80714e-06
6 *2550:A1 *3031:D 0
7 *2550:A1 *521:18 0.000144773
8 *2550:A1 *859:69 0
9 *2550:A1 *1003:14 0
*RES
1 *3031:Q *2550:A1 33.3321 
*END

*D_NET *182 0.000798122
*CONN
*I *2452:B2 I *D sky130_fd_sc_hd__a221o_1
*I *3038:Q O *D sky130_fd_sc_hd__dlxtn_1
*CAP
1 *2452:B2 0.000303581
2 *3038:Q 0.000303581
3 *2452:B2 *2452:A1 4.80534e-05
4 *2452:B2 *2452:B1 2.85616e-05
5 *2452:B2 *2452:C1 4.46186e-06
6 *2452:B2 *2460:B2 5.03772e-05
7 *2452:B2 *2573:A2 8.67774e-06
8 *2452:B2 *2841:GATE_N 0
9 *2452:B2 *521:12 5.30637e-06
10 *2452:B2 *809:44 0
11 *2452:B2 *878:10 4.55215e-05
*RES
1 *3038:Q *2452:B2 32.1179 
*END

*D_NET *183 0.000420214
*CONN
*I *2563:B2 I *D sky130_fd_sc_hd__a22o_1
*I *3048:Q O *D sky130_fd_sc_hd__dlxtn_1
*CAP
1 *2563:B2 7.69981e-05
2 *3048:Q 7.69981e-05
3 *2563:B2 *2486:B1 4.57538e-05
4 *2563:B2 *2563:A1 0.000135311
5 *2563:B2 *2563:B1 1.33343e-05
6 *2563:B2 *389:10 1.46717e-05
7 *2563:B2 *896:98 5.71472e-05
*RES
1 *3048:Q *2563:B2 29.7786 
*END

*D_NET *184 0.00122004
*CONN
*I *2572:B2 I *D sky130_fd_sc_hd__a22o_1
*I *3049:Q O *D sky130_fd_sc_hd__dlxtn_1
*CAP
1 *2572:B2 0.000322619
2 *3049:Q 0.000322619
3 *2572:B2 *2573:A1 0.00011294
4 *2572:B2 *2841:D 1.76135e-05
5 *2572:B2 *2905:D 0
6 *2572:B2 *3031:GATE_N 9.20635e-06
7 *2572:B2 *3033:D 2.57297e-05
8 *2572:B2 *854:79 0.000142326
9 *2572:B2 *911:72 0
10 *2572:B2 *932:70 0.000266991
*RES
1 *3049:Q *2572:B2 33.6536 
*END

*D_NET *185 0.000793503
*CONN
*I *2583:B2 I *D sky130_fd_sc_hd__a22o_1
*I *3050:Q O *D sky130_fd_sc_hd__dlxtn_1
*CAP
1 *2583:B2 0.000199875
2 *3050:Q 0.000199875
3 *2583:B2 *2583:A1 8.18528e-05
4 *2583:B2 *2922:D 8.2018e-05
5 *2583:B2 *911:54 1.76135e-05
6 *2583:B2 *911:72 0.000155397
7 *2583:B2 *916:95 5.68722e-05
*RES
1 *3050:Q *2583:B2 32.5107 
*END

*D_NET *186 0.000243671
*CONN
*I *2595:B2 I *D sky130_fd_sc_hd__a221o_1
*I *3051:Q O *D sky130_fd_sc_hd__dlxtn_1
*CAP
1 *2595:B2 5.84544e-05
2 *3051:Q 5.84544e-05
3 *2595:B2 *2595:A1 1.21371e-05
4 *2595:B2 *3205:A 5.19509e-05
5 *2595:B2 *498:16 6.26743e-05
*RES
1 *3051:Q *2595:B2 20.533 
*END

*D_NET *187 0.000722706
*CONN
*I *2607:B2 I *D sky130_fd_sc_hd__a22o_1
*I *3052:Q O *D sky130_fd_sc_hd__dlxtn_1
*CAP
1 *2607:B2 0.000213859
2 *3052:Q 0.000213859
3 *2607:B2 *2607:A1 2.83893e-05
4 *2607:B2 *2607:B1 3.07555e-05
5 *2607:B2 *2613:A 9.54798e-06
6 *2607:B2 *822:49 4.08629e-05
7 *2607:B2 *894:112 0.000185432
8 *2607:B2 *896:12 0
*RES
1 *3052:Q *2607:B2 31.975 
*END

*D_NET *188 0.000585717
*CONN
*I *2618:B2 I *D sky130_fd_sc_hd__a22o_1
*I *3053:Q O *D sky130_fd_sc_hd__dlxtn_1
*CAP
1 *2618:B2 0.000173264
2 *3053:Q 0.000173264
3 *2618:B2 *3039:GATE_N 9.90367e-05
4 *2618:B2 *812:36 0.000140152
*RES
1 *3053:Q *2618:B2 30.4929 
*END

*D_NET *189 0.00104258
*CONN
*I *2463:B2 I *D sky130_fd_sc_hd__a22o_1
*I *3039:Q O *D sky130_fd_sc_hd__dlxtn_1
*CAP
1 *2463:B2 0.000282888
2 *3039:Q 0.000282888
3 *2463:B2 *2464:A1 0.000309273
4 *2463:B2 *830:31 5.85031e-05
5 *2463:B2 *881:57 0.000109028
*RES
1 *3039:Q *2463:B2 32.2429 
*END

*D_NET *190 0.00029317
*CONN
*I *2474:B2 I *D sky130_fd_sc_hd__a221o_1
*I *3040:Q O *D sky130_fd_sc_hd__dlxtn_1
*CAP
1 *2474:B2 5.87162e-05
2 *3040:Q 5.87162e-05
3 *2474:B2 *2474:A1 2.82951e-05
4 *2474:B2 *2474:C1 5.71472e-05
5 *2474:B2 *2560:B 9.0295e-05
*RES
1 *3040:Q *2474:B2 20.533 
*END

*D_NET *191 0.00116532
*CONN
*I *2485:A1 I *D sky130_fd_sc_hd__a221o_1
*I *3041:Q O *D sky130_fd_sc_hd__dlxtn_1
*CAP
1 *2485:A1 0.000323905
2 *3041:Q 0.000323905
3 *2485:A1 *2485:B1 1.82896e-05
4 *2485:A1 *2493:B1 0.000124529
5 *2485:A1 *809:28 1.02504e-05
6 *2485:A1 *809:32 1.87097e-05
7 *2485:A1 *809:38 6.8646e-06
8 *2485:A1 *829:73 0.000100831
9 *2485:A1 *829:88 0.000206524
10 *2485:A1 *856:60 3.15103e-05
*RES
1 *3041:Q *2485:A1 33.5643 
*END

*D_NET *192 0.000712192
*CONN
*I *2497:B2 I *D sky130_fd_sc_hd__a22o_1
*I *3042:Q O *D sky130_fd_sc_hd__dlxtn_1
*CAP
1 *2497:B2 0.000161329
2 *3042:Q 0.000161329
3 *2497:B2 *2497:A1 2.27416e-05
4 *2497:B2 *2648:A0 6.74e-05
5 *2497:B2 *3109:A 9.54798e-06
6 *2497:B2 *839:75 5.93626e-05
7 *2497:B2 *915:48 0
8 *2497:B2 *917:62 0.000230482
*RES
1 *3042:Q *2497:B2 31.725 
*END

*D_NET *193 0.00106859
*CONN
*I *2507:B2 I *D sky130_fd_sc_hd__a221o_1
*I *3043:Q O *D sky130_fd_sc_hd__dlxtn_1
*CAP
1 *2507:B2 0.000302039
2 *3043:Q 0.000302039
3 *2507:B2 *2507:B1 1.28809e-05
4 *2507:B2 *2507:C1 1.02504e-05
5 *2507:B2 *3105:A 3.33467e-05
6 *2507:B2 *570:18 0
7 *2507:B2 *808:14 0
8 *2507:B2 *838:18 0.000155014
9 *2507:B2 *898:161 1.28809e-05
10 *2507:A1 *2507:B2 0.000240139
*RES
1 *3043:Q *2507:B2 33.0509 
*END

*D_NET *194 0.00137451
*CONN
*I *2517:A1 I *D sky130_fd_sc_hd__a22o_1
*I *3044:Q O *D sky130_fd_sc_hd__dlxtn_1
*CAP
1 *2517:A1 0.000480804
2 *3044:Q 0.000480804
3 *2517:A1 *2518:C1 0.000381346
4 *2517:A1 *2547:B1 1.69115e-05
5 *2517:A1 *2548:B2 9.25014e-06
6 *2517:A1 *382:10 0
7 *2517:A1 *933:39 5.39629e-06
*RES
1 *3044:Q *2517:A1 36.4571 
*END

*D_NET *195 0.00107206
*CONN
*I *2529:B2 I *D sky130_fd_sc_hd__a221o_1
*I *3045:Q O *D sky130_fd_sc_hd__dlxtn_1
*CAP
1 *2529:B2 0.000263513
2 *3045:Q 0.000263513
3 *2529:B2 *2529:A1 0.0001314
4 *2529:B2 *2529:B1 6.93579e-05
5 *2529:B2 *2529:C1 6.10501e-05
6 *2529:B2 *2655:S 8.46044e-06
7 *2529:B2 *838:34 0.000147325
8 *2529:B2 *838:40 0.000127439
*RES
1 *3045:Q *2529:B2 33.408 
*END

*D_NET *196 0.000839573
*CONN
*I *2546:A1 I *D sky130_fd_sc_hd__a22o_1
*I *3046:Q O *D sky130_fd_sc_hd__dlxtn_1
*CAP
1 *2546:A1 0.000260492
2 *3046:Q 0.000260492
3 *2546:A1 *2546:A2 0.000156054
4 *2546:A1 *825:130 5.24274e-05
5 *2546:A1 *860:34 0.000110107
*RES
1 *3046:Q *2546:A1 31.5286 
*END

*D_NET *197 0.000707701
*CONN
*I *2553:B2 I *D sky130_fd_sc_hd__a221o_1
*I *3047:Q O *D sky130_fd_sc_hd__dlxtn_1
*CAP
1 *2553:B2 0.000221667
2 *3047:Q 0.000221667
3 *2553:B2 *2476:B1 3.0305e-05
4 *2553:B2 *2476:B2 7.11434e-05
5 *2553:B2 *2553:A1 1.28809e-05
6 *2553:B2 *2553:A2 1.28809e-05
7 *2553:B2 *2553:B1 4.46186e-06
8 *2553:B2 *894:50 5.99053e-05
9 *2553:B2 *918:29 7.27894e-05
*RES
1 *3047:Q *2553:B2 32.3366 
*END

*D_NET *198 0.000167634
*CONN
*I *2451:B2 I *D sky130_fd_sc_hd__a22o_1
*I *3054:Q O *D sky130_fd_sc_hd__dlxtn_1
*CAP
1 *2451:B2 5.06956e-05
2 *3054:Q 5.06956e-05
3 *2451:B2 *2451:B1 1.49785e-05
4 *2451:B2 *858:15 2.89016e-05
5 *2451:B2 *894:69 2.23628e-05
*RES
1 *3054:Q *2451:B2 19.8679 
*END

*D_NET *199 0.000748487
*CONN
*I *2562:B2 I *D sky130_fd_sc_hd__a221o_1
*I *3064:Q O *D sky130_fd_sc_hd__dlxtn_1
*CAP
1 *2562:B2 0.000140315
2 *3064:Q 0.000140315
3 *2562:B2 *2562:A2 0.000309894
4 *2562:B2 *2562:B1 6.00341e-05
5 *2562:B2 *3040:GATE_N 8.5048e-05
6 *2562:B2 *994:18 1.28809e-05
*RES
1 *3064:Q *2562:B2 31.8009 
*END

*D_NET *200 0.00191015
*CONN
*I *2574:B2 I *D sky130_fd_sc_hd__a22o_1
*I *3065:Q O *D sky130_fd_sc_hd__dlxtn_1
*CAP
1 *2574:B2 0.00060367
2 *3065:Q 0.00060367
3 *2574:B2 *3065:GATE_N 0.000390987
4 *2574:B2 *3151:A 0.000111448
5 *2574:B2 *825:43 6.42338e-05
6 *2574:B2 *827:64 2.88018e-06
7 *2574:B2 *914:16 9.25014e-06
8 *2574:B2 *914:18 0.00012401
*RES
1 *3065:Q *2574:B2 36.35 
*END

*D_NET *201 0.000503162
*CONN
*I *2586:B2 I *D sky130_fd_sc_hd__a221o_1
*I *3066:Q O *D sky130_fd_sc_hd__dlxtn_1
*CAP
1 *2586:B2 0.000140707
2 *3066:Q 0.000140707
3 *2586:B2 *2586:C1 9.54798e-06
4 *2586:B2 *2886:GATE_N 5.71472e-05
5 *2586:B2 *2938:D 3.66984e-05
6 *2586:B2 *635:20 7.5779e-05
7 *2586:B2 *807:18 2.96948e-05
8 *2586:B2 *847:125 1.28809e-05
*RES
1 *3066:Q *2586:B2 30.2116 
*END

*D_NET *202 0.00016408
*CONN
*I *2600:B2 I *D sky130_fd_sc_hd__a22o_1
*I *3067:Q O *D sky130_fd_sc_hd__dlxtn_1
*CAP
1 *2600:B2 5.79498e-05
2 *3067:Q 5.79498e-05
3 *2600:B2 *3209:A 2.89016e-05
4 *2600:B2 *808:78 1.92789e-05
*RES
1 *3067:Q *2600:B2 19.8679 
*END

*D_NET *203 0.000509825
*CONN
*I *2608:B2 I *D sky130_fd_sc_hd__a221o_1
*I *3068:Q O *D sky130_fd_sc_hd__dlxtn_1
*CAP
1 *2608:B2 0.000134651
2 *3068:Q 0.000134651
3 *2608:B2 *2608:C1 4.46186e-06
4 *2608:B2 *2924:GATE_N 4.12365e-05
5 *2608:B2 *448:28 1.07719e-05
6 *2608:B2 *894:127 3.04785e-05
7 *2608:B2 *896:12 0.000144896
8 *2608:B2 *914:151 8.67774e-06
*RES
1 *3068:Q *2608:B2 30.3679 
*END

*D_NET *204 0.000839633
*CONN
*I *2617:B2 I *D sky130_fd_sc_hd__a221o_1
*I *3069:Q O *D sky130_fd_sc_hd__dlxtn_1
*CAP
1 *2617:B2 0.000168231
2 *3069:Q 0.000168231
3 *2617:B2 *2617:B1 2.85551e-05
4 *2617:B2 *2950:GATE_N 5.49536e-05
5 *2617:B2 *823:68 8.96657e-05
6 *2617:B2 *838:28 0.000301441
7 *2617:B2 *917:90 2.85551e-05
*RES
1 *3069:Q *2617:B2 31.9571 
*END

*D_NET *205 0.000642326
*CONN
*I *2467:B2 I *D sky130_fd_sc_hd__a22o_1
*I *3055:Q O *D sky130_fd_sc_hd__dlxtn_1
*CAP
1 *2467:B2 0.000129275
2 *3055:Q 0.000129275
3 *2467:B2 *830:20 0.00017142
4 *2467:B2 *834:66 3.52655e-05
5 *2467:B2 *925:43 0.000148189
6 *2467:A1 *2467:B2 2.89016e-05
*RES
1 *3055:Q *2467:B2 30.9036 
*END

*D_NET *206 0.00145774
*CONN
*I *2476:B2 I *D sky130_fd_sc_hd__a221o_1
*I *3056:Q O *D sky130_fd_sc_hd__dlxtn_1
*CAP
1 *2476:B2 0.000515288
2 *3056:Q 0.000515288
3 *2476:B2 *2476:B1 0
4 *2476:B2 *2928:D 4.35336e-05
5 *2476:B2 *2928:GATE_N 3.18676e-05
6 *2476:B2 *3054:GATE_N 7.28102e-05
7 *2476:B2 *918:29 0.000125241
8 *2476:B2 *918:55 8.2568e-05
9 *2553:B2 *2476:B2 7.11434e-05
*RES
1 *3056:Q *2476:B2 35.8009 
*END

*D_NET *207 0.0011649
*CONN
*I *2487:B2 I *D sky130_fd_sc_hd__a221o_1
*I *3057:Q O *D sky130_fd_sc_hd__dlxtn_1
*CAP
1 *2487:B2 0.000244382
2 *3057:Q 0.000244382
3 *2487:B2 *2486:A1 0.000139907
4 *2487:B2 *2486:B2 3.69697e-05
5 *2487:B2 *2487:C1 0.000332629
6 *2487:B2 *2564:C1 1.28809e-05
7 *2487:B2 *872:12 3.34366e-05
8 *2487:B2 *872:55 1.28809e-05
9 *2487:B2 *894:37 0.000107432
*RES
1 *3057:Q *2487:B2 33.4616 
*END

*D_NET *208 0.000749546
*CONN
*I *2496:A1 I *D sky130_fd_sc_hd__a22o_1
*I *3058:Q O *D sky130_fd_sc_hd__dlxtn_1
*CAP
1 *2496:A1 0.000189947
2 *3058:Q 0.000189947
3 *2496:A1 *3129:A 9.51899e-05
4 *2496:A1 *808:78 0.00017947
5 *2496:A1 *869:33 9.49928e-05
*RES
1 *3058:Q *2496:A1 30.7071 
*END

*D_NET *209 0.000762451
*CONN
*I *2506:A1 I *D sky130_fd_sc_hd__a22o_1
*I *3059:Q O *D sky130_fd_sc_hd__dlxtn_1
*CAP
1 *2506:A1 0.000227526
2 *3059:Q 0.000227526
3 *2506:A1 *2507:B1 2.28499e-05
4 *2506:A1 *3105:A 0
5 *2506:A1 *828:60 0.000100823
6 *2506:A1 *898:161 0.000183726
*RES
1 *3059:Q *2506:A1 31.1179 
*END

*D_NET *210 0.000745557
*CONN
*I *2517:B2 I *D sky130_fd_sc_hd__a22o_1
*I *3060:Q O *D sky130_fd_sc_hd__dlxtn_1
*CAP
1 *2517:B2 0.000162647
2 *3060:Q 0.000162647
3 *2517:B2 *2517:B1 0.000181359
4 *2517:B2 *865:47 5.52302e-05
5 *2517:B2 *898:161 0.000183674
*RES
1 *3060:Q *2517:B2 32.5107 
*END

*D_NET *211 0.00051442
*CONN
*I *2528:B2 I *D sky130_fd_sc_hd__a22o_1
*I *3061:Q O *D sky130_fd_sc_hd__dlxtn_1
*CAP
1 *2528:B2 0.000174134
2 *3061:Q 0.000174134
3 *2528:B2 *2528:A1 3.47737e-05
4 *2528:B2 *2561:B1 0
5 *2528:B2 *2562:B1 4.78056e-05
6 *2528:B2 *2837:D 7.77652e-05
7 *2528:B2 *838:34 0
8 *2528:B2 *894:142 5.80706e-06
*RES
1 *3061:Q *2528:B2 30.6 
*END

*D_NET *212 0.000661572
*CONN
*I *2546:B2 I *D sky130_fd_sc_hd__a22o_1
*I *3062:Q O *D sky130_fd_sc_hd__dlxtn_1
*CAP
1 *2546:B2 0.000146334
2 *3062:Q 0.000146334
3 *2546:B2 *2547:C1 5.52302e-05
4 *2546:B2 *827:44 0.000236032
5 *2546:B2 *894:127 2.22999e-05
6 *2546:B2 *894:142 5.53417e-05
*RES
1 *3062:Q *2546:B2 22.3321 
*END

*D_NET *213 0.000921962
*CONN
*I *2551:B2 I *D sky130_fd_sc_hd__a221o_1
*I *3063:Q O *D sky130_fd_sc_hd__dlxtn_1
*CAP
1 *2551:B2 0.000248816
2 *3063:Q 0.000248816
3 *2551:B2 *2452:B1 9.21765e-05
4 *2551:B2 *2551:B1 0.000110001
5 *2551:B2 *2551:C1 1.02504e-05
6 *2551:B2 *858:15 6.13757e-06
7 *2551:B2 *892:121 0.00012553
8 *2551:B2 *896:50 6.81083e-05
9 *2581:A1 *2551:B2 1.21258e-05
*RES
1 *3063:Q *2551:B2 31.8545 
*END

*D_NET *214 0.00179879
*CONN
*I *2454:B2 I *D sky130_fd_sc_hd__a221o_1
*I *3070:Q O *D sky130_fd_sc_hd__dlxtn_1
*CAP
1 *2454:B2 0.000395305
2 *3070:Q 0.000395305
3 *2454:B2 *2454:B1 9.25014e-06
4 *2454:B2 *2454:C1 5.80706e-06
5 *2454:B2 *2475:B1 4.97121e-06
6 *2454:B2 *2653:A0 0.000356089
7 *2454:B2 *2653:A1 0.000307016
8 *2454:B2 *2910:D 0
9 *2454:B2 *2926:D 1.403e-05
10 *2454:B2 *3024:GATE_N 0.000226513
11 *2454:B2 *825:51 2.85551e-05
12 *2454:A1 *2454:B2 5.59533e-05
*RES
1 *3070:Q *2454:B2 36.5643 
*END

*D_NET *215 0.000824399
*CONN
*I *2564:B2 I *D sky130_fd_sc_hd__a221o_1
*I *3080:Q O *D sky130_fd_sc_hd__dlxtn_1
*CAP
1 *2564:B2 0.000279162
2 *3080:Q 0.000279162
3 *2564:B2 *2564:A2 6.67533e-05
4 *2564:B2 *2564:C1 1.97695e-05
5 *2564:B2 *2913:GATE_N 0.000125492
6 *2564:B2 *811:97 0
7 *2564:B2 *827:100 0
8 *2564:B2 *831:28 2.8266e-06
9 *2564:A1 *2564:B2 5.12344e-05
*RES
1 *3080:Q *2564:B2 33.0464 
*END

*D_NET *216 0.00188768
*CONN
*I *2575:B2 I *D sky130_fd_sc_hd__a221o_1
*I *3081:Q O *D sky130_fd_sc_hd__dlxtn_1
*CAP
1 *2575:B2 0.000615898
2 *3081:Q 0.000615898
3 *2575:B2 *2453:A2 2.8266e-06
4 *2575:B2 *2575:B1 3.04785e-05
5 *2575:B2 *2921:D 0
6 *2575:B2 *2937:GATE_N 0
7 *2575:B2 *853:6 0.000301824
8 *2575:B2 *853:12 0.00018372
9 *2575:B2 *892:49 0.000108478
10 *2575:B2 *916:50 2.85616e-05
*RES
1 *3081:Q *2575:B2 37.3143 
*END

*D_NET *217 0.000224859
*CONN
*I *2584:B2 I *D sky130_fd_sc_hd__a221o_1
*I *3082:Q O *D sky130_fd_sc_hd__dlxtn_1
*CAP
1 *2584:B2 8.22124e-05
2 *3082:Q 8.22124e-05
3 *2584:B2 *2584:B1 1.38106e-05
4 *2584:B2 *892:105 3.30237e-05
5 *2584:B2 *916:103 1.35999e-05
6 *2584:B2 *916:111 0
*RES
1 *3082:Q *2584:B2 20.533 
*END

*D_NET *218 0.000660365
*CONN
*I *2598:B2 I *D sky130_fd_sc_hd__a221o_1
*I *3083:Q O *D sky130_fd_sc_hd__dlxtn_1
*CAP
1 *2598:B2 0.00011244
2 *3083:Q 0.00011244
3 *2598:B2 *2503:D 6.29252e-05
4 *2598:B2 *2598:A2 0.000117552
5 *2598:B2 *2598:C1 0.000210681
6 *2598:B2 *909:18 4.43256e-05
*RES
1 *3083:Q *2598:B2 22.3321 
*END

*D_NET *219 0.00024289
*CONN
*I *2606:B2 I *D sky130_fd_sc_hd__a221o_1
*I *3084:Q O *D sky130_fd_sc_hd__dlxtn_1
*CAP
1 *2606:B2 9.28712e-05
2 *3084:Q 9.28712e-05
3 *2606:B2 *2606:C1 5.71472e-05
*RES
1 *3084:Q *2606:B2 20.408 
*END

*D_NET *220 0.00106163
*CONN
*I *2619:B2 I *D sky130_fd_sc_hd__a221o_1
*I *3085:Q O *D sky130_fd_sc_hd__dlxtn_1
*CAP
1 *2619:B2 0.000301481
2 *3085:Q 0.000301481
3 *2619:B2 *2619:B1 3.04785e-05
4 *2619:B2 *2619:C1 1.40399e-05
5 *2619:B2 *2909:D 4.01577e-05
6 *2619:B2 *448:28 0.000308287
7 *2619:B2 *449:24 0
8 *2619:B2 *810:41 6.57032e-05
*RES
1 *3085:Q *2619:B2 33.3143 
*END

*D_NET *221 0.00128076
*CONN
*I *2468:B2 I *D sky130_fd_sc_hd__a221o_1
*I *3071:Q O *D sky130_fd_sc_hd__dlxtn_1
*CAP
1 *2468:B2 0.000291272
2 *3071:Q 0.000291272
3 *2468:B2 *2395:A 6.26774e-06
4 *2468:B2 *3007:GATE_N 0.00018077
5 *2468:B2 *496:16 0.00012401
6 *2468:B2 *905:10 6.42242e-05
7 *2468:B2 *906:10 0
8 *2468:B2 *929:58 4.58194e-05
9 *2468:B2 *936:49 0.000178847
10 *2462:A1 *2468:B2 9.82829e-05
*RES
1 *3071:Q *2468:B2 33.7473 
*END

*D_NET *222 0.00094478
*CONN
*I *2473:B2 I *D sky130_fd_sc_hd__a22o_1
*I *3072:Q O *D sky130_fd_sc_hd__dlxtn_1
*CAP
1 *2473:B2 0.000325474
2 *3072:Q 0.000325474
3 *2473:B2 *2473:A2 0
4 *2473:B2 *2473:B1 5.80706e-06
5 *2473:B2 *2560:B 0.000142856
6 *2473:B2 *838:44 0
7 *2473:B2 *838:54 0.000145168
8 *2473:B2 *874:20 0
9 *2473:B2 *874:44 0
*RES
1 *3072:Q *2473:B2 33.0286 
*END

*D_NET *223 0.00109283
*CONN
*I *2485:B2 I *D sky130_fd_sc_hd__a221o_1
*I *3073:Q O *D sky130_fd_sc_hd__dlxtn_1
*CAP
1 *2485:B2 0.000239728
2 *3073:Q 0.000239728
3 *2485:B2 *2485:B1 0
4 *2485:B2 *2485:C1 0.000222975
5 *2485:B2 *2833:D 7.80714e-06
6 *2485:B2 *2833:GATE_N 0.000102545
7 *2485:B2 *856:60 0.000171206
8 *2485:B2 *896:98 3.04785e-05
9 *2485:B2 *898:118 7.83659e-05
*RES
1 *3073:Q *2485:B2 34.3857 
*END

*D_NET *224 0.000780229
*CONN
*I *2496:B2 I *D sky130_fd_sc_hd__a22o_1
*I *3074:Q O *D sky130_fd_sc_hd__dlxtn_1
*CAP
1 *2496:B2 0.000157634
2 *3074:Q 0.000157634
3 *2496:B2 *2603:B1 1.02504e-05
4 *2496:B2 *3188:A 0.000117457
5 *2496:B2 *651:26 0
6 *2496:B2 *866:35 0.000114587
7 *2496:B2 *893:37 0.000222666
8 *2496:B2 *917:34 0
*RES
1 *3074:Q *2496:B2 31.4214 
*END

*D_NET *225 0.000930011
*CONN
*I *2506:B2 I *D sky130_fd_sc_hd__a22o_1
*I *3075:Q O *D sky130_fd_sc_hd__dlxtn_1
*CAP
1 *2506:B2 0.000188031
2 *3075:Q 0.000188031
3 *2506:B2 *2506:A2 0.000259744
4 *2506:B2 *3059:D 0.00014478
5 *2506:B2 *3109:A 5.52238e-05
6 *2506:B2 *3112:A 0
7 *2506:B2 *810:14 6.9253e-05
8 *2506:B2 *828:60 2.49484e-05
*RES
1 *3075:Q *2506:B2 32.2071 
*END

*D_NET *226 0.00171695
*CONN
*I *2518:B2 I *D sky130_fd_sc_hd__a221o_1
*I *3076:Q O *D sky130_fd_sc_hd__dlxtn_1
*CAP
1 *2518:B2 0.000301255
2 *3076:Q 0.000301255
3 *2518:B2 *2518:B1 0.00011938
4 *2518:B2 *2916:D 0.000135028
5 *2518:B2 *661:26 0.000139913
6 *2518:B2 *838:28 0.000312743
7 *2518:B2 *839:79 0.000311021
8 *2518:B2 *865:6 9.63595e-05
*RES
1 *3076:Q *2518:B2 35.7652 
*END

*D_NET *227 0.000964248
*CONN
*I *2530:B2 I *D sky130_fd_sc_hd__a22o_1
*I *3077:Q O *D sky130_fd_sc_hd__dlxtn_1
*CAP
1 *2530:B2 0.000322035
2 *3077:Q 0.000322035
3 *2530:B2 *3158:A 0.00011832
4 *2530:B2 *831:28 0.000153047
5 *2530:B2 *862:23 4.88104e-05
*RES
1 *3077:Q *2530:B2 32.9571 
*END

*D_NET *228 0.00174414
*CONN
*I *2539:B2 I *D sky130_fd_sc_hd__a22o_1
*I *3078:Q O *D sky130_fd_sc_hd__dlxtn_1
*CAP
1 *2539:B2 0.000621036
2 *3078:Q 0.000621036
3 *2539:B2 *2486:B1 0
4 *2539:B2 *2540:A1 2.89114e-05
5 *2539:B2 *2541:A1 5.52302e-05
6 *2539:B2 *2886:GATE_N 3.18676e-05
7 *2539:B2 *2934:GATE_N 5.7248e-05
8 *2539:B2 *3078:D 4.35336e-05
9 *2539:B2 *829:69 2.27416e-05
10 *2539:B2 *860:36 0.00012727
11 *2539:B2 *860:38 1.58163e-05
12 *2539:B2 *881:57 0.000119449
13 *2539:B2 *911:25 0
*RES
1 *3078:Q *2539:B2 37.1714 
*END

*D_NET *229 0.000477531
*CONN
*I *2550:B2 I *D sky130_fd_sc_hd__a22o_1
*I *3079:Q O *D sky130_fd_sc_hd__dlxtn_1
*CAP
1 *2550:B2 0.000145233
2 *3079:Q 0.000145233
3 *2550:B2 *2473:B1 0.000177815
4 *2550:B2 *859:69 0
5 *2550:B2 *892:121 9.25014e-06
*RES
1 *3079:Q *2550:B2 30.0821 
*END

*D_NET *230 0.00127383
*CONN
*I *2456:A1 I *D sky130_fd_sc_hd__a221o_1
*I *2846:Q O *D sky130_fd_sc_hd__dlxtn_1
*CAP
1 *2456:A1 0.000412203
2 *2846:Q 0.000412203
3 *2456:A1 *2455:B1 8.706e-05
4 *2456:A1 *2456:B2 1.38106e-05
5 *2456:A1 *2456:C1 0.000230482
6 *2456:A1 *2992:D 0
7 *2456:A1 *3006:GATE_N 4.03064e-05
8 *2456:A1 *904:61 0
9 *2479:B2 *2456:A1 7.77652e-05
*RES
1 *2846:Q *2456:A1 35.9214 
*END

*D_NET *231 0.000590312
*CONN
*I *2566:A1 I *D sky130_fd_sc_hd__a221o_1
*I *2856:Q O *D sky130_fd_sc_hd__dlxtn_1
*CAP
1 *2566:A1 0.000137611
2 *2856:Q 0.000137611
3 *2566:A1 *2567:B2 1.07719e-05
4 *2566:A1 *816:30 0.000150625
5 *2566:A1 *836:57 3.06878e-06
6 *2566:A1 *921:46 0.000150625
*RES
1 *2856:Q *2566:A1 30.4929 
*END

*D_NET *232 0.000481948
*CONN
*I *2577:A1 I *D sky130_fd_sc_hd__a221o_1
*I *2857:Q O *D sky130_fd_sc_hd__dlxtn_1
*CAP
1 *2577:A1 0.000194618
2 *2857:Q 0.000194618
3 *2577:A1 *2577:B2 6.26774e-06
4 *2577:A1 *853:37 8.64446e-05
*RES
1 *2857:Q *2577:A1 21.2071 
*END

*D_NET *233 0.000821575
*CONN
*I *2589:A1 I *D sky130_fd_sc_hd__a22o_1
*I *2858:Q O *D sky130_fd_sc_hd__dlxtn_1
*CAP
1 *2589:A1 0.000116914
2 *2858:Q 0.000116914
3 *2589:A1 *2536:B 0.000122887
4 *2589:A1 *2589:B1 5.52302e-05
5 *2589:A1 *3018:GATE_N 0.000227539
6 *2589:A1 *904:22 8.80644e-05
7 *2589:A1 *908:28 3.68799e-05
8 *2589:B2 *2589:A1 5.71472e-05
*RES
1 *2858:Q *2589:A1 31.5286 
*END

*D_NET *234 0.000538221
*CONN
*I *2601:A1 I *D sky130_fd_sc_hd__a221o_1
*I *2859:Q O *D sky130_fd_sc_hd__dlxtn_1
*CAP
1 *2601:A1 0.000197295
2 *2859:Q 0.000197295
3 *2601:A1 *2464:A2 5.04841e-06
4 *2601:A1 *2601:B2 0.000102337
5 *2601:A1 *2882:GATE_N 3.62456e-05
*RES
1 *2859:Q *2601:A1 21.2071 
*END

*D_NET *235 0.00051797
*CONN
*I *2610:A1 I *D sky130_fd_sc_hd__a221o_1
*I *2860:Q O *D sky130_fd_sc_hd__dlxtn_1
*CAP
1 *2610:A1 0.000113228
2 *2860:Q 0.000113228
3 *2610:A1 *2610:A2 7.75022e-05
4 *2610:A1 *2610:B1 0.000146618
5 *2610:A1 *928:14 6.73939e-05
*RES
1 *2860:Q *2610:A1 30.0821 
*END

*D_NET *236 0.00127102
*CONN
*I *2622:A1 I *D sky130_fd_sc_hd__a22o_1
*I *2861:Q O *D sky130_fd_sc_hd__dlxtn_1
*CAP
1 *2622:A1 0.000429201
2 *2861:Q 0.000429201
3 *2622:A1 *2622:B1 2.89114e-05
4 *2622:A1 *2988:GATE_N 4.97121e-06
5 *2622:A1 *821:16 0.000112418
6 *2622:A1 *834:44 2.24079e-05
7 *2622:A1 *907:56 0
8 *2622:A1 *922:68 5.52238e-05
9 *2622:B2 *2622:A1 0.000188682
*RES
1 *2861:Q *2622:A1 34.1179 
*END

*D_NET *237 0.00245832
*CONN
*I *2464:A1 I *D sky130_fd_sc_hd__a221o_1
*I *2847:Q O *D sky130_fd_sc_hd__dlxtn_1
*CAP
1 *2464:A1 0.000506454
2 *2847:Q 0.000506454
3 *2464:A1 *2464:A2 0.000379858
4 *2464:A1 *2464:B2 5.66571e-05
5 *2464:A1 *3039:D 0.000513983
6 *2464:A1 *876:48 0.000185643
7 *2463:B2 *2464:A1 0.000309273
*RES
1 *2847:Q *2464:A1 30.6536 
*END

*D_NET *238 0.000976076
*CONN
*I *2479:A1 I *D sky130_fd_sc_hd__a22o_1
*I *2848:Q O *D sky130_fd_sc_hd__dlxtn_1
*CAP
1 *2479:A1 0.000281904
2 *2848:Q 0.000281904
3 *2479:A1 *2479:A2 0.000102053
4 *2479:A1 *814:120 6.13757e-06
5 *2479:A1 *873:50 1.98839e-05
6 *2479:A1 *873:54 0.00018372
7 *2479:A1 *904:61 0.000100474
*RES
1 *2848:Q *2479:A1 31.9393 
*END

*D_NET *239 0.000801729
*CONN
*I *2490:A1 I *D sky130_fd_sc_hd__a22o_1
*I *2849:Q O *D sky130_fd_sc_hd__dlxtn_1
*CAP
1 *2490:A1 0.000358074
2 *2849:Q 0.000358074
3 *2490:A1 *2490:A2 1.02504e-05
4 *2490:A1 *2555:A2 7.53317e-05
5 *2490:A1 *805:78 0
6 *2490:A1 *906:22 0
7 *2490:A1 *906:26 0
*RES
1 *2849:Q *2490:A1 32.1357 
*END

*D_NET *240 0.000792852
*CONN
*I *2501:A1 I *D sky130_fd_sc_hd__a221o_1
*I *2850:Q O *D sky130_fd_sc_hd__dlxtn_1
*CAP
1 *2501:A1 0.00021513
2 *2850:Q 0.00021513
3 *2501:A1 *2501:B2 4.46186e-06
4 *2501:A1 *2501:C1 0
5 *2501:A1 *2512:B1 0.000232399
6 *2501:A1 *929:18 0.000125731
*RES
1 *2850:Q *2501:A1 31.4214 
*END

*D_NET *241 0.000732927
*CONN
*I *2511:A1 I *D sky130_fd_sc_hd__a221o_1
*I *2851:Q O *D sky130_fd_sc_hd__dlxtn_1
*CAP
1 *2511:A1 0.000207081
2 *2851:Q 0.000207081
3 *2511:A1 *2511:B2 2.37761e-05
4 *2511:A1 *2513:A1 7.6644e-05
5 *2511:A1 *2513:A2 0.000103253
6 *2511:A1 *2521:A2 5.80706e-06
7 *2511:A1 *929:26 1.91414e-05
8 *2510:B2 *2511:A1 9.0145e-05
*RES
1 *2851:Q *2511:A1 31.3143 
*END

*D_NET *242 0.00155229
*CONN
*I *2521:A1 I *D sky130_fd_sc_hd__a22o_1
*I *2852:Q O *D sky130_fd_sc_hd__dlxtn_1
*CAP
1 *2521:A1 0.0002724
2 *2852:Q 0.0002724
3 *2521:A1 *2522:A2 0.000310321
4 *2521:A1 *2522:C1 0.000449059
5 *2521:A1 *2524:C1 0
6 *2521:A1 *2525:B 5.33005e-05
7 *2521:A1 *2852:GATE_N 0.000184522
8 *2521:A1 *832:47 1.02911e-05
*RES
1 *2852:Q *2521:A1 35.4929 
*END

*D_NET *243 0.000525372
*CONN
*I *2533:A1 I *D sky130_fd_sc_hd__a221o_1
*I *2853:Q O *D sky130_fd_sc_hd__dlxtn_1
*CAP
1 *2533:A1 0.000208673
2 *2853:Q 0.000208673
3 *2533:A1 *2533:C1 5.52302e-05
4 *2533:A1 *862:35 4.65278e-05
5 *2533:B2 *2533:A1 6.26774e-06
*RES
1 *2853:Q *2533:A1 21.2071 
*END

*D_NET *244 0.000991875
*CONN
*I *2543:A1 I *D sky130_fd_sc_hd__a221o_1
*I *2854:Q O *D sky130_fd_sc_hd__dlxtn_1
*CAP
1 *2543:A1 0.000267595
2 *2854:Q 0.000267595
3 *2543:A1 *2544:B1 0.000100831
4 *2543:A1 *2544:C1 7.43578e-06
5 *2543:A1 *3020:GATE_N 7.49387e-06
6 *2543:A1 *3132:A 0.000100831
7 *2543:A1 *814:37 1.74352e-05
8 *2543:A1 *906:93 0.00022266
*RES
1 *2854:Q *2543:A1 31.9393 
*END

*D_NET *245 0.00059494
*CONN
*I *2556:A1 I *D sky130_fd_sc_hd__a22o_1
*I *2855:Q O *D sky130_fd_sc_hd__dlxtn_1
*CAP
1 *2556:A1 0.000151314
2 *2855:Q 0.000151314
3 *2556:A1 *2556:B1 0.000145756
4 *2556:A1 *2645:A0 2.51343e-06
5 *2556:A1 *3070:GATE_N 0.000144042
*RES
1 *2855:Q *2556:A1 30.4929 
*END

*D_NET *246 0.00147139
*CONN
*I *2457:A1 I *D sky130_fd_sc_hd__a22o_1
*I *2862:Q O *D sky130_fd_sc_hd__dlxtn_1
*CAP
1 *2457:A1 0.000413048
2 *2862:Q 0.000413048
3 *2457:A1 *820:24 0.000100831
4 *2457:A1 *833:52 0.000529166
5 *2457:A1 *923:71 1.52978e-05
*RES
1 *2862:Q *2457:A1 33.9929 
*END

*D_NET *247 0.00128794
*CONN
*I *2567:A1 I *D sky130_fd_sc_hd__a22o_1
*I *2872:Q O *D sky130_fd_sc_hd__dlxtn_1
*CAP
1 *2567:A1 0.000393317
2 *2872:Q 0.000393317
3 *2567:A1 *2565:A1 1.28171e-05
4 *2567:A1 *2566:A2 1.59935e-05
5 *2567:A1 *2566:B2 1.39983e-05
6 *2567:A1 *2566:C1 9.18429e-05
7 *2567:A1 *816:30 0.000177941
8 *2567:A1 *921:42 1.07719e-05
9 *2567:A1 *923:71 1.02504e-05
10 *2567:A1 *923:80 0.000167691
*RES
1 *2872:Q *2567:A1 34.9036 
*END

*D_NET *248 0.000517569
*CONN
*I *2578:A1 I *D sky130_fd_sc_hd__a22o_1
*I *2873:Q O *D sky130_fd_sc_hd__dlxtn_1
*CAP
1 *2578:A1 0.000108147
2 *2873:Q 0.000108147
3 *2578:A1 *3015:GATE_N 1.40306e-05
4 *2578:A1 *833:18 0.000144479
5 *2578:A1 *923:50 0.000142764
*RES
1 *2873:Q *2578:A1 30.0821 
*END

*D_NET *249 0.000369312
*CONN
*I *2587:A1 I *D sky130_fd_sc_hd__a22o_1
*I *2874:Q O *D sky130_fd_sc_hd__dlxtn_1
*CAP
1 *2587:A1 0.000169223
2 *2874:Q 0.000169223
3 *2587:A1 *2587:B2 3.08664e-05
*RES
1 *2874:Q *2587:A1 20.7964 
*END

*D_NET *250 0.000859826
*CONN
*I *2594:A1 I *D sky130_fd_sc_hd__a22o_1
*I *2875:Q O *D sky130_fd_sc_hd__dlxtn_1
*CAP
1 *2594:A1 0.000244089
2 *2875:Q 0.000244089
3 *2594:A1 *2594:B1 0.000103253
4 *2594:A1 *881:31 0
5 *2594:A1 *899:85 0.000268396
*RES
1 *2875:Q *2594:A1 31.5286 
*END

*D_NET *251 0.00057564
*CONN
*I *2611:A1 I *D sky130_fd_sc_hd__a22o_1
*I *2876:Q O *D sky130_fd_sc_hd__dlxtn_1
*CAP
1 *2611:A1 0.000171306
2 *2876:Q 0.000171306
3 *2611:A1 *2611:B1 4.43256e-05
4 *2611:A1 *847:125 0.000188702
*RES
1 *2876:Q *2611:A1 22.475 
*END

*D_NET *252 0.000455969
*CONN
*I *2621:A1 I *D sky130_fd_sc_hd__a221o_1
*I *2877:Q O *D sky130_fd_sc_hd__dlxtn_1
*CAP
1 *2621:A1 9.49664e-05
2 *2877:Q 9.49664e-05
3 *2621:A1 *2621:A2 1.97695e-05
4 *2621:A1 *2621:B2 1.28809e-05
5 *2621:A1 *3130:A 0.000115833
6 *2621:A1 *925:86 0.000117553
*RES
1 *2877:Q *2621:A1 21.6357 
*END

*D_NET *253 0.000411869
*CONN
*I *2465:A1 I *D sky130_fd_sc_hd__a22o_1
*I *2863:Q O *D sky130_fd_sc_hd__dlxtn_1
*CAP
1 *2465:A1 0.000126278
2 *2863:Q 0.000126278
3 *2465:A1 *2465:B2 5.71472e-05
4 *2465:A1 *834:66 5.61015e-05
5 *2465:A1 *917:34 4.60636e-05
*RES
1 *2863:Q *2465:A1 21.35 
*END

*D_NET *254 0.00257837
*CONN
*I *2478:A1 I *D sky130_fd_sc_hd__a221o_1
*I *2864:Q O *D sky130_fd_sc_hd__dlxtn_1
*CAP
1 *2478:A1 0.00053007
2 *2864:Q 0.00053007
3 *2478:A1 *2456:B1 1.02132e-05
4 *2478:A1 *2457:B2 4.52775e-05
5 *2478:A1 *2477:B1 0.000402467
6 *2478:A1 *2477:B2 0
7 *2478:A1 *2478:A2 2.47631e-06
8 *2478:A1 *2478:B2 3.35545e-05
9 *2478:A1 *2478:C1 0.000409276
10 *2478:A1 *818:54 0.000142952
11 *2478:A1 *877:68 0.000191855
12 *2455:A1 *2478:A1 0.000225982
13 *2455:B2 *2478:A1 5.41794e-05
*RES
1 *2864:Q *2478:A1 40.8143 
*END

*D_NET *255 0.00142477
*CONN
*I *2488:A1 I *D sky130_fd_sc_hd__a22o_1
*I *2865:Q O *D sky130_fd_sc_hd__dlxtn_1
*CAP
1 *2488:A1 0.000262357
2 *2865:Q 0.000262357
3 *2488:A1 *2488:B2 1.00375e-05
4 *2488:A1 *831:28 0.000183726
5 *2488:A1 *831:30 5.52238e-05
6 *2488:A1 *906:22 0.00033763
7 *2488:A1 *923:36 0.000313443
*RES
1 *2865:Q *2488:A1 34.1536 
*END

*D_NET *256 0.000477241
*CONN
*I *2495:A1 I *D sky130_fd_sc_hd__a22o_1
*I *2866:Q O *D sky130_fd_sc_hd__dlxtn_1
*CAP
1 *2495:A1 0.000121088
2 *2866:Q 0.000121088
3 *2495:A1 *2495:A2 0.00010096
4 *2495:A1 *2495:B1 0
5 *2495:A1 *2504:B1 3.03304e-05
6 *2495:A1 *881:31 0.000103775
*RES
1 *2866:Q *2495:A1 30.2964 
*END

*D_NET *257 0.00132605
*CONN
*I *2511:B2 I *D sky130_fd_sc_hd__a221o_1
*I *2867:Q O *D sky130_fd_sc_hd__dlxtn_1
*CAP
1 *2511:B2 0.000343484
2 *2867:Q 0.000343484
3 *2511:B2 *2511:C1 1.28809e-05
4 *2511:B2 *2513:A1 6.92626e-05
5 *2511:B2 *2513:B1 0.000123288
6 *2511:B2 *2883:GATE_N 5.75147e-05
7 *2511:B2 *2978:GATE_N 0.000335208
8 *2511:B2 *3118:A 7.70134e-06
9 *2511:B2 *866:39 2.50802e-06
10 *2511:B2 *866:41 6.94399e-06
11 *2511:A1 *2511:B2 2.37761e-05
*RES
1 *2867:Q *2511:B2 34.283 
*END

*D_NET *258 0.00108275
*CONN
*I *2522:A1 I *D sky130_fd_sc_hd__a221o_1
*I *2868:Q O *D sky130_fd_sc_hd__dlxtn_1
*CAP
1 *2522:A1 0.000376117
2 *2868:Q 0.000376117
3 *2522:A1 *2522:A2 4.94362e-05
4 *2522:A1 *2522:B2 3.00989e-05
5 *2522:A1 *2852:GATE_N 7.6644e-05
6 *2522:A1 *864:47 0.000107065
7 *2522:A1 *864:49 6.72746e-05
*RES
1 *2868:Q *2522:A1 33.3679 
*END

*D_NET *259 0.000446456
*CONN
*I *2532:A1 I *D sky130_fd_sc_hd__a22o_1
*I *2869:Q O *D sky130_fd_sc_hd__dlxtn_1
*CAP
1 *2532:A1 0.00020169
2 *2869:Q 0.00020169
3 *2532:A1 *2532:B1 3.1367e-05
4 *2532:A1 *2533:C1 1.17091e-05
*RES
1 *2869:Q *2532:A1 21.2071 
*END

*D_NET *260 0.00125485
*CONN
*I *2540:A1 I *D sky130_fd_sc_hd__a221o_1
*I *2870:Q O *D sky130_fd_sc_hd__dlxtn_1
*CAP
1 *2540:A1 0.000323069
2 *2870:Q 0.000323069
3 *2540:A1 *2539:B1 5.71472e-05
4 *2540:A1 *2545:C 4.19535e-05
5 *2540:A1 *829:69 1.18881e-05
6 *2540:A1 *881:57 0.000138703
7 *2540:A1 *898:93 0.000330112
8 *2539:B2 *2540:A1 2.89114e-05
*RES
1 *2870:Q *2540:A1 34.1536 
*END

*D_NET *261 0.000722191
*CONN
*I *2556:B2 I *D sky130_fd_sc_hd__a22o_1
*I *2871:Q O *D sky130_fd_sc_hd__dlxtn_1
*CAP
1 *2556:B2 0.000263436
2 *2871:Q 0.000263436
3 *2556:B2 *2556:B1 0.000138173
4 *2556:B2 *858:59 0
5 *2556:B2 *877:38 5.71472e-05
6 *2556:B2 *923:36 0
*RES
1 *2871:Q *2556:B2 32.5107 
*END

*D_NET *262 0.0010704
*CONN
*I *2456:B2 I *D sky130_fd_sc_hd__a221o_1
*I *2878:Q O *D sky130_fd_sc_hd__dlxtn_1
*CAP
1 *2456:B2 0.000353978
2 *2878:Q 0.000353978
3 *2456:B2 *2455:B1 1.28809e-05
4 *2456:B2 *2456:B1 6.19181e-05
5 *2456:B2 *2458:C1 0.000186662
6 *2456:B2 *2477:A2 8.71761e-05
7 *2456:A1 *2456:B2 1.38106e-05
*RES
1 *2878:Q *2456:B2 33.1937 
*END

*D_NET *263 0.0013118
*CONN
*I *2566:B2 I *D sky130_fd_sc_hd__a221o_1
*I *2888:Q O *D sky130_fd_sc_hd__dlxtn_1
*CAP
1 *2566:B2 0.000412593
2 *2888:Q 0.000412593
3 *2566:B2 *836:38 0
4 *2566:B2 *855:22 0.000142952
5 *2566:B2 *921:46 0.000329661
6 *2567:A1 *2566:B2 1.39983e-05
*RES
1 *2888:Q *2566:B2 34.85 
*END

*D_NET *264 0.000711554
*CONN
*I *2576:A1 I *D sky130_fd_sc_hd__a22o_1
*I *2889:Q O *D sky130_fd_sc_hd__dlxtn_1
*CAP
1 *2576:A1 0.000247595
2 *2889:Q 0.000247595
3 *2576:A1 *2977:GATE_N 0
4 *2576:A1 *853:37 5.62995e-05
5 *2576:A1 *853:39 2.89114e-05
6 *2576:A1 *853:41 7.77652e-05
7 *2576:A1 *934:51 5.33882e-05
*RES
1 *2889:Q *2576:A1 31.5286 
*END

*D_NET *265 0.000539909
*CONN
*I *2588:A1 I *D sky130_fd_sc_hd__a221o_1
*I *2890:Q O *D sky130_fd_sc_hd__dlxtn_1
*CAP
1 *2588:A1 7.49648e-05
2 *2890:Q 7.49648e-05
3 *2588:A1 *2588:B2 6.4421e-05
4 *2588:A1 *2970:GATE_N 6.13953e-05
5 *2588:A1 *851:102 0.000264163
*RES
1 *2890:Q *2588:A1 21.6357 
*END

*D_NET *266 0.0012003
*CONN
*I *2600:A1 I *D sky130_fd_sc_hd__a22o_1
*I *2891:Q O *D sky130_fd_sc_hd__dlxtn_1
*CAP
1 *2600:A1 0.000235329
2 *2891:Q 0.000235329
3 *2600:A1 *2600:B1 5.52302e-05
4 *2600:A1 *2859:GATE_N 0.000191667
5 *2600:A1 *3209:A 2.28499e-05
6 *2600:A1 *499:18 5.33005e-05
7 *2600:A1 *499:38 3.48013e-05
8 *2600:A1 *808:78 3.14163e-05
9 *2600:A1 *895:8 1.54952e-05
10 *2600:A1 *925:43 0.000324881
*RES
1 *2891:Q *2600:A1 33.4571 
*END

*D_NET *267 0.000454064
*CONN
*I *2609:A1 I *D sky130_fd_sc_hd__a22o_1
*I *2892:Q O *D sky130_fd_sc_hd__dlxtn_1
*CAP
1 *2609:A1 0.00016233
2 *2892:Q 0.00016233
3 *2609:A1 *2525:A 9.94808e-05
4 *2609:A1 *575:18 2.99232e-05
5 *2609:A1 *928:14 0
*RES
1 *2892:Q *2609:A1 20.7964 
*END

*D_NET *268 0.00039924
*CONN
*I *2623:A1 I *D sky130_fd_sc_hd__a211o_1
*I *2893:Q O *D sky130_fd_sc_hd__dlxtn_1
*CAP
1 *2623:A1 0.000129866
2 *2893:Q 0.000129866
3 *2623:A1 *2623:C1 5.33005e-05
4 *2623:A1 *922:47 3.57366e-05
5 *2623:A1 *922:68 5.04705e-05
*RES
1 *2893:Q *2623:A1 21.225 
*END

*D_NET *269 0.00110096
*CONN
*I *2466:A1 I *D sky130_fd_sc_hd__a221o_1
*I *2879:Q O *D sky130_fd_sc_hd__dlxtn_1
*CAP
1 *2466:A1 0.000237508
2 *2879:Q 0.000237508
3 *2466:A1 *2520:B1 1.62539e-05
4 *2466:A1 *2859:GATE_N 0.000186316
5 *2466:A1 *2932:GATE_N 1.32552e-05
6 *2466:A1 *2943:GATE_N 7.40571e-05
7 *2466:A1 *837:83 0.000195607
8 *2466:A1 *899:33 6.40929e-05
9 *2466:A1 *922:47 7.63653e-05
*RES
1 *2879:Q *2466:A1 32.9214 
*END

*D_NET *270 0.00150154
*CONN
*I *2478:B2 I *D sky130_fd_sc_hd__a221o_1
*I *2880:Q O *D sky130_fd_sc_hd__dlxtn_1
*CAP
1 *2478:B2 0.000437406
2 *2880:Q 0.000437406
3 *2478:B2 *2457:B2 9.79598e-05
4 *2478:B2 *2478:C1 0.000136682
5 *2478:B2 *2974:D 0.00010137
6 *2478:B2 *818:54 5.38265e-05
7 *2478:B2 *833:52 0.00018345
8 *2478:B2 *833:56 1.98839e-05
9 *2478:A1 *2478:B2 3.35545e-05
*RES
1 *2880:Q *2478:B2 35.4973 
*END

*D_NET *271 0.000210247
*CONN
*I *2489:A1 I *D sky130_fd_sc_hd__a221o_1
*I *2881:Q O *D sky130_fd_sc_hd__dlxtn_1
*CAP
1 *2489:A1 8.26785e-05
2 *2881:Q 8.26785e-05
3 *2489:A1 *2489:B1 1.02504e-05
4 *2489:A1 *2492:B 0
5 *2489:A1 *2917:GATE_N 0
6 *2489:A1 *921:26 1.18064e-05
7 *2489:B2 *2489:A1 2.28335e-05
*RES
1 *2881:Q *2489:A1 28.9393 
*END

*D_NET *272 0.000798708
*CONN
*I *2499:A1 I *D sky130_fd_sc_hd__a22o_1
*I *2882:Q O *D sky130_fd_sc_hd__dlxtn_1
*CAP
1 *2499:A1 0.000295816
2 *2882:Q 0.000295816
3 *2499:A1 *2464:A2 4.40631e-05
4 *2499:A1 *3188:A 7.24753e-05
5 *2499:A1 *869:35 9.05384e-05
*RES
1 *2882:Q *2499:A1 32.1357 
*END

*D_NET *273 0.000822985
*CONN
*I *2513:A1 I *D sky130_fd_sc_hd__a211o_1
*I *2883:Q O *D sky130_fd_sc_hd__dlxtn_1
*CAP
1 *2513:A1 0.000221449
2 *2883:Q 0.000221449
3 *2513:A1 *2511:C1 7.32272e-05
4 *2513:A1 *2513:A2 3.57844e-05
5 *2513:A1 *2513:B1 1.02504e-05
6 *2513:A1 *2513:C1 5.52302e-05
7 *2513:A1 *3118:A 4.45768e-06
8 *2510:B2 *2513:A1 5.52302e-05
9 *2511:A1 *2513:A1 7.6644e-05
10 *2511:B2 *2513:A1 6.92626e-05
*RES
1 *2883:Q *2513:A1 31.85 
*END

*D_NET *274 0.00132942
*CONN
*I *2523:A1 I *D sky130_fd_sc_hd__a22o_1
*I *2884:Q O *D sky130_fd_sc_hd__dlxtn_1
*CAP
1 *2523:A1 0.000469052
2 *2884:Q 0.000469052
3 *2523:A1 *2523:A2 3.50166e-05
4 *2523:A1 *2523:B1 8.18233e-06
5 *2523:A1 *2523:B2 5.49544e-05
6 *2523:A1 *2980:GATE_N 7.09928e-05
7 *2523:A1 *2996:GATE_N 0.00022217
*RES
1 *2884:Q *2523:A1 36.6 
*END

*D_NET *275 0.000335355
*CONN
*I *2534:A1 I *D sky130_fd_sc_hd__a22o_1
*I *2885:Q O *D sky130_fd_sc_hd__dlxtn_1
*CAP
1 *2534:A1 0.000119634
2 *2885:Q 0.000119634
3 *2534:A1 *831:40 9.6087e-05
*RES
1 *2885:Q *2534:A1 20.7964 
*END

*D_NET *276 0.000998887
*CONN
*I *2541:A1 I *D sky130_fd_sc_hd__a22o_1
*I *2886:Q O *D sky130_fd_sc_hd__dlxtn_1
*CAP
1 *2541:A1 0.000286975
2 *2886:Q 0.000286975
3 *2541:A1 *2541:B1 1.38106e-05
4 *2541:A1 *2541:B2 0.000119706
5 *2541:A1 *2934:GATE_N 1.78394e-05
6 *2541:A1 *807:18 3.32631e-05
7 *2541:A1 *830:31 2.72602e-05
8 *2541:A1 *860:36 3.18676e-05
9 *2541:A1 *881:57 0
10 *2541:A1 *911:25 5.62734e-05
11 *2541:A1 *914:118 2.70095e-05
12 *2541:A1 *918:124 2.14757e-05
13 *2541:A1 *918:147 2.12002e-05
14 *2539:B2 *2541:A1 5.52302e-05
*RES
1 *2886:Q *2541:A1 33.4571 
*END

*D_NET *277 0.000489874
*CONN
*I *2555:A1 I *D sky130_fd_sc_hd__a221o_1
*I *2887:Q O *D sky130_fd_sc_hd__dlxtn_1
*CAP
1 *2555:A1 0.000191919
2 *2887:Q 0.000191919
3 *2555:A1 *2555:B2 1.69961e-05
4 *2555:A1 *2555:C1 5.52238e-05
5 *2555:A1 *2557:A1 0
6 *2555:A1 *2557:A2 3.38171e-05
*RES
1 *2887:Q *2555:A1 21.2071 
*END

*D_NET *278 0.000764736
*CONN
*I *2452:A1 I *D sky130_fd_sc_hd__a221o_1
*I *2894:Q O *D sky130_fd_sc_hd__dlxtn_1
*CAP
1 *2452:A1 0.000268377
2 *2894:Q 0.000268377
3 *2452:A1 *2460:B1 3.61733e-05
4 *2452:A1 *2460:B2 4.27949e-05
5 *2452:A1 *2841:GATE_N 0
6 *2452:A1 *521:12 0
7 *2452:A1 *809:44 0
8 *2452:A1 *1055:16 0.00010096
9 *2452:B2 *2452:A1 4.80534e-05
10 *2460:A1 *2452:A1 0
*RES
1 *2894:Q *2452:A1 32.3143 
*END

*D_NET *279 0.000472331
*CONN
*I *2563:A1 I *D sky130_fd_sc_hd__a22o_1
*I *2904:Q O *D sky130_fd_sc_hd__dlxtn_1
*CAP
1 *2563:A1 0.000125816
2 *2904:Q 0.000125816
3 *2563:A1 *2563:B1 3.05411e-05
4 *2563:A1 *389:10 4.15914e-05
5 *2563:A1 *855:113 1.32552e-05
6 *2563:B2 *2563:A1 0.000135311
*RES
1 *2904:Q *2563:A1 30.4214 
*END

*D_NET *280 0.00126979
*CONN
*I *2573:A1 I *D sky130_fd_sc_hd__a221o_1
*I *2905:Q O *D sky130_fd_sc_hd__dlxtn_1
*CAP
1 *2573:A1 0.000326067
2 *2905:Q 0.000326067
3 *2573:A1 *2573:A2 1.46576e-05
4 *2573:A1 *2573:B2 0.000137983
5 *2573:A1 *2841:D 8.9591e-05
6 *2573:A1 *2905:D 0
7 *2573:A1 *856:60 1.1257e-05
8 *2573:A1 *911:72 0.000127944
9 *2573:A1 *911:131 6.1537e-05
10 *2573:A1 *932:70 6.17426e-05
11 *2572:B2 *2573:A1 0.00011294
*RES
1 *2905:Q *2573:A1 38.8818 
*END

*D_NET *281 0.000977401
*CONN
*I *2586:A1 I *D sky130_fd_sc_hd__a221o_1
*I *2906:Q O *D sky130_fd_sc_hd__dlxtn_1
*CAP
1 *2586:A1 0.000252746
2 *2906:Q 0.000252746
3 *2586:A1 *3078:GATE_N 5.92338e-05
4 *2586:A1 *3202:A 5.49927e-05
5 *2586:A1 *807:18 0.00032301
6 *2586:A1 *807:22 9.25014e-06
7 *2586:A1 *829:41 2.5423e-05
*RES
1 *2906:Q *2586:A1 32.9214 
*END

*D_NET *282 0.00108467
*CONN
*I *2596:A1 I *D sky130_fd_sc_hd__a22o_1
*I *2907:Q O *D sky130_fd_sc_hd__dlxtn_1
*CAP
1 *2596:A1 0.000295291
2 *2907:Q 0.000295291
3 *2596:A1 *2596:B1 5.59013e-05
4 *2596:A1 *3190:A 0
5 *2596:A1 *3191:A 0
6 *2596:A1 *889:56 0
7 *2596:A1 *899:23 0.000190155
8 *2596:A1 *899:29 0.00010326
9 *2596:A1 *925:133 0.000144773
*RES
1 *2907:Q *2596:A1 33.3321 
*END

*D_NET *283 0.000682937
*CONN
*I *2608:A1 I *D sky130_fd_sc_hd__a221o_1
*I *2908:Q O *D sky130_fd_sc_hd__dlxtn_1
*CAP
1 *2608:A1 0.000217899
2 *2908:Q 0.000217899
3 *2608:A1 *894:112 2.2549e-05
4 *2608:A1 *894:127 0.00022459
*RES
1 *2908:Q *2608:A1 21.6179 
*END

*D_NET *284 0.000622158
*CONN
*I *2619:A1 I *D sky130_fd_sc_hd__a221o_1
*I *2909:Q O *D sky130_fd_sc_hd__dlxtn_1
*CAP
1 *2619:A1 0.000140517
2 *2909:Q 0.000140517
3 *2619:A1 *3126:A 0.000100823
4 *2619:A1 *448:28 0.000100823
5 *2619:A1 *897:47 0.000139478
*RES
1 *2909:Q *2619:A1 30.2964 
*END

*D_NET *285 0.000869874
*CONN
*I *2463:A1 I *D sky130_fd_sc_hd__a22o_1
*I *2895:Q O *D sky130_fd_sc_hd__dlxtn_1
*CAP
1 *2463:A1 0.000255261
2 *2895:Q 0.000255261
3 *2463:A1 *2520:A2 0.000309266
4 *2463:A1 *3188:A 1.30748e-05
5 *2463:A1 *881:57 2.67601e-05
6 *2463:A1 *919:55 1.02504e-05
*RES
1 *2895:Q *2463:A1 31.3321 
*END

*D_NET *286 0.000379925
*CONN
*I *2475:A1 I *D sky130_fd_sc_hd__a22o_1
*I *2896:Q O *D sky130_fd_sc_hd__dlxtn_1
*CAP
1 *2475:A1 8.74141e-05
2 *2896:Q 8.74141e-05
3 *2475:A1 *2646:A0 5.13222e-05
4 *2475:A1 *2654:A0 0.000100474
5 *2475:A1 *3172:A 5.33005e-05
*RES
1 *2896:Q *2475:A1 29.475 
*END

*D_NET *287 0.00103759
*CONN
*I *2484:A1 I *D sky130_fd_sc_hd__a22o_1
*I *2897:Q O *D sky130_fd_sc_hd__dlxtn_1
*CAP
1 *2484:A1 0.000245517
2 *2897:Q 0.000245517
3 *2484:A1 *2484:B1 1.02504e-05
4 *2484:A1 *2485:C1 0.000267814
5 *2484:A1 *872:62 7.32272e-05
6 *2484:A1 *881:57 0.000164258
7 *2484:A1 *898:118 3.10049e-05
*RES
1 *2897:Q *2484:A1 33.3321 
*END

*D_NET *288 0.0012112
*CONN
*I *2498:A1 I *D sky130_fd_sc_hd__a221o_1
*I *2898:Q O *D sky130_fd_sc_hd__dlxtn_1
*CAP
1 *2498:A1 0.000241505
2 *2898:Q 0.000241505
3 *2498:A1 *2419:A 5.74499e-06
4 *2498:A1 *2648:A0 0
5 *2498:A1 *3112:A 3.87416e-05
6 *2498:A1 *441:10 0.000270487
7 *2498:A1 *441:31 0
8 *2498:A1 *828:60 0.000393943
9 *2498:A1 *841:15 1.92789e-05
*RES
1 *2898:Q *2498:A1 33.6714 
*END

*D_NET *289 0.000495748
*CONN
*I *2509:A1 I *D sky130_fd_sc_hd__a221o_1
*I *2899:Q O *D sky130_fd_sc_hd__dlxtn_1
*CAP
1 *2509:A1 0.000101818
2 *2899:Q 0.000101818
3 *2509:A1 *448:28 0.000120267
4 *2509:A1 *897:45 0.000118545
5 *2509:A1 *912:43 5.33005e-05
*RES
1 *2899:Q *2509:A1 29.7786 
*END

*D_NET *290 0.000393544
*CONN
*I *2519:A1 I *D sky130_fd_sc_hd__a22o_1
*I *2900:Q O *D sky130_fd_sc_hd__dlxtn_1
*CAP
1 *2519:A1 9.88438e-05
2 *2900:Q 9.88438e-05
3 *2519:A1 *2519:B2 5.33005e-05
4 *2519:A1 *2520:C1 4.60387e-05
5 *2519:A1 *499:38 9.65172e-05
*RES
1 *2900:Q *2519:A1 29.475 
*END

*D_NET *291 0.000636813
*CONN
*I *2531:A1 I *D sky130_fd_sc_hd__a221o_1
*I *2901:Q O *D sky130_fd_sc_hd__dlxtn_1
*CAP
1 *2531:A1 0.000252879
2 *2901:Q 0.000252879
3 *2531:A1 *3158:A 0.000119125
4 *2531:A1 *892:43 1.19309e-05
*RES
1 *2901:Q *2531:A1 31.1179 
*END

*D_NET *292 0.000590772
*CONN
*I *2541:B2 I *D sky130_fd_sc_hd__a22o_1
*I *2902:Q O *D sky130_fd_sc_hd__dlxtn_1
*CAP
1 *2541:B2 0.000126641
2 *2902:Q 0.000126641
3 *2541:B2 *847:131 9.80173e-05
4 *2541:B2 *914:118 0.000119767
5 *2541:A1 *2541:B2 0.000119706
*RES
1 *2902:Q *2541:B2 30.1893 
*END

*D_NET *293 0.000572657
*CONN
*I *2552:A1 I *D sky130_fd_sc_hd__a22o_1
*I *2903:Q O *D sky130_fd_sc_hd__dlxtn_1
*CAP
1 *2552:A1 0.000233747
2 *2903:Q 0.000233747
3 *2552:A1 *2903:D 0
4 *2552:A1 *3047:GATE_N 0
5 *2552:A1 *3169:A 0.000105163
*RES
1 *2903:Q *2552:A1 30.7071 
*END

*D_NET *294 0.00135612
*CONN
*I *2453:A1 I *D sky130_fd_sc_hd__a22o_1
*I *2910:Q O *D sky130_fd_sc_hd__dlxtn_1
*CAP
1 *2453:A1 0.000539237
2 *2910:Q 0.000539237
3 *2453:A1 *2453:B1 0
4 *2453:A1 *2453:B2 5.7061e-05
5 *2453:A1 *2454:C1 0
6 *2453:A1 *2910:D 0
7 *2453:A1 *2910:GATE_N 0.000186662
8 *2453:A1 *2937:GATE_N 2.83284e-06
9 *2453:A1 *605:18 3.10885e-05
10 *2453:A1 *811:60 0
11 *2453:A1 *825:61 0
*RES
1 *2910:Q *2453:A1 35.7964 
*END

*D_NET *295 0.000782593
*CONN
*I *2561:A1 I *D sky130_fd_sc_hd__a22o_1
*I *2920:Q O *D sky130_fd_sc_hd__dlxtn_1
*CAP
1 *2561:A1 0.000213432
2 *2920:Q 0.000213432
3 *2561:A1 *2474:A2 9.96264e-05
4 *2561:A1 *551:22 3.25447e-05
5 *2561:A1 *551:40 0.000223558
*RES
1 *2920:Q *2561:A1 31.1179 
*END

*D_NET *296 0.000372467
*CONN
*I *2575:A1 I *D sky130_fd_sc_hd__a221o_1
*I *2921:Q O *D sky130_fd_sc_hd__dlxtn_1
*CAP
1 *2575:A1 0.000116364
2 *2921:Q 0.000116364
3 *2575:A1 *2921:D 5.52302e-05
4 *2575:A1 *605:18 2.70583e-05
5 *2575:A1 *916:50 5.74511e-05
*RES
1 *2921:Q *2575:A1 20.7964 
*END

*D_NET *297 0.00138408
*CONN
*I *2584:A1 I *D sky130_fd_sc_hd__a221o_1
*I *2922:Q O *D sky130_fd_sc_hd__dlxtn_1
*CAP
1 *2584:A1 0.000299353
2 *2922:Q 0.000299353
3 *2584:A1 *825:130 0
4 *2584:A1 *863:38 0.000221212
5 *2584:A1 *896:48 0.000337637
6 *2584:A1 *932:30 4.36551e-06
7 *2592:A1 *2584:A1 0.000222163
*RES
1 *2922:Q *2584:A1 34.1536 
*END

*D_NET *298 0.00147518
*CONN
*I *2595:A1 I *D sky130_fd_sc_hd__a221o_1
*I *2923:Q O *D sky130_fd_sc_hd__dlxtn_1
*CAP
1 *2595:A1 0.000437841
2 *2923:Q 0.000437841
3 *2595:A1 *2595:B1 5.5474e-05
4 *2595:A1 *2595:C1 2.62628e-05
5 *2595:A1 *3051:D 0
6 *2595:A1 *3205:A 9.60939e-05
7 *2595:A1 *498:16 2.5215e-05
8 *2595:A1 *849:98 0
9 *2595:A1 *866:35 0.00014183
10 *2595:A1 *917:8 3.17245e-05
11 *2595:A1 *917:34 0.000130691
12 *2595:A1 *933:82 8.6229e-06
13 *2595:B2 *2595:A1 1.21371e-05
14 *2603:A1 *2595:A1 7.14469e-05
*RES
1 *2923:Q *2595:A1 35.3143 
*END

*D_NET *299 0.000332497
*CONN
*I *2605:A1 I *D sky130_fd_sc_hd__a22o_1
*I *2924:Q O *D sky130_fd_sc_hd__dlxtn_1
*CAP
1 *2605:A1 9.08698e-05
2 *2924:Q 9.08698e-05
3 *2605:A1 *2614:B2 1.40306e-05
4 *2605:A1 *830:90 0.00010326
5 *2605:B2 *2605:A1 3.34672e-05
*RES
1 *2924:Q *2605:A1 29.475 
*END

*D_NET *300 0.000960437
*CONN
*I *2616:A1 I *D sky130_fd_sc_hd__a22o_1
*I *2925:Q O *D sky130_fd_sc_hd__dlxtn_1
*CAP
1 *2616:A1 0.000283137
2 *2925:Q 0.000283137
3 *2616:A1 *2616:B2 3.2534e-05
4 *2616:A1 *531:18 0.00030824
5 *2616:A1 *839:75 5.33882e-05
*RES
1 *2925:Q *2616:A1 31.9393 
*END

*D_NET *301 0.000488739
*CONN
*I *2465:B2 I *D sky130_fd_sc_hd__a22o_1
*I *2911:Q O *D sky130_fd_sc_hd__dlxtn_1
*CAP
1 *2465:B2 0.000141315
2 *2911:Q 0.000141315
3 *2465:B2 *2911:D 0
4 *2465:B2 *834:66 5.33433e-05
5 *2465:B2 *892:33 1.83266e-05
6 *2465:B2 *922:47 7.72916e-05
7 *2465:A1 *2465:B2 5.71472e-05
*RES
1 *2911:Q *2465:B2 30.4929 
*END

*D_NET *302 0.00115269
*CONN
*I *2474:A1 I *D sky130_fd_sc_hd__a221o_1
*I *2912:Q O *D sky130_fd_sc_hd__dlxtn_1
*CAP
1 *2474:A1 0.000181599
2 *2912:Q 0.000181599
3 *2474:A1 *2474:A2 0.000437346
4 *2474:A1 *2474:C1 0.000224168
5 *2474:A1 *2560:B 5.12371e-05
6 *2474:A1 *838:44 0
7 *2474:A1 *884:16 4.84486e-05
8 *2474:B2 *2474:A1 2.82951e-05
*RES
1 *2912:Q *2474:A1 33.1714 
*END

*D_NET *303 0.00152227
*CONN
*I *2486:A1 I *D sky130_fd_sc_hd__a22o_1
*I *2913:Q O *D sky130_fd_sc_hd__dlxtn_1
*CAP
1 *2486:A1 0.000275441
2 *2913:Q 0.000275441
3 *2486:A1 *2487:C1 1.33343e-05
4 *2486:A1 *2929:D 0.000147833
5 *2486:A1 *3153:A 0.000272381
6 *2486:A1 *381:16 6.27076e-05
7 *2486:A1 *811:52 0.000315144
8 *2486:A1 *871:10 9.25014e-06
9 *2486:A1 *914:16 1.08359e-05
10 *2487:B2 *2486:A1 0.000139907
*RES
1 *2913:Q *2486:A1 35.2071 
*END

*D_NET *304 0.000441349
*CONN
*I *2497:A1 I *D sky130_fd_sc_hd__a22o_1
*I *2914:Q O *D sky130_fd_sc_hd__dlxtn_1
*CAP
1 *2497:A1 0.000186702
2 *2914:Q 0.000186702
3 *2497:A1 *3112:A 0
4 *2497:A1 *917:62 4.52029e-05
5 *2497:B2 *2497:A1 2.27416e-05
*RES
1 *2914:Q *2497:A1 21.4036 
*END

*D_NET *305 0.00044856
*CONN
*I *2508:A1 I *D sky130_fd_sc_hd__a22o_1
*I *2915:Q O *D sky130_fd_sc_hd__dlxtn_1
*CAP
1 *2508:A1 0.000147346
2 *2915:Q 0.000147346
3 *2508:A1 *2508:B1 0.00014183
4 *2508:A1 *2509:C1 1.20377e-05
5 *2508:A1 *912:58 0
*RES
1 *2915:Q *2508:A1 20.7964 
*END

*D_NET *306 0.00053614
*CONN
*I *2518:A1 I *D sky130_fd_sc_hd__a221o_1
*I *2916:Q O *D sky130_fd_sc_hd__dlxtn_1
*CAP
1 *2518:A1 0.000168221
2 *2916:Q 0.000168221
3 *2518:A1 *2518:B1 0.00018831
4 *2518:A1 *865:6 1.13883e-05
*RES
1 *2916:Q *2518:A1 21.2071 
*END

*D_NET *307 0.000594685
*CONN
*I *2531:B2 I *D sky130_fd_sc_hd__a221o_1
*I *2917:Q O *D sky130_fd_sc_hd__dlxtn_1
*CAP
1 *2531:B2 9.68056e-05
2 *2917:Q 9.68056e-05
3 *2531:B2 *2531:B1 5.7661e-06
4 *2531:B2 *805:34 5.47092e-05
5 *2531:B2 *892:39 0.000137223
6 *2531:B2 *898:31 0.000100831
7 *2530:A1 *2531:B2 0.000102545
*RES
1 *2917:Q *2531:B2 30.8545 
*END

*D_NET *308 0.000609128
*CONN
*I *2547:A1 I *D sky130_fd_sc_hd__a221o_1
*I *2918:Q O *D sky130_fd_sc_hd__dlxtn_1
*CAP
1 *2547:A1 0.000109585
2 *2918:Q 0.000109585
3 *2547:A1 *2547:B1 0.000294422
4 *2547:A1 *2547:B2 0
5 *2547:A1 *2548:B2 9.55363e-05
*RES
1 *2918:Q *2547:A1 31.3679 
*END

*D_NET *309 0.000432406
*CONN
*I *2553:A1 I *D sky130_fd_sc_hd__a221o_1
*I *2919:Q O *D sky130_fd_sc_hd__dlxtn_1
*CAP
1 *2553:A1 0.000136018
2 *2919:Q 0.000136018
3 *2553:A1 *2553:A2 9.03406e-05
4 *2553:A1 *2553:C1 5.71472e-05
5 *2553:B2 *2553:A1 1.28809e-05
*RES
1 *2919:Q *2553:A1 21.2071 
*END

*D_NET *310 0.00040712
*CONN
*I *2453:B2 I *D sky130_fd_sc_hd__a22o_1
*I *2926:Q O *D sky130_fd_sc_hd__dlxtn_1
*CAP
1 *2453:B2 0.000116949
2 *2926:Q 0.000116949
3 *2453:B2 *2558:C 6.44614e-05
4 *2453:B2 *2559:B2 2.06112e-05
5 *2453:B2 *605:18 3.10885e-05
6 *2453:A1 *2453:B2 5.7061e-05
*RES
1 *2926:Q *2453:B2 30.0821 
*END

*D_NET *311 0.000693312
*CONN
*I *2561:B2 I *D sky130_fd_sc_hd__a22o_1
*I *2936:Q O *D sky130_fd_sc_hd__dlxtn_1
*CAP
1 *2561:B2 0.00012819
2 *2936:Q 0.00012819
3 *2561:B2 *2655:S 7.49499e-05
4 *2561:B2 *3157:A 0.000122875
5 *2561:B2 *827:48 0.000124529
6 *2561:B2 *994:18 0.000114577
*RES
1 *2936:Q *2561:B2 31.4214 
*END

*D_NET *312 0.0010011
*CONN
*I *2574:A1 I *D sky130_fd_sc_hd__a22o_1
*I *2937:Q O *D sky130_fd_sc_hd__dlxtn_1
*CAP
1 *2574:A1 0.000297264
2 *2937:Q 0.000297264
3 *2574:A1 *2574:A2 5.71472e-05
4 *2574:A1 *822:176 0.000107472
5 *2574:A1 *853:6 2.27416e-05
6 *2574:A1 *854:42 0.000219209
*RES
1 *2937:Q *2574:A1 24.6536 
*END

*D_NET *313 0.000343637
*CONN
*I *2585:A1 I *D sky130_fd_sc_hd__a22o_1
*I *2938:Q O *D sky130_fd_sc_hd__dlxtn_1
*CAP
1 *2585:A1 9.38079e-05
2 *2938:Q 9.38079e-05
3 *2585:A1 *2585:B1 0.00010377
4 *2585:A1 *2586:C1 3.92854e-05
5 *2585:A1 *2938:D 6.05161e-06
6 *2585:A1 *807:18 0
7 *2585:A1 *847:125 6.91438e-06
*RES
1 *2938:Q *2585:A1 29.475 
*END

*D_NET *314 0.000301292
*CONN
*I *2594:B2 I *D sky130_fd_sc_hd__a22o_1
*I *2939:Q O *D sky130_fd_sc_hd__dlxtn_1
*CAP
1 *2594:B2 8.45116e-05
2 *2939:Q 8.45116e-05
3 *2594:B2 *2595:C1 0
4 *2594:B2 *889:56 7.70385e-05
5 *2594:B2 *925:133 5.52302e-05
*RES
1 *2939:Q *2594:B2 29.1714 
*END

*D_NET *315 0.000889412
*CONN
*I *2606:A1 I *D sky130_fd_sc_hd__a221o_1
*I *2940:Q O *D sky130_fd_sc_hd__dlxtn_1
*CAP
1 *2606:A1 0.000356184
2 *2940:Q 0.000356184
3 *2606:A1 *2918:GATE_N 2.95726e-05
4 *2606:A1 *3157:A 2.89114e-05
5 *2606:A1 *441:31 0
6 *2606:A1 *807:115 3.06878e-06
7 *2606:A1 *825:6 1.57931e-05
8 *2606:A1 *825:8 9.33978e-07
9 *2606:A1 *914:157 9.87648e-05
*RES
1 *2940:Q *2606:A1 32.35 
*END

*D_NET *316 0.00064216
*CONN
*I *2616:B2 I *D sky130_fd_sc_hd__a22o_1
*I *2941:Q O *D sky130_fd_sc_hd__dlxtn_1
*CAP
1 *2616:B2 0.000174437
2 *2941:Q 0.000174437
3 *2616:B2 *531:18 0.000135028
4 *2616:B2 *810:22 0.000125724
5 *2616:B2 *839:75 0
6 *2616:A1 *2616:B2 3.2534e-05
*RES
1 *2941:Q *2616:B2 30.6 
*END

*D_NET *317 0.00164221
*CONN
*I *2464:B2 I *D sky130_fd_sc_hd__a221o_1
*I *2927:Q O *D sky130_fd_sc_hd__dlxtn_1
*CAP
1 *2464:B2 0.000466224
2 *2927:Q 0.000466224
3 *2464:B2 *2464:A2 9.79137e-05
4 *2464:B2 *2471:B1 0.000229456
5 *2464:B2 *3039:D 6.97494e-05
6 *2464:B2 *881:55 0.000181803
7 *2464:B2 *915:81 7.41875e-05
8 *2464:A1 *2464:B2 5.66571e-05
*RES
1 *2927:Q *2464:B2 27.7339 
*END

*D_NET *318 0.000848192
*CONN
*I *2476:A1 I *D sky130_fd_sc_hd__a221o_1
*I *2928:Q O *D sky130_fd_sc_hd__dlxtn_1
*CAP
1 *2476:A1 0.000226972
2 *2928:Q 0.000226972
3 *2476:A1 *2476:B1 0.000147325
4 *2476:A1 *3054:GATE_N 4.62969e-05
5 *2476:A1 *389:10 0.000147325
6 *2476:A1 *894:69 5.33005e-05
*RES
1 *2928:Q *2476:A1 31.725 
*END

*D_NET *319 0.000759905
*CONN
*I *2487:A1 I *D sky130_fd_sc_hd__a221o_1
*I *2929:Q O *D sky130_fd_sc_hd__dlxtn_1
*CAP
1 *2487:A1 0.000204355
2 *2929:Q 0.000204355
3 *2487:A1 *2493:B2 4.55516e-05
4 *2487:A1 *825:41 0.000148196
5 *2487:A1 *825:43 9.25014e-06
6 *2487:A1 *894:37 0.000148196
*RES
1 *2929:Q *2487:A1 31.3143 
*END

*D_NET *320 0.000668703
*CONN
*I *2498:B2 I *D sky130_fd_sc_hd__a221o_1
*I *2930:Q O *D sky130_fd_sc_hd__dlxtn_1
*CAP
1 *2498:B2 0.000101038
2 *2930:Q 0.000101038
3 *2498:B2 *2498:A2 0.000122866
4 *2498:B2 *3112:A 0.000219635
5 *2498:B2 *915:33 6.69782e-05
6 *2498:B2 *915:48 5.71472e-05
*RES
1 *2930:Q *2498:B2 22.3321 
*END

*D_NET *321 0.000708594
*CONN
*I *2509:B2 I *D sky130_fd_sc_hd__a221o_1
*I *2931:Q O *D sky130_fd_sc_hd__dlxtn_1
*CAP
1 *2509:B2 0.000176551
2 *2931:Q 0.000176551
3 *2509:B2 *2423:A 2.85616e-05
4 *2509:B2 *2509:C1 7.12607e-05
5 *2509:B2 *2931:D 5.03772e-05
6 *2509:B2 *3122:A 1.40399e-05
7 *2509:B2 *448:28 0.000184331
8 *2509:B2 *449:24 6.92148e-06
*RES
1 *2931:Q *2509:B2 31.6893 
*END

*D_NET *322 0.00109289
*CONN
*I *2520:A1 I *D sky130_fd_sc_hd__a221o_1
*I *2932:Q O *D sky130_fd_sc_hd__dlxtn_1
*CAP
1 *2520:A1 0.000231818
2 *2932:Q 0.000231818
3 *2520:A1 *2932:D 0
4 *2520:A1 *2943:GATE_N 0.000170661
5 *2520:A1 *499:38 0.000329751
6 *2520:A1 *575:18 2.78822e-05
7 *2520:A1 *660:14 0.00010096
*RES
1 *2932:Q *2520:A1 32.9214 
*END

*D_NET *323 0.000843317
*CONN
*I *2528:A1 I *D sky130_fd_sc_hd__a22o_1
*I *2933:Q O *D sky130_fd_sc_hd__dlxtn_1
*CAP
1 *2528:A1 0.000240155
2 *2933:Q 0.000240155
3 *2528:A1 *2561:B1 0.000286986
4 *2528:A1 *2562:B1 0
5 *2528:A1 *3045:D 1.53124e-05
6 *2528:A1 *3045:GATE_N 2.59355e-05
7 *2528:B2 *2528:A1 3.47737e-05
*RES
1 *2933:Q *2528:A1 32.3143 
*END

*D_NET *324 0.000678565
*CONN
*I *2540:B2 I *D sky130_fd_sc_hd__a221o_1
*I *2934:Q O *D sky130_fd_sc_hd__dlxtn_1
*CAP
1 *2540:B2 0.00018296
2 *2934:Q 0.00018296
3 *2540:B2 *2540:C1 0.000142819
4 *2540:B2 *847:131 1.28809e-05
5 *2540:B2 *860:34 7.32272e-05
6 *2540:B2 *898:93 7.08364e-05
7 *2540:B2 *914:151 1.28809e-05
*RES
1 *2934:Q *2540:B2 31.033 
*END

*D_NET *325 0.000987133
*CONN
*I *2552:B2 I *D sky130_fd_sc_hd__a22o_1
*I *2935:Q O *D sky130_fd_sc_hd__dlxtn_1
*CAP
1 *2552:B2 0.000131835
2 *2935:Q 0.000131835
3 *2552:B2 *2926:D 0.00026737
4 *2552:B2 *377:12 0.000146618
5 *2552:B2 *381:16 4.40212e-05
6 *2552:B2 *825:51 0.000265453
*RES
1 *2935:Q *2552:B2 32.1357 
*END

*D_NET *326 0.000565344
*CONN
*I *2451:A1 I *D sky130_fd_sc_hd__a22o_1
*I *2942:Q O *D sky130_fd_sc_hd__dlxtn_1
*CAP
1 *2451:A1 0.000174394
2 *2942:Q 0.000174394
3 *2451:A1 *2942:GATE_N 0.000171879
4 *2451:A1 *809:44 4.46764e-05
*RES
1 *2942:Q *2451:A1 30.4929 
*END

*D_NET *327 0.000897993
*CONN
*I *2562:A1 I *D sky130_fd_sc_hd__a221o_1
*I *2952:Q O *D sky130_fd_sc_hd__dlxtn_1
*CAP
1 *2562:A1 0.000169751
2 *2952:Q 0.000169751
3 *2562:A1 *2562:A2 5.95283e-05
4 *2562:A1 *2570:B1 0.00030252
5 *2562:A1 *2642:B 9.15621e-06
6 *2562:A1 *2658:A0 9.97552e-05
7 *2562:A1 *994:18 8.7531e-05
*RES
1 *2952:Q *2562:A1 32.35 
*END

*D_NET *328 0.000743588
*CONN
*I *2573:B2 I *D sky130_fd_sc_hd__a221o_1
*I *2953:Q O *D sky130_fd_sc_hd__dlxtn_1
*CAP
1 *2573:B2 0.000264259
2 *2953:Q 0.000264259
3 *2573:B2 *2562:A2 4.05527e-05
4 *2573:B2 *2573:B1 1.04232e-05
5 *2573:B2 *911:131 2.61099e-05
6 *2573:A1 *2573:B2 0.000137983
*RES
1 *2953:Q *2573:B2 22.2071 
*END

*D_NET *329 0.000734968
*CONN
*I *2583:A1 I *D sky130_fd_sc_hd__a22o_1
*I *2954:Q O *D sky130_fd_sc_hd__dlxtn_1
*CAP
1 *2583:A1 0.000228735
2 *2954:Q 0.000228735
3 *2583:A1 *2529:A2 9.47456e-05
4 *2583:A1 *2584:C1 0
5 *2583:A1 *2922:D 4.37532e-05
6 *2583:A1 *916:95 5.71472e-05
7 *2583:B2 *2583:A1 8.18528e-05
*RES
1 *2954:Q *2583:A1 32.5107 
*END

*D_NET *330 0.00131363
*CONN
*I *2601:B2 I *D sky130_fd_sc_hd__a221o_1
*I *2955:Q O *D sky130_fd_sc_hd__dlxtn_1
*CAP
1 *2601:B2 0.000300142
2 *2955:Q 0.000300142
3 *2601:B2 *2882:GATE_N 0.000230774
4 *2601:B2 *499:38 0.00018077
5 *2601:B2 *823:20 1.57414e-05
6 *2601:B2 *849:37 0.00018372
7 *2601:A1 *2601:B2 0.000102337
*RES
1 *2955:Q *2601:B2 25.4616 
*END

*D_NET *331 0.000414329
*CONN
*I *2607:A1 I *D sky130_fd_sc_hd__a22o_1
*I *2956:Q O *D sky130_fd_sc_hd__dlxtn_1
*CAP
1 *2607:A1 0.000134492
2 *2956:Q 0.000134492
3 *2607:A1 *2607:B1 5.58941e-05
4 *2607:A1 *2922:GATE_N 0
5 *2607:A1 *3036:GATE_N 5.30637e-06
6 *2607:A1 *848:27 1.00073e-05
7 *2607:A1 *896:12 4.57473e-05
8 *2607:B2 *2607:A1 2.83893e-05
*RES
1 *2956:Q *2607:A1 30.0821 
*END

*D_NET *332 0.000977862
*CONN
*I *2617:A1 I *D sky130_fd_sc_hd__a221o_1
*I *2957:Q O *D sky130_fd_sc_hd__dlxtn_1
*CAP
1 *2617:A1 0.000218728
2 *2957:Q 0.000218728
3 *2617:A1 *2518:A2 0.00010326
4 *2617:A1 *2617:A2 3.33174e-05
5 *2617:A1 *2625:B1 5.52238e-05
6 *2617:A1 *3143:A 0.000199072
7 *2617:A1 *917:90 0.000149532
*RES
1 *2957:Q *2617:A1 32.7607 
*END

*D_NET *333 0.00058265
*CONN
*I *2466:B2 I *D sky130_fd_sc_hd__a221o_1
*I *2943:Q O *D sky130_fd_sc_hd__dlxtn_1
*CAP
1 *2466:B2 0.000117971
2 *2943:Q 0.000117971
3 *2466:B2 *2847:GATE_N 6.05161e-06
4 *2466:B2 *2859:GATE_N 0.000142389
5 *2466:B2 *831:18 0.000145818
6 *2466:B2 *876:41 1.55885e-05
7 *2466:B2 *917:34 2.84269e-05
8 *2466:B2 *922:47 8.43535e-06
*RES
1 *2943:Q *2466:B2 30.3679 
*END

*D_NET *334 0.000387672
*CONN
*I *2473:A1 I *D sky130_fd_sc_hd__a22o_1
*I *2944:Q O *D sky130_fd_sc_hd__dlxtn_1
*CAP
1 *2473:A1 0.000116209
2 *2944:Q 0.000116209
3 *2473:A1 *2473:A2 9.89536e-05
4 *2473:A1 *2474:C1 0
5 *2473:A1 *2636:A 5.62995e-05
*RES
1 *2944:Q *2473:A1 29.8857 
*END

*D_NET *335 0.00158312
*CONN
*I *2486:B2 I *D sky130_fd_sc_hd__a22o_1
*I *2945:Q O *D sky130_fd_sc_hd__dlxtn_1
*CAP
1 *2486:B2 0.000452589
2 *2945:Q 0.000452589
3 *2486:B2 *2486:B1 5.80706e-06
4 *2486:B2 *2493:B2 0.000513591
5 *2486:B2 *894:37 0.000121573
6 *2486:B2 *916:19 0
7 *2487:B2 *2486:B2 3.69697e-05
*RES
1 *2945:Q *2486:B2 34.2964 
*END

*D_NET *336 0.000193995
*CONN
*I *2499:B2 I *D sky130_fd_sc_hd__a22o_1
*I *2946:Q O *D sky130_fd_sc_hd__dlxtn_1
*CAP
1 *2499:B2 6.24389e-05
2 *2946:Q 6.24389e-05
3 *2499:B2 *2499:A2 0
4 *2499:B2 *823:8 1.58163e-05
5 *2499:B2 *912:27 5.33005e-05
*RES
1 *2946:Q *2499:B2 19.8679 
*END

*D_NET *337 0.00067452
*CONN
*I *2508:B2 I *D sky130_fd_sc_hd__a22o_1
*I *2947:Q O *D sky130_fd_sc_hd__dlxtn_1
*CAP
1 *2508:B2 0.000247824
2 *2947:Q 0.000247824
3 *2508:B2 *2508:A2 0
4 *2508:B2 *2515:A2 0
5 *2508:B2 *3162:A 0.000130844
6 *2508:B2 *838:28 0
7 *2508:B2 *867:16 3.04251e-05
8 *2508:B2 *912:62 1.76039e-05
*RES
1 *2947:Q *2508:B2 31.7071 
*END

*D_NET *338 0.00187523
*CONN
*I *2519:B2 I *D sky130_fd_sc_hd__a22o_1
*I *2948:Q O *D sky130_fd_sc_hd__dlxtn_1
*CAP
1 *2519:B2 0.000540408
2 *2948:Q 0.000540408
3 *2519:B2 *2520:C1 0.000144903
4 *2519:B2 *2943:GATE_N 8.64671e-05
5 *2519:B2 *3202:A 0.000144903
6 *2519:B2 *575:18 0.000356028
7 *2519:B2 *580:10 8.81471e-06
8 *2519:A1 *2519:B2 5.33005e-05
*RES
1 *2948:Q *2519:B2 36.7964 
*END

*D_NET *339 0.00088171
*CONN
*I *2529:A1 I *D sky130_fd_sc_hd__a221o_1
*I *2949:Q O *D sky130_fd_sc_hd__dlxtn_1
*CAP
1 *2529:A1 0.000264883
2 *2949:Q 0.000264883
3 *2529:A1 *2537:B1 3.57269e-05
4 *2529:A1 *2547:A2 0
5 *2529:A1 *838:34 9.11365e-06
6 *2529:A1 *838:40 0.000175703
7 *2529:B2 *2529:A1 0.0001314
*RES
1 *2949:Q *2529:A1 33.7964 
*END

*D_NET *340 0.000778223
*CONN
*I *2547:B2 I *D sky130_fd_sc_hd__a221o_1
*I *2950:Q O *D sky130_fd_sc_hd__dlxtn_1
*CAP
1 *2547:B2 0.000248236
2 *2950:Q 0.000248236
3 *2547:B2 *2547:A2 4.86152e-05
4 *2547:B2 *2548:B2 8.00806e-05
5 *2547:B2 *3046:GATE_N 0
6 *2547:B2 *838:34 0
7 *2547:B2 *884:16 0.000153054
8 *2547:A1 *2547:B2 0
*RES
1 *2950:Q *2547:B2 32.85 
*END

*D_NET *341 0.00146869
*CONN
*I *2551:A1 I *D sky130_fd_sc_hd__a221o_1
*I *2951:Q O *D sky130_fd_sc_hd__dlxtn_1
*CAP
1 *2551:A1 0.000341927
2 *2951:Q 0.000341927
3 *2551:A1 *2944:GATE_N 0.000221634
4 *2551:A1 *3154:A 0.000145753
5 *2551:A1 *859:67 0.000328428
6 *2551:A1 *896:50 8.90232e-05
*RES
1 *2951:Q *2551:A1 34.1536 
*END

*D_NET *342 0.000495281
*CONN
*I *2458:A1 I *D sky130_fd_sc_hd__a211o_1
*I *2958:Q O *D sky130_fd_sc_hd__dlxtn_1
*CAP
1 *2458:A1 0.000176603
2 *2958:Q 0.000176603
3 *2458:A1 *2456:B1 4.62539e-05
4 *2458:A1 *2458:B1 7.17836e-05
5 *2458:A1 *833:52 2.40379e-05
*RES
1 *2958:Q *2458:A1 30.4929 
*END

*D_NET *343 0.0017954
*CONN
*I *2567:B2 I *D sky130_fd_sc_hd__a22o_1
*I *2968:Q O *D sky130_fd_sc_hd__dlxtn_1
*CAP
1 *2567:B2 0.0004563
2 *2968:Q 0.0004563
3 *2567:B2 *2856:GATE_N 0.000303542
4 *2567:B2 *3013:GATE_N 4.46186e-06
5 *2567:B2 *814:80 5.33882e-05
6 *2567:B2 *836:57 0.000223294
7 *2567:B2 *855:32 3.0285e-05
8 *2567:B2 *855:46 3.18676e-05
9 *2565:B2 *2567:B2 0.000225193
10 *2566:A1 *2567:B2 1.07719e-05
*RES
1 *2968:Q *2567:B2 37.4214 
*END

*D_NET *344 0.000442639
*CONN
*I *2579:A1 I *D sky130_fd_sc_hd__a211o_1
*I *2969:Q O *D sky130_fd_sc_hd__dlxtn_1
*CAP
1 *2579:A1 0.000170324
2 *2969:Q 0.000170324
3 *2579:A1 *2579:A2 1.04232e-05
4 *2579:A1 *2579:C1 5.33433e-05
5 *2579:A1 *908:125 3.82242e-05
*RES
1 *2969:Q *2579:A1 21.5107 
*END

*D_NET *345 0.0010896
*CONN
*I *2587:B2 I *D sky130_fd_sc_hd__a22o_1
*I *2970:Q O *D sky130_fd_sc_hd__dlxtn_1
*CAP
1 *2587:B2 0.000334474
2 *2970:Q 0.000334474
3 *2587:B2 *2874:D 0.000176408
4 *2587:B2 *2890:GATE_N 0.000181959
5 *2587:B2 *2970:D 3.14193e-05
6 *2587:A1 *2587:B2 3.08664e-05
*RES
1 *2970:Q *2587:B2 33.9036 
*END

*D_NET *346 0.0006741
*CONN
*I *2598:A1 I *D sky130_fd_sc_hd__a221o_1
*I *2971:Q O *D sky130_fd_sc_hd__dlxtn_1
*CAP
1 *2598:A1 0.000218214
2 *2971:Q 0.000218214
3 *2598:A1 *2385:B 5.33005e-05
4 *2598:A1 *2424:D 5.01117e-05
5 *2598:A1 *2598:B1 1.02504e-05
6 *2598:A1 *930:20 0
7 *2598:A1 *936:18 0.00012401
*RES
1 *2971:Q *2598:A1 31.0107 
*END

*D_NET *347 0.00136059
*CONN
*I *2611:B2 I *D sky130_fd_sc_hd__a22o_1
*I *2972:Q O *D sky130_fd_sc_hd__dlxtn_1
*CAP
1 *2611:B2 0.000400648
2 *2972:Q 0.000400648
3 *2611:B2 *3034:GATE_N 6.42242e-05
4 *2611:B2 *3198:A 0.000140933
5 *2611:B2 *635:20 0.000112417
6 *2611:B2 *900:38 0.000180764
7 *2611:B2 *910:10 6.09572e-05
*RES
1 *2972:Q *2611:B2 33.8857 
*END

*D_NET *348 0.000737441
*CONN
*I *2621:B2 I *D sky130_fd_sc_hd__a221o_1
*I *2973:Q O *D sky130_fd_sc_hd__dlxtn_1
*CAP
1 *2621:B2 0.000207867
2 *2973:Q 0.000207867
3 *2621:B2 *2621:B1 4.46186e-06
4 *2621:B2 *2621:C1 1.02504e-05
5 *2621:B2 *3130:A 1.28809e-05
6 *2621:B2 *821:16 0.000183726
7 *2621:B2 *907:56 9.75072e-05
8 *2621:A1 *2621:B2 1.28809e-05
*RES
1 *2973:Q *2621:B2 31.1402 
*END

*D_NET *349 0.000554971
*CONN
*I *2469:A1 I *D sky130_fd_sc_hd__a211o_1
*I *2959:Q O *D sky130_fd_sc_hd__dlxtn_1
*CAP
1 *2469:A1 0.000131056
2 *2959:Q 0.000131056
3 *2469:A1 *2469:A2 8.08022e-05
4 *2469:A1 *2610:B1 3.25078e-05
5 *2469:A1 *906:20 7.85888e-05
6 *2469:A1 *925:72 0.00010096
*RES
1 *2959:Q *2469:A1 30.4929 
*END

*D_NET *350 0.000446775
*CONN
*I *2477:A1 I *D sky130_fd_sc_hd__a22o_1
*I *2960:Q O *D sky130_fd_sc_hd__dlxtn_1
*CAP
1 *2477:A1 0.000175114
2 *2960:Q 0.000175114
3 *2477:A1 *2477:A2 3.50166e-05
4 *2477:A1 *2477:B1 2.17647e-05
5 *2477:A1 *831:69 3.97657e-05
*RES
1 *2960:Q *2477:A1 21.2071 
*END

*D_NET *351 0.000259713
*CONN
*I *2488:B2 I *D sky130_fd_sc_hd__a22o_1
*I *2961:Q O *D sky130_fd_sc_hd__dlxtn_1
*CAP
1 *2488:B2 9.32063e-05
2 *2961:Q 9.32063e-05
3 *2488:B2 *2993:GATE_N 0
4 *2488:B2 *923:36 6.32633e-05
5 *2488:A1 *2488:B2 1.00375e-05
*RES
1 *2961:Q *2488:B2 29.5464 
*END

*D_NET *352 0.00169417
*CONN
*I *2500:A1 I *D sky130_fd_sc_hd__a22o_1
*I *2962:Q O *D sky130_fd_sc_hd__dlxtn_1
*CAP
1 *2500:A1 0.000564553
2 *2962:Q 0.000564553
3 *2500:A1 *2501:A2 4.34948e-06
4 *2500:A1 *2501:B2 8.66619e-06
5 *2500:A1 *2501:C1 2.27416e-05
6 *2500:A1 *2502:B1 3.92141e-05
7 *2500:A1 *2502:C1 3.1367e-05
8 *2500:A1 *2512:A2 3.05446e-05
9 *2500:A1 *2850:D 0
10 *2500:A1 *817:28 9.60939e-05
11 *2500:A1 *903:91 3.5748e-06
12 *2500:A1 *904:10 2.31791e-05
13 *2500:A1 *904:16 0.000150625
14 *2500:A1 *907:14 4.47364e-05
15 *2500:A1 *907:16 3.33302e-05
16 *2502:A1 *2500:A1 7.6644e-05
*RES
1 *2962:Q *2500:A1 36.2607 
*END

*D_NET *353 0.00239517
*CONN
*I *2510:A1 I *D sky130_fd_sc_hd__a22o_1
*I *2963:Q O *D sky130_fd_sc_hd__dlxtn_1
*CAP
1 *2510:A1 0.000859269
2 *2963:Q 0.000859269
3 *2510:A1 *2514:A 2.21972e-05
4 *2510:A1 *2523:B1 0.000114912
5 *2510:A1 *3134:A 3.09334e-05
6 *2510:A1 *819:35 4.46231e-06
7 *2510:A1 *819:39 0.00015153
8 *2510:A1 *905:47 0.000148196
9 *2510:A1 *909:66 4.46186e-06
10 *2510:A1 *922:87 0.000100831
11 *2510:A1 *925:86 9.91086e-05
*RES
1 *2963:Q *2510:A1 40.3143 
*END

*D_NET *354 0.0024176
*CONN
*I *2523:B2 I *D sky130_fd_sc_hd__a22o_1
*I *2964:Q O *D sky130_fd_sc_hd__dlxtn_1
*CAP
1 *2523:B2 0.000814311
2 *2964:Q 0.000814311
3 *2523:B2 *2964:D 0.000164825
4 *2523:B2 *2980:GATE_N 0.000354061
5 *2523:B2 *3012:D 1.00332e-05
6 *2523:B2 *864:49 2.84109e-05
7 *2523:B2 *864:51 5.33334e-05
8 *2523:B2 *864:89 0.000123359
9 *2523:A1 *2523:B2 5.49544e-05
*RES
1 *2964:Q *2523:B2 40.1714 
*END

*D_NET *355 0.000641999
*CONN
*I *2534:B2 I *D sky130_fd_sc_hd__a22o_1
*I *2965:Q O *D sky130_fd_sc_hd__dlxtn_1
*CAP
1 *2534:B2 0.00021208
2 *2965:Q 0.00021208
3 *2534:B2 *2569:B 0
4 *2534:B2 *2569:C 2.89114e-05
5 *2534:B2 *615:12 3.34672e-05
6 *2534:B2 *908:68 0.00015546
*RES
1 *2965:Q *2534:B2 32.0286 
*END

*D_NET *356 0.000380349
*CONN
*I *2542:A1 I *D sky130_fd_sc_hd__a22o_1
*I *2966:Q O *D sky130_fd_sc_hd__dlxtn_1
*CAP
1 *2542:A1 0.000100333
2 *2966:Q 0.000100333
3 *2542:A1 *2542:B1 6.54691e-05
4 *2542:A1 *2609:B1 0.00010096
5 *2542:A1 *2860:GATE_N 1.32552e-05
*RES
1 *2966:Q *2542:A1 20.9214 
*END

*D_NET *357 0.00128787
*CONN
*I *2557:A1 I *D sky130_fd_sc_hd__a211o_1
*I *2967:Q O *D sky130_fd_sc_hd__dlxtn_1
*CAP
1 *2557:A1 0.000516772
2 *2967:Q 0.000516772
3 *2557:A1 *2555:A2 7.13226e-06
4 *2557:A1 *2556:A2 2.59355e-05
5 *2557:A1 *2557:A2 7.77958e-05
6 *2557:A1 *2557:B1 0
7 *2557:A1 *3070:GATE_N 7.40526e-05
8 *2557:A1 *515:34 6.94127e-05
9 *2555:A1 *2557:A1 0
*RES
1 *2967:Q *2557:A1 34.5464 
*END

*D_NET *358 0.000991865
*CONN
*I *2457:B2 I *D sky130_fd_sc_hd__a22o_1
*I *2974:Q O *D sky130_fd_sc_hd__dlxtn_1
*CAP
1 *2457:B2 0.000321364
2 *2974:Q 0.000321364
3 *2457:B2 *2456:B1 8.71761e-06
4 *2457:B2 *2478:A2 8.38184e-05
5 *2457:B2 *816:38 5.41794e-05
6 *2457:B2 *818:54 3.28378e-06
7 *2457:B2 *923:71 5.59013e-05
8 *2478:A1 *2457:B2 4.52775e-05
9 *2478:B2 *2457:B2 9.79598e-05
*RES
1 *2974:Q *2457:B2 32.1536 
*END

*D_NET *359 0.00266317
*CONN
*I *2565:A1 I *D sky130_fd_sc_hd__a22o_1
*I *2984:Q O *D sky130_fd_sc_hd__dlxtn_1
*CAP
1 *2565:A1 0.000797984
2 *2984:Q 0.000797984
3 *2565:A1 *2565:A2 5.49489e-05
4 *2565:A1 *2565:B1 2.36643e-05
5 *2565:A1 *2566:C1 0.000624238
6 *2565:A1 *2856:D 0.00016985
7 *2565:A1 *2888:GATE_N 0
8 *2565:A1 *2984:D 9.7659e-05
9 *2565:A1 *836:38 9.25014e-06
10 *2565:A1 *855:32 5.33334e-05
11 *2565:A1 *906:114 2.14378e-05
12 *2567:A1 *2565:A1 1.28171e-05
*RES
1 *2984:Q *2565:A1 42.6357 
*END

*D_NET *360 0.000760184
*CONN
*I *2577:B2 I *D sky130_fd_sc_hd__a221o_1
*I *2985:Q O *D sky130_fd_sc_hd__dlxtn_1
*CAP
1 *2577:B2 0.000280137
2 *2985:Q 0.000280137
3 *2577:B2 *2577:C1 1.02504e-05
4 *2577:B2 *2849:GATE_N 6.98302e-05
5 *2577:B2 *2855:GATE_N 7.6644e-05
6 *2577:B2 *833:14 0
7 *2577:B2 *853:37 1.28809e-05
8 *2577:B2 *923:63 2.40379e-05
9 *2577:A1 *2577:B2 6.26774e-06
*RES
1 *2985:Q *2577:B2 31.8545 
*END

*D_NET *361 0.000713503
*CONN
*I *2588:B2 I *D sky130_fd_sc_hd__a221o_1
*I *2986:Q O *D sky130_fd_sc_hd__dlxtn_1
*CAP
1 *2588:B2 0.00015033
2 *2986:Q 0.00015033
3 *2588:B2 *2970:GATE_N 0.000238317
4 *2588:B2 *851:102 0.000110105
5 *2588:B2 *906:99 0
6 *2588:A1 *2588:B2 6.4421e-05
*RES
1 *2986:Q *2588:B2 31.6759 
*END

*D_NET *362 0.00100404
*CONN
*I *2597:A1 I *D sky130_fd_sc_hd__a22o_1
*I *2987:Q O *D sky130_fd_sc_hd__dlxtn_1
*CAP
1 *2597:A1 0.000364229
2 *2987:Q 0.000364229
3 *2597:A1 *2599:A2 4.56642e-05
4 *2597:A1 *3193:A 0
5 *2597:A1 *3213:A 0.000122091
6 *2597:A1 *850:31 9.25014e-06
7 *2597:A1 *938:14 0
8 *2597:B2 *2597:A1 3.0285e-05
9 *2599:A1 *2597:A1 6.82922e-05
*RES
1 *2987:Q *2597:A1 33.5464 
*END

*D_NET *363 0.000686904
*CONN
*I *2609:B2 I *D sky130_fd_sc_hd__a22o_1
*I *2988:Q O *D sky130_fd_sc_hd__dlxtn_1
*CAP
1 *2609:B2 0.000124394
2 *2988:Q 0.000124394
3 *2609:B2 *2525:A 0.000226507
4 *2609:B2 *496:16 5.48488e-05
5 *2609:B2 *580:10 7.84241e-05
6 *2609:B2 *805:54 7.83366e-05
*RES
1 *2988:Q *2609:B2 31.725 
*END

*D_NET *364 0.000485358
*CONN
*I *2620:A1 I *D sky130_fd_sc_hd__a22o_1
*I *2989:Q O *D sky130_fd_sc_hd__dlxtn_1
*CAP
1 *2620:A1 0.000162153
2 *2989:Q 0.000162153
3 *2620:A1 *905:20 1.56e-05
4 *2620:A1 *905:33 0.000145451
*RES
1 *2989:Q *2620:A1 20.7964 
*END

*D_NET *365 0.00115305
*CONN
*I *2468:A1 I *D sky130_fd_sc_hd__a221o_1
*I *2975:Q O *D sky130_fd_sc_hd__dlxtn_1
*CAP
1 *2468:A1 0.000267477
2 *2975:Q 0.000267477
3 *2468:A1 *2469:B1 1.33343e-05
4 *2468:A1 *2469:C1 0.000253782
5 *2468:A1 *2623:C1 0
6 *2468:A1 *905:94 2.61099e-05
7 *2468:A1 *906:20 0.000322041
8 *2468:A1 *936:24 2.8266e-06
*RES
1 *2975:Q *2468:A1 32.9214 
*END

*D_NET *366 0.00101598
*CONN
*I *2477:B2 I *D sky130_fd_sc_hd__a22o_1
*I *2976:Q O *D sky130_fd_sc_hd__dlxtn_1
*CAP
1 *2477:B2 0.000289872
2 *2976:Q 0.000289872
3 *2477:B2 *2478:C1 0
4 *2477:B2 *2864:GATE_N 0
5 *2477:B2 *2888:GATE_N 0.000100823
6 *2477:B2 *2974:D 3.71496e-05
7 *2477:B2 *818:43 9.60875e-05
8 *2477:B2 *831:69 0.000199349
9 *2477:B2 *873:73 2.8266e-06
10 *2478:A1 *2477:B2 0
*RES
1 *2976:Q *2477:B2 32.9214 
*END

*D_NET *367 0.00105255
*CONN
*I *2490:B2 I *D sky130_fd_sc_hd__a22o_1
*I *2977:Q O *D sky130_fd_sc_hd__dlxtn_1
*CAP
1 *2490:B2 0.000348135
2 *2977:Q 0.000348135
3 *2490:B2 *2490:B1 3.46775e-05
4 *2490:B2 *2977:D 0.000177815
5 *2490:B2 *855:20 8.85597e-05
6 *2491:A1 *2490:B2 5.52302e-05
*RES
1 *2977:Q *2490:B2 24.9214 
*END

*D_NET *368 0.000726299
*CONN
*I *2501:B2 I *D sky130_fd_sc_hd__a221o_1
*I *2978:Q O *D sky130_fd_sc_hd__dlxtn_1
*CAP
1 *2501:B2 0.000265004
2 *2978:Q 0.000265004
3 *2501:B2 *2512:A2 3.04785e-05
4 *2501:B2 *815:22 5.62995e-05
5 *2501:B2 *870:43 4.8843e-05
6 *2501:B2 *929:10 4.75428e-05
7 *2500:A1 *2501:B2 8.66619e-06
8 *2501:A1 *2501:B2 4.46186e-06
*RES
1 *2978:Q *2501:B2 32.0107 
*END

*D_NET *369 0.00036623
*CONN
*I *2512:A1 I *D sky130_fd_sc_hd__a22o_1
*I *2979:Q O *D sky130_fd_sc_hd__dlxtn_1
*CAP
1 *2512:A1 0.000172721
2 *2979:Q 0.000172721
3 *2512:A1 *2512:B1 2.07878e-05
*RES
1 *2979:Q *2512:A1 20.7964 
*END

*D_NET *370 0.0013147
*CONN
*I *2522:B2 I *D sky130_fd_sc_hd__a221o_1
*I *2980:Q O *D sky130_fd_sc_hd__dlxtn_1
*CAP
1 *2522:B2 0.00037649
2 *2980:Q 0.00037649
3 *2522:B2 *2522:C1 2.85377e-05
4 *2522:B2 *2852:GATE_N 0.00026118
5 *2522:B2 *2980:GATE_N 0.000225438
6 *2522:B2 *832:47 1.64621e-05
7 *2522:A1 *2522:B2 3.00989e-05
*RES
1 *2980:Q *2522:B2 34.4393 
*END

*D_NET *371 0.000320444
*CONN
*I *2532:B2 I *D sky130_fd_sc_hd__a22o_1
*I *2981:Q O *D sky130_fd_sc_hd__dlxtn_1
*CAP
1 *2532:B2 0.000144288
2 *2981:Q 0.000144288
3 *2532:B2 *2532:A2 0
4 *2532:B2 *2874:GATE_N 0
5 *2532:B2 *833:80 0
6 *2532:B2 *862:45 3.18676e-05
*RES
1 *2981:Q *2532:B2 29.7786 
*END

*D_NET *372 0.00148239
*CONN
*I *2543:B2 I *D sky130_fd_sc_hd__a221o_1
*I *2982:Q O *D sky130_fd_sc_hd__dlxtn_1
*CAP
1 *2543:B2 0.00052426
2 *2982:Q 0.00052426
3 *2543:B2 *2543:B1 5.09596e-06
4 *2543:B2 *2543:C1 4.21173e-05
5 *2543:B2 *2860:GATE_N 7.86647e-05
6 *2543:B2 *2982:D 0.000109916
7 *2543:B2 *814:37 9.90367e-05
8 *2543:B2 *820:10 0
9 *2544:A1 *2543:B2 9.90367e-05
*RES
1 *2982:Q *2543:B2 36.7116 
*END

*D_NET *373 0.00116847
*CONN
*I *2555:B2 I *D sky130_fd_sc_hd__a221o_1
*I *2983:Q O *D sky130_fd_sc_hd__dlxtn_1
*CAP
1 *2555:B2 0.000317401
2 *2983:Q 0.000317401
3 *2555:B2 *2555:B1 7.29826e-05
4 *2555:B2 *2557:A2 1.403e-05
5 *2555:B2 *2557:C1 0.000358971
6 *2555:B2 *3070:GATE_N 7.06861e-05
7 *2555:A1 *2555:B2 1.69961e-05
*RES
1 *2983:Q *2555:B2 33.2429 
*END

*D_NET *374 0.00727913
*CONN
*I *2446:A I *D sky130_fd_sc_hd__and2_1
*I *2444:A I *D sky130_fd_sc_hd__and2_1
*I *2445:A I *D sky130_fd_sc_hd__and2_1
*I *2823:Q O *D sky130_fd_sc_hd__dlxtn_1
*CAP
1 *2446:A 0.00044602
2 *2444:A 0.000594646
3 *2445:A 0.000543575
4 *2823:Q 0.000132833
5 *374:27 0.00114234
6 *374:8 0.000778082
7 *2444:A *2659:S 0.000221634
8 *2444:A *2751:B2 4.58194e-05
9 *2444:A *2752:A1 0
10 *2444:A *2758:B 0.00032691
11 *2444:A *2759:A1 0.00026367
12 *2444:A *2760:B2 2.31791e-05
13 *2444:A *739:22 0.000203087
14 *2444:A *739:44 0.000509563
15 *2445:A *2672:A 0.000318197
16 *2445:A *2757:A2 0.00018372
17 *2445:A *2757:B1 6.87574e-05
18 *2445:A *2757:B2 3.98462e-05
19 *2445:A *2823:D 0.000180764
20 *2445:A *3178:A 4.87953e-05
21 *2446:A *2659:S 0.000207274
22 *374:8 *970:12 7.83587e-05
23 *374:8 *988:14 6.81459e-05
24 *374:8 *1022:24 0.000101545
25 *374:8 *1024:12 9.55467e-05
26 *374:27 *3091:D 0.000197977
27 *374:27 *988:14 2.55743e-05
28 *374:27 *1022:24 0.000170661
29 *374:27 *1024:12 2.23987e-05
30 *2445:B *2445:A 7.25712e-05
31 *2446:B *2446:A 7.47221e-05
32 *2446:B *374:27 8.07879e-05
33 *115:16 *2444:A 1.21258e-05
*RES
1 *2823:Q *374:8 17.5679 
2 *374:8 *2445:A 23.8357 
3 *374:8 *374:27 8.26786 
4 *374:27 *2444:A 32.4607 
5 *374:27 *2446:A 15.0857 
*END

*D_NET *375 0.00181718
*CONN
*I *2438:B I *D sky130_fd_sc_hd__and2_4
*I *2824:Q O *D sky130_fd_sc_hd__dlxtn_1
*CAP
1 *2438:B 0.000278417
2 *2824:Q 0.000278417
3 *2438:B *2438:A 0.000102228
4 *2438:B *2825:D 2.42516e-05
5 *2438:B *3178:A 9.60939e-05
6 *2438:B *3324:A 0.000306317
7 *2438:B *3326:A 5.52238e-05
8 *2438:B *3345:A 1.69961e-05
9 *2438:B *887:22 1.21258e-05
10 *2438:B *970:12 0.000307885
11 *2438:B *988:14 0.000310314
12 PSEL2 *2438:B 2.89114e-05
*RES
1 *2824:Q *2438:B 36.3321 
*END

*D_NET *376 0.00641599
*CONN
*I *3173:A I *D sky130_fd_sc_hd__buf_1
*I *3172:A I *D sky130_fd_sc_hd__clkbuf_2
*I *2643:X O *D sky130_fd_sc_hd__mux2_1
*CAP
1 *3173:A 0.00100996
2 *3172:A 0.000693541
3 *2643:X 0.000195108
4 *376:10 0.00189861
5 *3172:A *2646:A0 0.000181796
6 *3172:A *2896:D 0.000569554
7 *3172:A *2903:GATE_N 4.30382e-05
8 *3172:A *3168:A 5.71472e-05
9 *3172:A *829:113 4.78573e-05
10 *3172:A *873:28 0.000140933
11 *3172:A *874:20 5.33005e-05
12 *3173:A *2460:A2 3.81226e-05
13 *3173:A *2639:B 1.3701e-05
14 *3173:A *3047:GATE_N 2.19307e-05
15 *3173:A *389:10 0.000171213
16 *3173:A *809:44 1.11428e-05
17 *3173:A *838:70 1.24368e-05
18 *3173:A *874:10 0.000146319
19 *3173:A *874:20 2.24646e-05
20 *3173:A *878:10 0.000725039
21 *376:10 *2646:A1 5.98396e-05
22 *376:10 *2650:A0 5.71472e-05
23 *376:10 *2830:D 0
24 *376:10 *389:10 0.000100823
25 *376:10 *874:20 3.17148e-05
26 *376:10 *884:44 4.59085e-05
27 *2454:A1 *3172:A 1.40415e-05
28 *2475:A1 *3172:A 5.33005e-05
*RES
1 *2643:X *376:10 18.1036 
2 *376:10 *3172:A 27.4786 
3 *376:10 *3173:A 29.3714 
*END

*D_NET *377 0.00511343
*CONN
*I *3153:A I *D sky130_fd_sc_hd__buf_1
*I *3152:A I *D sky130_fd_sc_hd__clkbuf_2
*I *2653:X O *D sky130_fd_sc_hd__mux2_1
*CAP
1 *3153:A 0.00030203
2 *3152:A 3.35642e-05
3 *2653:X 0.000468705
4 *377:12 0.000804299
5 *3152:A *811:52 7.01963e-05
6 *3152:A *855:113 3.14048e-05
7 *3153:A *2486:A2 5.71472e-05
8 *3153:A *2486:B1 0.000228558
9 *3153:A *2487:C1 2.95641e-05
10 *3153:A *2563:B1 0
11 *3153:A *811:52 0.000319381
12 *3153:A *855:8 3.99614e-06
13 *3153:A *855:113 0.000220975
14 *377:12 *2475:B1 0.000157454
15 *377:12 *2903:GATE_N 1.19402e-05
16 *377:12 *3056:GATE_N 0.000124655
17 *377:12 *381:16 0
18 *377:12 *515:34 0.000149914
19 *377:12 *807:24 0.000349137
20 *377:12 *807:26 0.00028245
21 *377:12 *884:65 5.71472e-05
22 *377:12 *898:50 0.000959248
23 *2454:A1 *377:12 3.26628e-05
24 *2486:A1 *3153:A 0.000272381
25 *2552:B2 *377:12 0.000146618
*RES
1 *2653:X *377:12 34.1393 
2 *377:12 *3152:A 10.2464 
3 *377:12 *3153:A 19.6036 
*END

*D_NET *378 0.00277287
*CONN
*I *3151:A I *D sky130_fd_sc_hd__dlymetal6s2s_1
*I *2654:X O *D sky130_fd_sc_hd__mux2_1
*CAP
1 *3151:A 0.000830739
2 *2654:X 0.000830739
3 *3151:A *2475:B1 3.83768e-05
4 *3151:A *2553:C1 1.31516e-05
5 *3151:A *2654:A0 3.43988e-06
6 *3151:A *2654:A1 5.31158e-05
7 *3151:A *2903:D 0
8 *3151:A *2919:GATE_N 4.25622e-05
9 *3151:A *3047:D 0.000346532
10 *3151:A *3047:GATE_N 7.34678e-05
11 *3151:A *3054:GATE_N 4.61329e-05
12 *3151:A *3169:A 0
13 *3151:A *385:8 0
14 *3151:A *825:43 0
15 *3151:A *825:51 0
16 *3151:A *827:62 7.48091e-05
17 *3151:A *827:64 0.000255058
18 *3151:A *884:65 5.33005e-05
19 *3151:A *916:32 0
20 *3151:A *916:50 0
21 *2574:B2 *3151:A 0.000111448
*RES
1 *2654:X *3151:A 44.4571 
*END

*D_NET *379 0.00171111
*CONN
*I *3149:A I *D sky130_fd_sc_hd__buf_1
*I *3148:A I *D sky130_fd_sc_hd__clkbuf_2
*I *2655:X O *D sky130_fd_sc_hd__mux2_1
*CAP
1 *3149:A 0.00027333
2 *3148:A 0
3 *2655:X 0.000343096
4 *379:10 0.000616426
5 *3149:A *2922:D 1.92905e-05
6 *3149:A *811:26 5.52302e-05
7 *3149:A *811:143 0
8 *3149:A *852:40 7.73471e-05
9 *3149:A *911:72 0.000129289
10 *379:10 *551:22 0.000100124
11 *379:10 *811:143 0
12 *379:10 *911:72 9.69789e-05
*RES
1 *2655:X *379:10 19.3357 
2 *379:10 *3148:A 13.8 
3 *379:10 *3149:A 19.6214 
*END

*D_NET *380 0.00555555
*CONN
*I *3147:A I *D sky130_fd_sc_hd__dlymetal6s2s_1
*I *2656:X O *D sky130_fd_sc_hd__mux2_1
*CAP
1 *3147:A 4.86727e-05
2 *2656:X 0.00114438
3 *380:10 0.00119305
4 *3147:A *647:10 9.76689e-05
5 *3147:A *834:66 9.7659e-05
6 *380:10 *2392:A 0
7 *380:10 *3086:RESET_B 0
8 *380:10 *3093:D 0.000123278
9 *380:10 *3095:D 0.000172609
10 *380:10 *3226:A 9.74684e-05
11 *380:10 *386:10 0.00219782
12 *380:10 *461:22 0
13 *380:10 *489:10 0
14 *380:10 *783:12 0
15 *380:10 *783:26 0
16 *380:10 *785:14 0
17 *380:10 *849:10 7.50697e-05
18 *380:10 *955:10 0
19 *380:10 *955:59 0.000307878
*RES
1 *2656:X *380:10 49.0857 
2 *380:10 *3147:A 11.0679 
*END

*D_NET *381 0.0155243
*CONN
*I *3145:A I *D sky130_fd_sc_hd__buf_1
*I *3144:A I *D sky130_fd_sc_hd__clkbuf_2
*I *2657:X O *D sky130_fd_sc_hd__mux2_1
*CAP
1 *3145:A 0.000513124
2 *3144:A 0.00142071
3 *2657:X 0.00146762
4 *381:18 0.00228235
5 *381:16 0.00181613
6 *3144:A *2545:C 0.000432842
7 *3144:A *2592:B2 0
8 *3144:A *2938:GATE_N 0.000609237
9 *3144:A *847:25 1.48924e-05
10 *3144:A *851:20 0.000792947
11 *3144:A *851:53 0.000708429
12 *3144:A *934:22 4.7091e-05
13 *3145:A *2519:A2 0.00104838
14 *3145:A *2519:B1 0.000185824
15 *3145:A *2586:B1 9.56491e-05
16 *3145:A *2614:B2 0.000467509
17 *3145:A *2900:GATE_N 0
18 *3145:A *3186:A 1.85502e-05
19 *3145:A *3190:A 0.000212997
20 *3145:A *3202:A 0.000101722
21 *3145:A *918:109 0.000173568
22 *3145:A *918:124 0.000114514
23 *381:16 *2575:C1 0.000335215
24 *381:16 *2653:A0 0
25 *381:16 *2903:D 2.16689e-05
26 *381:16 *2903:GATE_N 0.000122689
27 *381:16 *2929:D 0.000149412
28 *381:16 *3024:GATE_N 0.000188586
29 *381:16 *3056:GATE_N 3.64793e-05
30 *381:16 *3057:D 7.85465e-05
31 *381:16 *515:34 3.64807e-05
32 *381:16 *807:22 0
33 *381:16 *807:24 7.31647e-05
34 *381:16 *807:26 1.69115e-05
35 *381:16 *871:10 0.000186304
36 *381:16 *873:10 0.000629804
37 *381:16 *873:28 0
38 *381:16 *914:10 0
39 *381:16 *914:16 0
40 *381:16 *914:18 0
41 *381:18 *3078:GATE_N 7.04971e-05
42 *381:18 *3202:A 0.000212548
43 *381:18 *805:18 4.03318e-05
44 *381:18 *807:22 0
45 *381:18 *914:10 0.000116701
46 *381:18 *918:10 0.000431504
47 *381:18 *918:109 0.000146684
48 *2486:A1 *381:16 6.27076e-05
49 *2552:B2 *381:16 4.40212e-05
50 *377:12 *381:16 0
*RES
1 *2657:X *381:16 43.3625 
2 *381:16 *381:18 10.4464 
3 *381:18 *3144:A 25.139 
4 *381:18 *3145:A 31.0411 
*END

*D_NET *382 0.00621894
*CONN
*I *3143:A I *D sky130_fd_sc_hd__buf_1
*I *3142:A I *D sky130_fd_sc_hd__clkbuf_2
*I *2658:X O *D sky130_fd_sc_hd__mux2_1
*CAP
1 *3143:A 0.000239986
2 *3142:A 0.000361653
3 *2658:X 0.00102391
4 *382:10 0.00162555
5 *3142:A *2625:A2 5.33005e-05
6 *3143:A *2515:A2 0.000144087
7 *3143:A *2518:A2 0.00028996
8 *3143:A *917:90 5.49489e-05
9 *3143:A *962:60 4.43256e-05
10 *382:10 *2515:A2 0.000111562
11 *382:10 *2518:A2 0.000126439
12 *382:10 *2518:C1 0
13 *382:10 *2526:B1 0.000100831
14 *382:10 *2526:B2 0.000123288
15 *382:10 *2548:B2 0
16 *382:10 *2642:B 0.000145406
17 *382:10 *2655:S 9.6087e-05
18 *382:10 *428:16 4.06087e-07
19 *382:10 *884:16 0.000215953
20 *382:10 *889:26 0.000149257
21 *382:10 *932:14 0.000165285
22 *382:10 *932:22 0.000799076
23 *2517:A1 *382:10 0
24 *2617:A1 *3143:A 0.000199072
25 *2625:A1 *3143:A 0.000148555
*RES
1 *2658:X *382:10 38.4607 
2 *382:10 *3142:A 18.05 
3 *382:10 *3143:A 20.7464 
*END

*D_NET *383 0.00798935
*CONN
*I *3170:A I *D sky130_fd_sc_hd__clkbuf_2
*I *3171:A I *D sky130_fd_sc_hd__buf_1
*I *2644:X O *D sky130_fd_sc_hd__mux2_1
*CAP
1 *3170:A 3.09404e-05
2 *3171:A 0.000260034
3 *2644:X 0.000161197
4 *383:10 0.00200786
5 *383:8 0.00187808
6 *3170:A *2948:GATE_N 2.89016e-05
7 *3171:A *2395:B 6.27272e-06
8 *3171:A *2948:GATE_N 0
9 *3171:A *3035:GATE_N 1.67002e-05
10 *3171:A *3055:GATE_N 0.000172484
11 *3171:A *808:80 7.98104e-05
12 *3171:A *840:44 6.27272e-06
13 *3171:A *875:10 0.00033242
14 *3171:A *876:10 6.05161e-06
15 *3171:A *937:12 0
16 *383:8 *3087:CLK 9.71197e-05
17 *383:8 *3098:A 3.80277e-05
18 *383:10 *3035:GATE_N 0.00018506
19 *383:10 *3087:CLK 6.19181e-05
20 *383:10 *3089:D 6.74911e-05
21 *383:10 *3094:D 6.42242e-05
22 *383:10 *3096:RESET_B 0
23 *383:10 *3220:A 0.000389139
24 *383:10 *3222:A 0.000315165
25 *383:10 *3223:A 0.000426015
26 *383:10 *3226:A 0
27 *383:10 *3304:A 0
28 *383:10 *435:12 0
29 *383:10 *771:12 0
30 *383:10 *771:14 0
31 *383:10 *771:22 0
32 *383:10 *771:67 0
33 *383:10 *771:78 0
34 *383:10 *771:89 0
35 *383:10 *840:44 4.1257e-05
36 *383:10 *885:115 0.000654228
37 *383:10 *937:12 0
38 *383:10 *942:59 0.000302478
39 *383:10 *944:12 1.58619e-05
40 *383:10 *944:16 5.03624e-05
41 *383:10 *945:25 0.000293975
42 *383:10 *949:57 0
43 *383:10 *955:30 0
*RES
1 *2644:X *383:8 15.9786 
2 *383:8 *383:10 42.625 
3 *383:10 *3171:A 20.0321 
4 *383:10 *3170:A 14.3357 
*END

*D_NET *384 0.00375738
*CONN
*I *3169:A I *D sky130_fd_sc_hd__buf_1
*I *3168:A I *D sky130_fd_sc_hd__clkbuf_2
*I *2645:X O *D sky130_fd_sc_hd__mux2_1
*CAP
1 *3169:A 0.000362793
2 *3168:A 4.4971e-05
3 *2645:X 0.00058017
4 *384:14 0.000987934
5 *3168:A *2654:A1 0
6 *3168:A *2903:GATE_N 1.92789e-05
7 *3168:A *873:10 2.34337e-05
8 *3169:A *2654:A1 0.000221641
9 *3169:A *2903:D 9.54798e-06
10 *3169:A *3047:GATE_N 0.000204612
11 *3169:A *873:10 7.89616e-05
12 *3169:A *884:57 7.16452e-05
13 *3169:A *884:65 0.000165877
14 *384:14 *2460:B2 0.000688481
15 *384:14 *811:60 2.26973e-05
16 *384:14 *1016:22 0.000113028
17 *2552:A1 *3169:A 0.000105163
18 *3151:A *3169:A 0
19 *3172:A *3168:A 5.71472e-05
*RES
1 *2645:X *384:14 22.8175 
2 *384:14 *3168:A 14.9161 
3 *384:14 *3169:A 23.3089 
*END

*D_NET *385 0.0050411
*CONN
*I *3167:A I *D sky130_fd_sc_hd__buf_1
*I *3166:A I *D sky130_fd_sc_hd__clkbuf_2
*I *2646:X O *D sky130_fd_sc_hd__mux2_1
*CAP
1 *3167:A 0.000193622
2 *3166:A 2.70368e-05
3 *2646:X 0.000905584
4 *385:8 0.00112624
5 *3166:A *805:18 5.03772e-05
6 *3166:A *871:10 5.52302e-05
7 *3166:A *871:118 5.52238e-05
8 *3167:A *2484:A2 4.08637e-05
9 *3167:A *3030:GATE_N 0
10 *3167:A *916:19 0
11 *3167:A *916:95 0.000137983
12 *3167:A *918:21 9.71197e-05
13 *3167:A *918:25 0.000117316
14 *385:8 *2475:A2 0.000280449
15 *385:8 *2553:C1 0
16 *385:8 *2564:C1 0.000357774
17 *385:8 *2654:A0 5.31255e-05
18 *385:8 *3047:D 0
19 *385:8 *856:12 0.000121411
20 *385:8 *859:24 7.6644e-05
21 *385:8 *916:19 0
22 *385:8 *916:32 0.000278677
23 *385:8 *916:50 1.08359e-05
24 *385:8 *918:25 7.8894e-05
25 *385:8 *918:29 0.000976685
26 *3151:A *385:8 0
*RES
1 *2646:X *385:8 36.9964 
2 *385:8 *3166:A 14.7464 
3 *385:8 *3167:A 18.3179 
*END

*D_NET *386 0.00899062
*CONN
*I *3165:A I *D sky130_fd_sc_hd__clkbuf_2
*I *2647:X O *D sky130_fd_sc_hd__mux2_1
*CAP
1 *3165:A 0.000245644
2 *2647:X 0.00101469
3 *386:10 0.00126033
4 *3165:A *2767:B 0.000145019
5 *3165:A *489:10 0.00040381
6 *3165:A *753:12 4.13595e-05
7 *3165:A *870:18 0.000912531
8 *3165:A *889:56 4.18895e-05
9 *3165:A *889:62 0.000188586
10 *3165:A *955:59 0.000559261
11 *386:10 *2647:A0 0.000122159
12 *386:10 *2656:A0 0.00014285
13 *386:10 *3095:RESET_B 0.000144417
14 *386:10 *3226:A 0.000190682
15 *386:10 *885:115 0
16 *386:10 *885:126 0
17 *386:10 *949:57 0.000196814
18 *386:10 *955:24 0.000179656
19 *386:10 *955:26 0.000272672
20 *386:10 *955:28 0.000509472
21 *386:10 *955:30 0.000220964
22 *380:10 *386:10 0.00219782
*RES
1 *2647:X *386:10 45.5679 
2 *386:10 *3165:A 27.5143 
*END

*D_NET *387 0.0036979
*CONN
*I *3163:A I *D sky130_fd_sc_hd__buf_1
*I *3162:A I *D sky130_fd_sc_hd__clkbuf_2
*I *2648:X O *D sky130_fd_sc_hd__mux2_1
*CAP
1 *3163:A 0.000351455
2 *3162:A 0.000615336
3 *2648:X 0
4 *387:4 0.000966791
5 *3162:A *2648:A0 8.23597e-06
6 *3162:A *2648:S 0.000271395
7 *3162:A *570:18 1.87217e-05
8 *3162:A *813:26 2.21972e-05
9 *3162:A *867:16 0.000215102
10 *3162:A *867:18 8.17274e-05
11 *3162:A *867:28 0.000218679
12 *3162:A *895:71 5.52238e-05
13 *3163:A *2516:A 0.000106357
14 *3163:A *2631:A 0.00022459
15 *3163:A *2648:S 0.000169213
16 *3163:A *3136:A 9.54798e-06
17 *3163:A *867:6 7.48091e-05
18 *3163:A *962:60 0.000157673
19 *2508:B2 *3162:A 0.000130844
*RES
1 *2648:X *387:4 9.3 
2 *387:4 *3162:A 28.925 
3 *387:4 *3163:A 26.3179 
*END

*D_NET *388 0.00182594
*CONN
*I *3161:A I *D sky130_fd_sc_hd__clkbuf_2
*I *2649:X O *D sky130_fd_sc_hd__mux2_1
*CAP
1 *3161:A 0.000384837
2 *2649:X 0.000384837
3 *3161:A *2635:B 0.00012798
4 *3161:A *885:32 0
5 *3161:A *932:14 0.000548574
6 *3161:A *932:22 0.0001234
7 *2526:A1 *3161:A 0.000128154
8 *2548:A1 *3161:A 0.000128154
*RES
1 *2649:X *3161:A 39.2607 
*END

*D_NET *389 0.00693714
*CONN
*I *3159:A I *D sky130_fd_sc_hd__clkbuf_2
*I *2650:X O *D sky130_fd_sc_hd__mux2_1
*CAP
1 *3159:A 0.000185591
2 *2650:X 0.00110986
3 *389:10 0.00129545
4 *3159:A *3030:GATE_N 5.52302e-05
5 *3159:A *852:16 0.00022493
6 *3159:A *863:38 0.000876916
7 *3159:A *914:95 3.14163e-05
8 *389:10 *2476:A2 2.95746e-06
9 *389:10 *2476:B1 9.15621e-06
10 *389:10 *2476:C1 0
11 *389:10 *2486:B1 0
12 *389:10 *2553:B1 6.35303e-05
13 *389:10 *2830:D 0
14 *389:10 *829:100 0
15 *389:10 *878:16 0
16 *389:10 *881:57 0.00214949
17 *389:10 *884:57 6.21521e-06
18 *389:10 *894:50 0.000283981
19 *2476:A1 *389:10 0.000147325
20 *2484:B2 *389:10 0.000166788
21 *2563:A1 *389:10 4.15914e-05
22 *2563:B2 *389:10 1.46717e-05
23 *3173:A *389:10 0.000171213
24 *376:10 *389:10 0.000100823
*RES
1 *2650:X *389:10 48.7821 
2 *389:10 *3159:A 17.6393 
*END

*D_NET *390 0.00786012
*CONN
*I *3157:A I *D sky130_fd_sc_hd__clkbuf_2
*I *2651:X O *D sky130_fd_sc_hd__mux2_1
*CAP
1 *3157:A 0.00107097
2 *2651:X 0.000432965
3 *390:12 0.00150393
4 *3157:A *2560:B 6.09476e-05
5 *3157:A *2636:B 9.52291e-05
6 *3157:A *2918:GATE_N 0.000213988
7 *3157:A *2944:GATE_N 6.97152e-05
8 *3157:A *2954:GATE_N 0.000360816
9 *3157:A *3063:GATE_N 0.000555781
10 *3157:A *3079:GATE_N 2.27786e-05
11 *3157:A *805:148 0.000133491
12 *3157:A *807:119 0.000679131
13 *3157:A *807:121 0.000934391
14 *3157:A *827:48 0.000443874
15 *3157:A *827:52 0.000510193
16 *3157:A *874:20 0
17 *3157:A *874:44 0
18 *3157:A *914:157 3.34078e-05
19 *390:12 *2800:D 7.83366e-05
20 *390:12 *3031:GATE_N 0
21 *390:12 *3079:GATE_N 0.000138171
22 *390:12 *3174:A 0
23 *390:12 *3316:A 0
24 *390:12 *874:20 0
25 *390:12 *880:12 0.000100831
26 *390:12 *884:24 0.00010096
27 *2559:A1 *3157:A 0.000122689
28 *2561:B2 *3157:A 0.000122875
29 *2606:A1 *3157:A 2.89114e-05
30 *3294:A *390:12 4.57445e-05
*RES
1 *2651:X *390:12 22.0411 
2 *390:12 *3157:A 49.7375 
*END

*D_NET *391 0.00341936
*CONN
*I *3154:A I *D sky130_fd_sc_hd__clkbuf_2
*I *3155:A I *D sky130_fd_sc_hd__buf_1
*I *2652:X O *D sky130_fd_sc_hd__mux2_1
*CAP
1 *3154:A 0.0006259
2 *3155:A 0
3 *2652:X 0.000272916
4 *391:12 0.000898816
5 *3154:A *2452:B1 0.000101545
6 *3154:A *2460:A2 1.61294e-05
7 *3154:A *2550:A2 5.52302e-05
8 *3154:A *2550:B1 5.52238e-05
9 *3154:A *2551:C1 0.000245619
10 *3154:A *2639:B 8.06843e-05
11 *3154:A *3063:GATE_N 0.000151015
12 *3154:A *838:62 5.71472e-05
13 *3154:A *838:70 7.1703e-05
14 *3154:A *858:6 4.41355e-05
15 *3154:A *858:15 3.06878e-06
16 *3154:A *859:14 5.52238e-05
17 *3154:A *859:67 6.77597e-05
18 *3154:A *896:50 7.83659e-05
19 *391:12 *2639:A 1.49084e-05
20 *391:12 *2803:D 7.83659e-05
21 *391:12 *2830:GATE_N 0
22 *391:12 *881:79 0.000125746
23 *391:12 *1003:14 7.50697e-05
24 *391:12 *1055:16 9.90367e-05
25 *2551:A1 *3154:A 0.000145753
*RES
1 *2652:X *391:12 22.8357 
2 *391:12 *3155:A 9.3 
3 *391:12 *3154:A 31.425 
*END

*D_NET *392 0.00123226
*CONN
*I *2823:D I *D sky130_fd_sc_hd__dlxtn_1
*I *2448:X O *D sky130_fd_sc_hd__or2_1
*CAP
1 *2823:D 0.000257135
2 *2448:X 0.000257135
3 *2823:D *3178:A 8.89385e-05
4 *2823:D *882:52 0.00014101
5 *2823:D *885:8 9.98928e-05
6 *2823:D *885:14 0.000207379
7 *2445:A *2823:D 0.000180764
*RES
1 *2448:X *2823:D 33.4393 
*END

*D_NET *393 0.000828902
*CONN
*I *2807:D I *D sky130_fd_sc_hd__dlxtn_1
*I *2461:Y O *D sky130_fd_sc_hd__nor2_1
*CAP
1 *2807:D 0.000225504
2 *2461:Y 0.000225504
3 *2807:D *2461:B 7.49499e-05
4 PWDATA[2] *2807:D 0.000150611
5 rdata[10] *2807:D 0.000152333
*RES
1 *2461:Y *2807:D 31.725 
*END

*D_NET *394 0.000483973
*CONN
*I *2817:D I *D sky130_fd_sc_hd__dlxtn_1
*I *2571:Y O *D sky130_fd_sc_hd__nor2_1
*CAP
1 *2817:D 0.000193943
2 *2571:Y 0.000193943
3 *2817:D *2817:GATE_N 9.60875e-05
*RES
1 *2571:Y *2817:D 21.6179 
*END

*D_NET *395 0.000538083
*CONN
*I *2818:D I *D sky130_fd_sc_hd__dlxtn_1
*I *2582:Y O *D sky130_fd_sc_hd__nor2_1
*CAP
1 *2818:D 9.21832e-05
2 *2582:Y 9.21832e-05
3 *2818:D *2582:A 2.89114e-05
4 *2818:D *2816:D 0.00022459
5 *2818:D *842:32 9.41642e-05
6 *2818:D *886:54 6.05161e-06
*RES
1 *2582:Y *2818:D 21.2071 
*END

*D_NET *396 0.00057309
*CONN
*I *2819:D I *D sky130_fd_sc_hd__dlxtn_1
*I *2593:Y O *D sky130_fd_sc_hd__nor2_1
*CAP
1 *2819:D 0.000188123
2 *2593:Y 0.000188123
3 *2819:D *2593:A 5.52238e-05
4 *2819:D *2819:GATE_N 9.60875e-05
5 *2819:D *994:18 4.55324e-05
*RES
1 *2593:Y *2819:D 22.0286 
*END

*D_NET *397 0.00165085
*CONN
*I *2820:D I *D sky130_fd_sc_hd__dlxtn_1
*I *2604:Y O *D sky130_fd_sc_hd__nor2_1
*CAP
1 *2820:D 0.00043573
2 *2604:Y 0.00043573
3 *2820:D *2505:A 1.4966e-05
4 *2820:D *2505:B 1.92789e-05
5 *2820:D *2604:A 1.92905e-05
6 *2820:D *2604:B 5.30637e-06
7 *2820:D *2811:D 2.59355e-05
8 *2820:D *3140:A 0.000293415
9 *2820:D *842:12 6.97494e-05
10 *2820:D *843:10 0.000140361
11 *2820:D *843:12 0.000177948
12 *2820:D *887:28 1.3142e-05
*RES
1 *2604:Y *2820:D 36.4393 
*END

*D_NET *398 0.00067877
*CONN
*I *2821:D I *D sky130_fd_sc_hd__dlxtn_1
*I *2615:Y O *D sky130_fd_sc_hd__nor2_1
*CAP
1 *2821:D 0.000152595
2 *2615:Y 0.000152595
3 *2821:D *2815:D 5.91336e-05
4 *2821:D *2821:GATE_N 5.52302e-05
5 *2821:D *843:20 0.000125724
6 *2821:D *881:154 0.000127439
7 *2821:D *886:14 6.05161e-06
*RES
1 *2615:Y *2821:D 31.4214 
*END

*D_NET *399 0.00116706
*CONN
*I *2822:D I *D sky130_fd_sc_hd__dlxtn_1
*I *2626:Y O *D sky130_fd_sc_hd__nor2_1
*CAP
1 *2822:D 0.000343173
2 *2626:Y 0.000343173
3 *2822:D *2538:B 0.000136958
4 *2822:D *2814:D 6.05641e-05
5 *2822:D *2814:GATE_N 4.10274e-05
6 *2822:D *842:20 0.000151333
7 *2822:D *842:22 9.25014e-06
8 *2822:D *1057:14 8.15843e-05
*RES
1 *2626:Y *2822:D 34.3321 
*END

*D_NET *400 0.000555186
*CONN
*I *2808:D I *D sky130_fd_sc_hd__dlxtn_1
*I *2472:Y O *D sky130_fd_sc_hd__nor2_1
*CAP
1 *2808:D 0.000258186
2 *2472:Y 0.000258186
3 *2808:D *2808:GATE_N 3.88139e-05
*RES
1 *2472:Y *2808:D 22.4393 
*END

*D_NET *401 0.00124028
*CONN
*I *2809:D I *D sky130_fd_sc_hd__dlxtn_1
*I *2483:Y O *D sky130_fd_sc_hd__nor2_1
*CAP
1 *2809:D 0.000408034
2 *2483:Y 0.000408034
3 *2809:D *2461:A 5.52302e-05
4 *2809:D *2461:B 4.46186e-06
5 *2809:D *2483:A 5.33005e-05
6 *2809:D *3350:A 6.86693e-05
7 *2809:D *842:36 1.18064e-05
8 *2809:D *1041:10 0.000123288
9 PWDATA[0] *2809:D 2.27416e-05
10 rdata[0] *2809:D 3.14193e-05
11 rdata[14] *2809:D 5.33005e-05
*RES
1 *2483:Y *2809:D 34.3143 
*END

*D_NET *402 0.00102721
*CONN
*I *2810:D I *D sky130_fd_sc_hd__dlxtn_1
*I *2494:Y O *D sky130_fd_sc_hd__nor2_1
*CAP
1 *2810:D 0.00023779
2 *2494:Y 0.00023779
3 *2810:D *2494:A 1.58163e-05
4 *2810:D *2805:D 8.25843e-06
5 *2810:D *842:18 0.000342495
6 *2810:D *886:40 3.69047e-06
7 *2810:D *1041:10 0.000181368
*RES
1 *2494:Y *2810:D 33.3321 
*END

*D_NET *403 0.000779654
*CONN
*I *2811:D I *D sky130_fd_sc_hd__dlxtn_1
*I *2505:Y O *D sky130_fd_sc_hd__nor2_1
*CAP
1 *2811:D 0.000260517
2 *2505:Y 0.000260517
3 *2811:D *2505:A 2.89114e-05
4 *2811:D *2812:D 3.2006e-05
5 *2811:D *3140:A 0
6 *2811:D *3141:A 0.000142856
7 *2811:D *843:10 2.89114e-05
8 *2811:D *935:12 0
9 *2820:D *2811:D 2.59355e-05
*RES
1 *2505:Y *2811:D 32.7429 
*END

*D_NET *404 0.0019158
*CONN
*I *2812:D I *D sky130_fd_sc_hd__dlxtn_1
*I *2516:Y O *D sky130_fd_sc_hd__nor2_1
*CAP
1 *2812:D 0.000772724
2 *2516:Y 0.000772724
3 *2812:D *2648:S 5.52238e-05
4 *2812:D *2811:GATE_N 1.92905e-05
5 *2812:D *842:12 8.39e-05
6 *2812:D *843:12 0
7 *2812:D *843:14 0
8 *2812:D *935:12 0.000179933
9 *2811:D *2812:D 3.2006e-05
*RES
1 *2516:Y *2812:D 39.7786 
*END

*D_NET *405 0.00107776
*CONN
*I *2813:D I *D sky130_fd_sc_hd__dlxtn_1
*I *2527:Y O *D sky130_fd_sc_hd__nor2_1
*CAP
1 *2813:D 0.000311938
2 *2527:Y 0.000311938
3 *2813:D *2538:A 0.00012401
4 *2813:D *2633:A 5.52238e-05
5 *2813:D *2633:B 0.000123288
6 *2813:D *2649:A1 0.000139411
7 *2813:D *661:26 8.25843e-06
8 *2813:D *886:14 3.69047e-06
*RES
1 *2527:Y *2813:D 33.7429 
*END

*D_NET *406 0.000487181
*CONN
*I *2814:D I *D sky130_fd_sc_hd__dlxtn_1
*I *2538:Y O *D sky130_fd_sc_hd__nor2_1
*CAP
1 *2814:D 0.000165265
2 *2538:Y 0.000165265
3 *2814:D *2814:GATE_N 9.60875e-05
4 *2822:D *2814:D 6.05641e-05
*RES
1 *2538:Y *2814:D 21.6179 
*END

*D_NET *407 0.00118829
*CONN
*I *2815:D I *D sky130_fd_sc_hd__dlxtn_1
*I *2549:Y O *D sky130_fd_sc_hd__nor2_1
*CAP
1 *2815:D 0.000414341
2 *2549:Y 0.000414341
3 *2815:D *2549:A 1.92789e-05
4 *2815:D *2549:B 1.24368e-05
5 *2815:D *2821:GATE_N 2.89114e-05
6 *2815:D *842:18 0.000153047
7 *2815:D *886:14 5.20359e-06
8 *2815:D *1041:10 8.15939e-05
9 *2821:D *2815:D 5.91336e-05
*RES
1 *2549:Y *2815:D 33.7786 
*END

*D_NET *408 0.00109127
*CONN
*I *2816:D I *D sky130_fd_sc_hd__dlxtn_1
*I *2560:Y O *D sky130_fd_sc_hd__nor2_1
*CAP
1 *2816:D 0.000306088
2 *2560:Y 0.000306088
3 *2816:D *842:26 9.25014e-06
4 *2816:D *842:32 0.000126439
5 *2816:D *886:54 2.24079e-05
6 *2816:D *886:62 2.89114e-05
7 *2816:D *1057:14 6.74911e-05
8 *2818:D *2816:D 0.00022459
*RES
1 *2560:Y *2816:D 32.6536 
*END

*D_NET *409 0.00177071
*CONN
*I *2756:B I *D sky130_fd_sc_hd__and2_1
*I *2659:X O *D sky130_fd_sc_hd__mux2_1
*CAP
1 *2756:B 0.000514035
2 *2659:X 0.000514035
3 *2756:B *2659:S 0.000325918
4 *2756:B *2755:A1_N 0.000195128
5 *2756:B *739:10 3.69047e-06
6 *2756:B *982:52 0.000162684
7 *2756:B *1022:24 0
8 *2755:B2 *2756:B 5.52238e-05
*RES
1 *2659:X *2756:B 28.9393 
*END

*D_NET *410 0.00106956
*CONN
*I *2827:D I *D sky130_fd_sc_hd__dlxtn_1
*I *2660:X O *D sky130_fd_sc_hd__mux2_1
*CAP
1 *2827:D 0.000251181
2 *2660:X 0.000251181
3 *2827:D *2795:D 5.5782e-05
4 *2827:D *2825:GATE_N 2.82057e-05
5 *2827:D *2826:D 0.000153047
6 *2827:D *3328:A 0.000125613
7 *2827:D *431:10 0
8 *2827:D *970:26 0.00020455
*RES
1 *2660:X *2827:D 34.9393 
*END

*D_NET *411 0.000766875
*CONN
*I *2828:D I *D sky130_fd_sc_hd__dlxtn_1
*I *2661:X O *D sky130_fd_sc_hd__mux2_1
*CAP
1 *2828:D 0.000109684
2 *2661:X 0.000109684
3 *2828:D *2674:B 0.00018372
4 *2828:D *2828:GATE_N 5.33005e-05
5 *2828:D *433:10 3.17148e-05
6 *2828:D *433:16 0.000128154
7 *2828:D *887:22 0.000150618
*RES
1 *2661:X *2828:D 31.3143 
*END

*D_NET *412 0.001858
*CONN
*I *2825:D I *D sky130_fd_sc_hd__dlxtn_1
*I *2662:X O *D sky130_fd_sc_hd__mux2_1
*CAP
1 *2825:D 0.000505445
2 *2662:X 0.000505445
3 *2825:D *431:10 0.000723813
4 *2825:D *887:22 0
5 PSEL2 *2825:D 9.90431e-05
6 *2438:B *2825:D 2.42516e-05
*RES
1 *2662:X *2825:D 38.6 
*END

*D_NET *413 0.000761557
*CONN
*I *2826:D I *D sky130_fd_sc_hd__dlxtn_1
*I *2663:X O *D sky130_fd_sc_hd__mux2_1
*CAP
1 *2826:D 0.000196011
2 *2663:X 0.000196011
3 *2826:D *2825:GATE_N 9.23313e-05
4 *2826:D *2827:GATE_N 5.52302e-05
5 *2826:D *431:10 2.37761e-05
6 *2826:D *433:16 4.51495e-05
7 *2827:D *2826:D 0.000153047
*RES
1 *2663:X *2826:D 32.1357 
*END

*D_NET *414 0.00047528
*CONN
*I *2791:D I *D sky130_fd_sc_hd__dlxtn_1
*I *2627:Y O *D sky130_fd_sc_hd__nor2_1
*CAP
1 *2791:D 0.000105344
2 *2627:Y 0.000105344
3 *2791:D *2461:B 0.000223564
4 *2791:D *2627:B 2.89016e-05
5 *2791:D *2791:GATE_N 1.21258e-05
*RES
1 *2627:Y *2791:D 21.2071 
*END

*D_NET *415 0.000599585
*CONN
*I *2801:D I *D sky130_fd_sc_hd__dlxtn_1
*I *2637:Y O *D sky130_fd_sc_hd__nor2_1
*CAP
1 *2801:D 0.000184379
2 *2637:Y 0.000184379
3 *2801:D *2801:GATE_N 0.00010096
4 *2801:D *426:10 0.000129868
5 *2801:D *886:50 0
*RES
1 *2637:Y *2801:D 31.4214 
*END

*D_NET *416 0.00125148
*CONN
*I *2802:D I *D sky130_fd_sc_hd__dlxtn_1
*I *2638:Y O *D sky130_fd_sc_hd__nor2_1
*CAP
1 *2802:D 0.000337092
2 *2638:Y 0.000337092
3 *2802:D *2461:B 4.37397e-05
4 *2802:D *2638:A 6.56118e-05
5 *2802:D *2807:GATE_N 9.90367e-05
6 *2802:D *1054:28 1.5424e-05
7 PWDATA[0] *2802:D 0.000110527
8 PWDATA[5] *2802:D 6.8646e-06
9 rdata[3] *2802:D 0.000236086
*RES
1 *2638:Y *2802:D 35.2607 
*END

*D_NET *417 0.00065851
*CONN
*I *2803:D I *D sky130_fd_sc_hd__dlxtn_1
*I *2639:Y O *D sky130_fd_sc_hd__nor2_1
*CAP
1 *2803:D 0.000140757
2 *2639:Y 0.000140757
3 *2803:D *2830:GATE_N 4.94455e-05
4 *2803:D *874:20 0.000125057
5 *2803:D *881:79 0.000100351
6 *2803:D *1003:14 2.37761e-05
7 *391:12 *2803:D 7.83659e-05
*RES
1 *2639:Y *2803:D 31.725 
*END

*D_NET *418 0.00103391
*CONN
*I *2804:D I *D sky130_fd_sc_hd__dlxtn_1
*I *2640:Y O *D sky130_fd_sc_hd__nor2_1
*CAP
1 *2804:D 0.000493635
2 *2640:Y 0.000493635
3 *2804:D *2507:C1 0
4 *2804:D *2515:B1 4.0342e-06
5 *2804:D *2796:D 0
6 *2804:D *3105:A 0
7 *2804:D *509:8 0
8 *2804:D *571:10 4.26069e-05
9 *2804:D *889:26 0
10 *2804:D *889:56 0
*RES
1 *2640:Y *2804:D 34.5643 
*END

*D_NET *419 0.000718476
*CONN
*I *2805:D I *D sky130_fd_sc_hd__dlxtn_1
*I *2641:Y O *D sky130_fd_sc_hd__nor2_1
*CAP
1 *2805:D 0.000146865
2 *2641:Y 0.000146865
3 *2805:D *2494:A 4.18895e-05
4 *2805:D *842:18 9.56968e-05
5 *2805:D *886:40 0.00010096
6 *2805:D *1041:10 0.000177941
7 *2810:D *2805:D 8.25843e-06
*RES
1 *2641:Y *2805:D 31.6179 
*END

*D_NET *420 0.000227131
*CONN
*I *2806:D I *D sky130_fd_sc_hd__dlxtn_1
*I *2642:Y O *D sky130_fd_sc_hd__nor2_1
*CAP
1 *2806:D 8.45548e-05
2 *2642:Y 8.45548e-05
3 *2806:D *2473:B1 0
4 *2806:D *884:16 5.80217e-05
*RES
1 *2642:Y *2806:D 29.5464 
*END

*D_NET *421 0.000652336
*CONN
*I *2792:D I *D sky130_fd_sc_hd__dlxtn_1
*I *2628:Y O *D sky130_fd_sc_hd__nor2_1
*CAP
1 *2792:D 0.000197436
2 *2628:Y 0.000197436
3 *2792:D *2628:A 7.32272e-05
4 *2792:D *3188:A 6.09476e-05
5 *2792:D *881:39 0.000113038
6 *2792:D *881:55 1.02504e-05
*RES
1 *2628:Y *2792:D 31.0107 
*END

*D_NET *422 0.000493604
*CONN
*I *2793:D I *D sky130_fd_sc_hd__dlxtn_1
*I *2629:Y O *D sky130_fd_sc_hd__nor2_1
*CAP
1 *2793:D 0.00010031
2 *2629:Y 0.00010031
3 *2793:D *2658:A0 0.000117457
4 *2793:D *880:32 5.33005e-05
5 *2793:D *884:16 0.000122226
*RES
1 *2629:Y *2793:D 29.7786 
*END

*D_NET *423 0.00053608
*CONN
*I *2794:D I *D sky130_fd_sc_hd__dlxtn_1
*I *2630:Y O *D sky130_fd_sc_hd__nor2_1
*CAP
1 *2794:D 0.000174973
2 *2630:Y 0.000174973
3 *2794:D *2593:B 2.79421e-05
4 *2794:D *426:10 1.3142e-05
5 *2794:D *551:40 0.000101545
6 *2794:D *886:46 4.35048e-05
*RES
1 *2630:Y *2794:D 30.725 
*END

*D_NET *424 0.000708052
*CONN
*I *2795:D I *D sky130_fd_sc_hd__dlxtn_1
*I *2631:Y O *D sky130_fd_sc_hd__nor2_1
*CAP
1 *2795:D 0.000249612
2 *2631:Y 0.000249612
3 *2795:D *431:10 0.000153047
4 *2827:D *2795:D 5.5782e-05
*RES
1 *2631:Y *2795:D 31.725 
*END

*D_NET *425 0.00172676
*CONN
*I *2796:D I *D sky130_fd_sc_hd__dlxtn_1
*I *2632:Y O *D sky130_fd_sc_hd__nor2_1
*CAP
1 *2796:D 0.000598134
2 *2632:Y 0.000598134
3 *2796:D *2516:A 0
4 *2796:D *2804:GATE_N 1.04232e-05
5 *2796:D *881:131 0.00037833
6 *2796:D *881:144 0.000141743
7 *2804:D *2796:D 0
*RES
1 *2632:Y *2796:D 38.3857 
*END

*D_NET *426 0.00596237
*CONN
*I *2797:D I *D sky130_fd_sc_hd__dlxtn_1
*I *2633:Y O *D sky130_fd_sc_hd__nor2_1
*CAP
1 *2797:D 0
2 *2633:Y 0.00106322
3 *426:10 0.00106322
4 *426:10 *2461:A 0.000125724
5 *426:10 *2494:B 0.00100188
6 *426:10 *2538:A 5.90443e-06
7 *426:10 *2633:A 6.39901e-05
8 *426:10 *2633:B 5.83233e-05
9 *426:10 *2638:B 0
10 *426:10 *2649:A1 5.33005e-05
11 *426:10 *2794:GATE_N 0.000390575
12 *426:10 *3329:A 7.40992e-05
13 *426:10 *551:40 0.000150625
14 *426:10 *880:86 0.000247771
15 *426:10 *880:99 0.000725987
16 *426:10 *885:36 0.000423235
17 *426:10 *886:46 0
18 *426:10 *886:50 0
19 *426:10 *886:62 0.000114128
20 *426:10 *888:19 6.98669e-05
21 *426:10 *888:21 7.67315e-05
22 *426:10 *888:34 0.000100735
23 *2794:D *426:10 1.3142e-05
24 *2801:D *426:10 0.000129868
25 *77:20 *426:10 1.00375e-05
*RES
1 *2633:Y *426:10 49.0679 
2 *426:10 *2797:D 13.8 
*END

*D_NET *427 0.00417122
*CONN
*I *2798:D I *D sky130_fd_sc_hd__dlxtn_1
*I *2634:Y O *D sky130_fd_sc_hd__nor2_1
*CAP
1 *2798:D 0
2 *2634:Y 0.000646209
3 *427:10 0.000646209
4 *427:10 *2482:A2 0.000829552
5 *427:10 *2482:B1 0.000100823
6 *427:10 *2482:B2 9.23805e-05
7 *427:10 *2593:B 2.11419e-05
8 *427:10 *2629:B 0.000193191
9 *427:10 *2649:A0 0.00119396
10 *427:10 *3313:A 0.000119574
11 *427:10 *880:62 0
12 *427:10 *888:21 7.87026e-05
13 *427:10 *888:34 6.57431e-05
14 *427:10 *888:36 0.000138774
15 *427:10 *888:42 1.87955e-05
16 *427:10 *1013:12 2.61707e-05
*RES
1 *2634:Y *427:10 42.1036 
2 *427:10 *2798:D 9.3 
*END

*D_NET *428 0.00500267
*CONN
*I *2799:D I *D sky130_fd_sc_hd__dlxtn_1
*I *2635:Y O *D sky130_fd_sc_hd__nor2_1
*CAP
1 *2799:D 0
2 *2635:Y 0.00105275
3 *428:16 0.00105275
4 *428:16 *2474:B1 0.000149421
5 *428:16 *2641:A 0.000142856
6 *428:16 *2642:B 0.001395
7 *428:16 *2649:A0 1.51216e-05
8 *428:16 *620:18 0.000187624
9 *428:16 *932:22 0.00033186
10 *428:16 *932:119 6.60111e-05
11 *428:16 *932:134 0.000364787
12 *428:16 *1013:12 0.000124951
13 *2570:A1 *428:16 0.000119124
14 *382:10 *428:16 4.06087e-07
*RES
1 *2635:Y *428:16 48.9786 
2 *428:16 *2799:D 9.3 
*END

*D_NET *429 0.000369518
*CONN
*I *2800:D I *D sky130_fd_sc_hd__dlxtn_1
*I *2636:Y O *D sky130_fd_sc_hd__nor2_1
*CAP
1 *2800:D 0.000135946
2 *2636:Y 0.000135946
3 *2800:D *2636:B 1.92905e-05
4 *2800:D *874:20 0
5 *390:12 *2800:D 7.83366e-05
*RES
1 *2636:Y *2800:D 30.0821 
*END

*D_NET *430 0.00106503
*CONN
*I *3175:A I *D sky130_fd_sc_hd__buf_2
*I *2666:X O *D sky130_fd_sc_hd__mux2_1
*CAP
1 *3175:A 0.000264607
2 *2666:X 0.000264607
3 *3175:A *2764:D 0.000339453
4 *3175:A *510:38 5.15925e-05
5 *3175:A *672:84 0.000144773
6 *3175:A *751:16 0
7 *3175:A *889:75 0
*RES
1 *2666:X *3175:A 33.3321 
*END

*D_NET *431 0.00582825
*CONN
*I *3141:A I *D sky130_fd_sc_hd__buf_1
*I *3140:A I *D sky130_fd_sc_hd__clkbuf_2
*I *2671:X O *D sky130_fd_sc_hd__o31a_1
*CAP
1 *3141:A 5.59217e-05
2 *3140:A 0.000217518
3 *2671:X 0.00102878
4 *431:10 0.00130222
5 *3140:A *881:154 2.59355e-05
6 *3140:A *887:28 0.000330048
7 *431:10 *2438:A 8.359e-05
8 *431:10 *2505:B 0
9 *431:10 *2676:B 2.77143e-05
10 *431:10 *2825:GATE_N 6.74815e-05
11 *431:10 *3178:A 0
12 *431:10 *3328:A 0
13 *431:10 *433:10 0.0001399
14 *431:10 *507:26 9.71197e-05
15 *431:10 *887:22 0
16 *431:10 *970:26 0
17 *431:10 *982:8 0.000567277
18 *431:10 *988:14 0.000547828
19 *2795:D *431:10 0.000153047
20 *2811:D *3140:A 0
21 *2811:D *3141:A 0.000142856
22 *2820:D *3140:A 0.000293415
23 *2825:D *431:10 0.000723813
24 *2826:D *431:10 2.37761e-05
25 *2827:D *431:10 0
*RES
1 *2671:X *431:10 39.0321 
2 *431:10 *3140:A 20.0857 
3 *431:10 *3141:A 15.1571 
*END

*D_NET *432 0.000767805
*CONN
*I *2823:GATE_N I *D sky130_fd_sc_hd__dlxtn_1
*I *2824:GATE_N I *D sky130_fd_sc_hd__dlxtn_1
*I *2673:X O *D sky130_fd_sc_hd__and2_1
*CAP
1 *2823:GATE_N 7.68948e-05
2 *2824:GATE_N 9.80169e-05
3 *2673:X 4.88265e-05
4 *432:6 0.000223738
5 *2823:GATE_N *2672:B 1.39726e-05
6 *2823:GATE_N *2673:B 0
7 *2823:GATE_N *677:6 1.33343e-05
8 *2824:GATE_N *2439:B 0.000127439
9 *2824:GATE_N *1050:25 6.65398e-05
10 *432:6 *677:6 9.90431e-05
*RES
1 *2673:X *432:6 10.2464 
2 *432:6 *2824:GATE_N 20.3714 
3 *432:6 *2823:GATE_N 10.675 
*END

*D_NET *433 0.00357014
*CONN
*I *2828:GATE_N I *D sky130_fd_sc_hd__dlxtn_1
*I *2825:GATE_N I *D sky130_fd_sc_hd__dlxtn_1
*I *2827:GATE_N I *D sky130_fd_sc_hd__dlxtn_1
*I *2826:GATE_N I *D sky130_fd_sc_hd__dlxtn_1
*I *2676:X O *D sky130_fd_sc_hd__and2_1
*CAP
1 *2828:GATE_N 5.55915e-05
2 *2825:GATE_N 0.000108966
3 *2827:GATE_N 1.01807e-05
4 *2826:GATE_N 0
5 *2676:X 0.000274025
6 *433:18 4.84224e-05
7 *433:16 0.000526984
8 *433:10 0.000709393
9 *2828:GATE_N *2674:B 2.6269e-05
10 *433:10 *2438:A 0
11 *433:10 *3178:A 9.91086e-05
12 *433:10 *3326:A 1.59689e-05
13 *433:10 *885:26 0.00032495
14 *433:10 *887:22 5.74562e-05
15 *433:16 *881:144 0.000117175
16 *433:16 *885:26 0.000443792
17 *433:16 *887:22 0.000110386
18 *2826:D *2825:GATE_N 9.23313e-05
19 *2826:D *2827:GATE_N 5.52302e-05
20 *2826:D *433:16 4.51495e-05
21 *2827:D *2825:GATE_N 2.82057e-05
22 *2828:D *2828:GATE_N 5.33005e-05
23 *2828:D *433:10 3.17148e-05
24 *2828:D *433:16 0.000128154
25 *431:10 *2825:GATE_N 6.74815e-05
26 *431:10 *433:10 0.0001399
*RES
1 *2676:X *433:10 19.5321 
2 *433:10 *433:16 13.0893 
3 *433:16 *433:18 0.732143 
4 *433:18 *2826:GATE_N 9.3 
5 *433:18 *2827:GATE_N 9.83571 
6 *433:16 *2825:GATE_N 20.8893 
7 *433:10 *2828:GATE_N 14.7464 
*END

*D_NET *434 0.000421782
*CONN
*I *2829:GATE_N I *D sky130_fd_sc_hd__dlxtn_1
*I *2678:X O *D sky130_fd_sc_hd__or2_1
*CAP
1 *2829:GATE_N 9.10485e-05
2 *2678:X 9.10485e-05
3 *2829:GATE_N *2764:A 0.000125243
4 *2829:GATE_N *885:115 5.52238e-05
5 *2829:GATE_N *887:105 5.92181e-05
*RES
1 *2678:X *2829:GATE_N 29.7786 
*END

*D_NET *435 0.01396
*CONN
*I *3136:A I *D sky130_fd_sc_hd__buf_2
*I *3137:A I *D sky130_fd_sc_hd__dlymetal6s2s_1
*I *2395:Y O *D sky130_fd_sc_hd__nand2_1
*CAP
1 *3136:A 0.00143825
2 *3137:A 4.98045e-05
3 *2395:Y 0.00159246
4 *435:12 0.00308052
5 *3136:A *2498:A2 7.20694e-06
6 *3136:A *2516:A 0
7 *3136:A *561:14 0.00152943
8 *3136:A *651:26 0.00252277
9 *3136:A *828:18 0.000639498
10 *3136:A *889:26 1.8995e-06
11 *3136:A *919:35 1.91404e-05
12 *3136:A *919:49 9.45773e-05
13 *3136:A *962:60 3.22304e-05
14 *3136:A *962:73 6.57603e-05
15 *3137:A *2503:C 0.000109369
16 *3137:A *881:39 0.000109369
17 *435:12 *2911:GATE_N 0.000887395
18 *435:12 *3083:GATE_N 0.000179241
19 *435:12 *3205:A 0
20 *435:12 *490:14 0
21 *435:12 *651:26 0.000127464
22 *435:12 *828:18 0.00115747
23 *435:12 *840:44 0.000141171
24 *435:12 *849:87 2.82312e-05
25 *435:12 *920:26 4.88232e-05
26 *435:12 *925:33 0
27 *435:12 *925:133 0
28 *435:12 *937:12 8.83075e-05
29 *3163:A *3136:A 9.54798e-06
30 *383:10 *435:12 0
*RES
1 *2395:Y *435:12 24.3584 
2 *435:12 *3137:A 18.7011 
3 *435:12 *3136:A 23.8495 
*END

*D_NET *436 0.00688747
*CONN
*I *3135:A I *D sky130_fd_sc_hd__clkbuf_2
*I *3134:A I *D sky130_fd_sc_hd__buf_2
*I *2397:Y O *D sky130_fd_sc_hd__nand2_1
*CAP
1 *3135:A 0.000375729
2 *3134:A 0.00104486
3 *2397:Y 0.000218311
4 *436:8 0.0016389
5 *3134:A *2514:A 2.06112e-05
6 *3134:A *2522:C1 0
7 *3134:A *2524:A2 3.55942e-05
8 *3134:A *2524:C1 0
9 *3134:A *2525:C 0
10 *3134:A *2860:GATE_N 0.000284549
11 *3134:A *2877:GATE_N 5.97719e-05
12 *3134:A *3021:GATE_N 0.000314472
13 *3134:A *3120:A 0
14 *3134:A *814:12 0.000338153
15 *3134:A *814:37 3.52339e-05
16 *3134:A *816:18 1.74352e-05
17 *3134:A *834:8 5.63396e-05
18 *3134:A *836:152 5.52238e-05
19 *3134:A *861:18 0
20 *3134:A *905:47 0.000270635
21 *3134:A *906:93 6.21846e-05
22 *3134:A *922:87 0.000665882
23 *3135:A *2415:B 0.000195547
24 *3135:A *2501:C1 0
25 *3135:A *2512:B1 0.000402784
26 *3135:A *837:27 0.000156926
27 *3135:A *837:31 0
28 *3135:A *905:47 6.98302e-05
29 *3135:A *929:18 0.000197673
30 *436:8 *929:26 9.90431e-05
31 *436:8 *929:48 5.95953e-05
32 *436:8 *929:58 2.89114e-05
33 *2510:A1 *3134:A 3.09334e-05
34 *2620:B2 *3134:A 0.000152333
*RES
1 *2397:Y *436:8 16.8 
2 *436:8 *3134:A 38.3714 
3 *436:8 *3135:A 24.175 
*END

*D_NET *437 0.0109856
*CONN
*I *3133:A I *D sky130_fd_sc_hd__clkbuf_2
*I *3132:A I *D sky130_fd_sc_hd__buf_2
*I *2399:Y O *D sky130_fd_sc_hd__nand2_1
*CAP
1 *3133:A 0
2 *3132:A 0.000955422
3 *2399:Y 0.00336551
4 *437:26 0.00432093
5 *3132:A *2521:B1 0.000617525
6 *3132:A *2542:A2 2.91887e-05
7 *3132:A *2544:B1 0.000147741
8 *3132:A *2545:C 2.30116e-06
9 *3132:A *2609:B1 0
10 *3132:A *2852:GATE_N 5.46298e-05
11 *3132:A *2988:GATE_N 0
12 *3132:A *3116:A 0
13 *3132:A *814:45 6.53769e-05
14 *3132:A *816:8 0
15 *3132:A *833:12 0.000102207
16 *3132:A *837:56 0.000183713
17 *3132:A *837:83 8.17274e-05
18 *3132:A *844:28 0.000225609
19 *3132:A *851:53 2.42516e-05
20 *3132:A *904:16 0
21 *3132:A *907:56 0
22 *3132:A *922:68 5.74499e-06
23 *3132:A *928:33 6.89665e-05
24 *3132:A *928:39 0.000379288
25 *437:26 *2399:B 2.06178e-05
26 *437:26 *2524:A2 4.51691e-05
27 *437:26 *3357:A 1.20192e-05
28 *437:26 *837:31 0.000144279
29 *2543:A1 *3132:A 0.000100831
30 *2622:B2 *3132:A 3.25247e-05
*RES
1 *2399:Y *437:26 38.0549 
2 *437:26 *3132:A 41.5857 
3 *437:26 *3133:A 9.3 
*END

*D_NET *438 0.0089083
*CONN
*I *3131:A I *D sky130_fd_sc_hd__dlymetal6s2s_1
*I *3130:A I *D sky130_fd_sc_hd__buf_2
*I *2401:Y O *D sky130_fd_sc_hd__nand2_1
*CAP
1 *3131:A 0.000745994
2 *3130:A 0.00111578
3 *2401:Y 0
4 *438:6 0.00186177
5 *3130:A *2621:A2 5.47661e-05
6 *3130:A *2624:B 0.000858208
7 *3130:A *2959:GATE_N 0.000262504
8 *3130:A *3007:GATE_N 0.000361456
9 *3130:A *3120:A 0.000357313
10 *3130:A *875:12 0.000215096
11 *3130:A *875:14 0.00101129
12 *3130:A *875:24 5.71472e-05
13 *3130:A *875:103 4.38128e-05
14 *3130:A *875:122 0.000283452
15 *3130:A *925:72 0.000569622
16 *3130:A *925:86 5.62412e-05
17 *3131:A *3007:GATE_N 9.20924e-05
18 *3131:A *3120:A 0.000373216
19 *3131:A *832:25 4.62969e-05
20 *3131:A *837:31 0.000136684
21 *3131:A *909:60 1.24368e-05
22 *3131:A *909:66 0.0002644
23 *2621:A1 *3130:A 0.000115833
24 *2621:B2 *3130:A 1.28809e-05
*RES
1 *2401:Y *438:6 13.8 
2 *438:6 *3130:A 44.4964 
3 *438:6 *3131:A 26.2107 
*END

*D_NET *439 0.0043059
*CONN
*I *3128:A I *D sky130_fd_sc_hd__buf_2
*I *3129:A I *D sky130_fd_sc_hd__clkbuf_2
*I *2403:Y O *D sky130_fd_sc_hd__nand2_1
*CAP
1 *3128:A 0.000243052
2 *3129:A 0.000714343
3 *2403:Y 3.37243e-05
4 *439:8 0.000991119
5 *3128:A *2419:B 0.000148165
6 *3128:A *485:12 0.00014499
7 *3128:A *812:10 4.6025e-06
8 *3128:A *812:28 9.60337e-06
9 *3128:A *826:10 9.90431e-05
10 *3128:A *869:29 4.49722e-05
11 *3128:A *919:29 0
12 *3129:A *2496:A2 0.000234241
13 *3129:A *2503:C 0
14 *3129:A *2504:B1 0.000233426
15 *3129:A *3122:A 4.56383e-05
16 *3129:A *3214:A 2.22043e-05
17 *3129:A *485:12 7.35637e-05
18 *3129:A *810:106 0.000212151
19 *3129:A *826:12 0
20 *3129:A *830:6 7.54273e-05
21 *3129:A *869:29 8.60539e-05
22 *3129:A *869:33 0.000122936
23 *3129:A *912:43 0.000227117
24 *3129:A *918:147 0.000144478
25 *3129:A *933:18 5.21611e-05
26 *439:8 *2403:A 9.66977e-05
27 *439:8 *2504:B1 0.000139485
28 *439:8 *477:26 1.15172e-05
29 *2496:A1 *3129:A 9.51899e-05
*RES
1 *2403:Y *439:8 15.1571 
2 *439:8 *3129:A 30.675 
3 *439:8 *3128:A 19.5679 
*END

*D_NET *440 0.00727068
*CONN
*I *3127:A I *D sky130_fd_sc_hd__clkbuf_2
*I *3126:A I *D sky130_fd_sc_hd__buf_2
*I *2405:Y O *D sky130_fd_sc_hd__nand2_1
*CAP
1 *3127:A 0.000831247
2 *3126:A 0.00104744
3 *2405:Y 3.92213e-05
4 *440:8 0.00191791
5 *3126:A *2423:A 1.61225e-05
6 *3126:A *2509:B1 0.000264748
7 *3126:A *2514:A 2.06178e-05
8 *3126:A *2605:B1 0
9 *3126:A *2624:A 6.19957e-05
10 *3126:A *2639:A 1.90936e-05
11 *3126:A *2844:D 0
12 *3126:A *2844:GATE_N 2.40261e-05
13 *3126:A *2922:GATE_N 0
14 *3126:A *2924:D 0.000333197
15 *3126:A *2924:GATE_N 0
16 *3126:A *3036:GATE_N 0
17 *3126:A *448:28 0.000397248
18 *3126:A *808:54 6.53083e-05
19 *3126:A *896:12 0
20 *3126:A *896:33 5.83233e-05
21 *3126:A *897:45 0.000787169
22 *3126:A *915:54 2.04825e-05
23 *3126:A *915:81 0.00028817
24 *3126:A *919:49 5.06969e-05
25 *3126:A *962:16 8.04387e-05
26 *3127:A *2423:A 4.22135e-06
27 *3127:A *2498:A2 4.73953e-05
28 *3127:A *2503:B 0.000178569
29 *3127:A *2930:GATE_N 1.98839e-05
30 *3127:A *3042:D 3.47319e-05
31 *3127:A *3111:A 7.47029e-06
32 *3127:A *3214:A 0
33 *3127:A *448:28 2.8266e-06
34 *3127:A *651:26 1.13786e-05
35 *3127:A *806:14 4.65519e-05
36 *3127:A *808:54 8.79924e-05
37 *3127:A *828:60 3.76274e-05
38 *3127:A *840:10 3.47641e-06
39 *3127:A *869:106 0.000140159
40 *3127:A *893:59 5.4528e-05
41 *440:8 *895:63 5.52302e-05
42 *2605:B2 *3126:A 0.000114369
43 *2619:A1 *3126:A 0.000100823
*RES
1 *2405:Y *440:8 14.3357 
2 *440:8 *3126:A 40.6929 
3 *440:8 *3127:A 32.7547 
*END

*D_NET *441 0.00748482
*CONN
*I *3124:A I *D sky130_fd_sc_hd__buf_2
*I *3125:A I *D sky130_fd_sc_hd__clkbuf_2
*I *2407:Y O *D sky130_fd_sc_hd__nand2_1
*CAP
1 *3124:A 0
2 *3125:A 0.000499306
3 *2407:Y 0.000143145
4 *441:31 0.00168508
5 *441:10 0.00232753
6 *3125:A *2419:B 9.68236e-05
7 *3125:A *3112:A 0
8 *3125:A *3113:A 0
9 *441:10 *2407:B 5.33005e-05
10 *441:10 *2419:A 7.3296e-05
11 *441:10 *828:60 1.56e-05
12 *441:31 *2497:B1 1.72079e-05
13 *441:31 *2498:C1 0.000123852
14 *441:31 *2606:B1 0
15 *441:31 *3060:GATE_N 0
16 *441:31 *3112:A 3.68166e-05
17 *441:31 *808:22 0
18 *441:31 *811:10 0.000120072
19 *441:31 *811:20 0.0010177
20 *441:31 *828:60 8.37135e-05
21 *441:31 *914:157 0
22 *441:31 *915:48 0
23 *441:31 *917:73 0.000346681
24 *441:31 *917:79 0.000574214
25 *2498:A1 *441:10 0.000270487
26 *2498:A1 *441:31 0
27 *2606:A1 *441:31 0
*RES
1 *2407:Y *441:10 13.2643 
2 *441:10 *3125:A 26.1214 
3 *441:10 *441:31 45.3036 
4 *441:31 *3124:A 9.3 
*END

*D_NET *442 0.00538998
*CONN
*I *3123:A I *D sky130_fd_sc_hd__clkbuf_2
*I *3122:A I *D sky130_fd_sc_hd__buf_2
*I *2409:Y O *D sky130_fd_sc_hd__nand2_1
*CAP
1 *3123:A 0.000169105
2 *3122:A 0.0015648
3 *2409:Y 0
4 *442:4 0.00173391
5 *3122:A *2409:A 8.94881e-05
6 *3122:A *2423:A 5.07501e-05
7 *3122:A *2464:C1 0.000120348
8 *3122:A *2509:B1 0.000175892
9 *3122:A *812:36 0
10 *3122:A *826:12 0
11 *3122:A *826:16 0
12 *3122:A *895:71 9.58181e-05
13 *3122:A *918:147 0.000628677
14 *3123:A *2409:A 1.32056e-05
15 *3123:A *823:8 0.000138476
16 *3123:A *895:71 0.000549828
17 *2509:B2 *3122:A 1.40399e-05
18 *3129:A *3122:A 4.56383e-05
*RES
1 *2409:Y *442:4 9.3 
2 *442:4 *3122:A 43.9964 
3 *442:4 *3123:A 14.7643 
*END

*D_NET *443 0.00637828
*CONN
*I *3121:A I *D sky130_fd_sc_hd__dlymetal6s2s_1
*I *3120:A I *D sky130_fd_sc_hd__buf_2
*I *2411:Y O *D sky130_fd_sc_hd__nand2_1
*CAP
1 *3121:A 0.000336774
2 *3120:A 0.000997802
3 *2411:Y 0
4 *443:4 0.00133458
5 *3120:A *2524:A2 0
6 *3120:A *2860:GATE_N 8.85597e-05
7 *3120:A *2966:D 9.90367e-05
8 *3120:A *2966:GATE_N 3.18676e-05
9 *3120:A *3007:GATE_N 6.52428e-05
10 *3120:A *814:12 0
11 *3120:A *834:44 7.55804e-05
12 *3120:A *837:31 4.43698e-05
13 *3120:A *904:16 0.00158052
14 *3121:A *2399:A 1.11546e-05
15 *3121:A *2413:B 0.000134127
16 *3121:A *3115:A 0.000103116
17 *3121:A *3118:A 0.000193125
18 *3121:A *840:59 7.90803e-05
19 *3121:A *840:87 0.000146474
20 *3121:A *840:103 4.00025e-05
21 *3121:A *903:91 5.52238e-05
22 *3121:A *907:14 5.52238e-05
23 *3121:A *909:60 0.000175892
24 *3130:A *3120:A 0.000357313
25 *3131:A *3120:A 0.000373216
26 *3134:A *3120:A 0
*RES
1 *2411:Y *443:4 9.3 
2 *443:4 *3120:A 44.1393 
3 *443:4 *3121:A 26.1929 
*END

*D_NET *444 0.00755286
*CONN
*I *3119:A I *D sky130_fd_sc_hd__dlymetal6s2s_1
*I *3118:A I *D sky130_fd_sc_hd__buf_2
*I *2413:Y O *D sky130_fd_sc_hd__nand2_1
*CAP
1 *3119:A 0.000553307
2 *3118:A 0.00165759
3 *2413:Y 0
4 *444:4 0.0022109
5 *3118:A *2401:A 0.000177821
6 *3118:A *2401:B 0.000241545
7 *3118:A *2511:C1 2.40767e-05
8 *3118:A *2513:A2 5.74499e-06
9 *3118:A *2514:C 1.98839e-05
10 *3118:A *2522:A2 5.52302e-05
11 *3118:A *2883:GATE_N 3.75109e-05
12 *3118:A *2991:GATE_N 9.88232e-05
13 *3118:A *3007:GATE_N 3.82242e-05
14 *3118:A *840:59 2.8046e-05
15 *3118:A *840:103 0.000121573
16 *3118:A *907:48 0.000290129
17 *3118:A *909:30 8.00382e-05
18 *3118:A *922:87 3.17016e-05
19 *3118:A *925:86 0.000339745
20 *3119:A *2413:B 3.07911e-06
21 *3119:A *2599:A2 0.000240484
22 *3119:A *3116:A 0.000126439
23 *3119:A *3117:A 0.000305922
24 *3119:A *445:8 8.27238e-06
25 *3119:A *817:24 3.34687e-05
26 *3119:A *819:23 3.6572e-05
27 *3119:A *821:10 0.000243627
28 *3119:A *907:12 7.13346e-05
29 *3119:A *909:26 0.000266479
30 *2511:B2 *3118:A 7.70134e-06
31 *2513:A1 *3118:A 4.45768e-06
32 *3121:A *3118:A 0.000193125
*RES
1 *2413:Y *444:4 9.3 
2 *444:4 *3118:A 44.8893 
3 *444:4 *3119:A 30.1393 
*END

*D_NET *445 0.00625304
*CONN
*I *3117:A I *D sky130_fd_sc_hd__dlymetal6s2s_1
*I *3116:A I *D sky130_fd_sc_hd__buf_2
*I *2415:Y O *D sky130_fd_sc_hd__nand2_1
*CAP
1 *3117:A 0.000138488
2 *3116:A 0.000756669
3 *2415:Y 0.000535799
4 *445:8 0.00143096
5 *3116:A *2521:B1 0.000265243
6 *3116:A *2988:D 0
7 *3116:A *2988:GATE_N 0.000701809
8 *3116:A *819:23 0.000337323
9 *3116:A *821:10 0.00036332
10 *3116:A *832:37 0.000153964
11 *3116:A *847:57 0
12 *3116:A *903:28 0.000507976
13 *3117:A *2599:A2 2.14757e-05
14 *3117:A *817:24 8.673e-05
15 *3117:A *819:23 0.000147346
16 *3117:A *850:57 9.41642e-05
17 *445:8 *2413:B 3.45258e-05
18 *445:8 *2417:B 0.000118753
19 *445:8 *3083:GATE_N 5.33005e-05
20 *445:8 *909:26 6.45627e-05
21 *3119:A *3116:A 0.000126439
22 *3119:A *3117:A 0.000305922
23 *3119:A *445:8 8.27238e-06
24 *3132:A *3116:A 0
*RES
1 *2415:Y *445:8 20.0857 
2 *445:8 *3116:A 36.6929 
3 *445:8 *3117:A 18.8179 
*END

*D_NET *446 0.00631024
*CONN
*I *3115:A I *D sky130_fd_sc_hd__dlymetal6s2s_1
*I *3114:A I *D sky130_fd_sc_hd__buf_2
*I *2417:Y O *D sky130_fd_sc_hd__nand2_1
*CAP
1 *3115:A 0.000341989
2 *3114:A 0.000722442
3 *2417:Y 0
4 *446:6 0.00106443
5 *3114:A *2401:A 0.000217877
6 *3114:A *2525:A 0.00027032
7 *3114:A *2609:B1 5.41794e-05
8 *3114:A *3021:D 1.41029e-05
9 *3114:A *832:47 0.00026839
10 *3114:A *837:83 0.000148182
11 *3114:A *840:59 0.000182153
12 *3114:A *840:87 0.000114045
13 *3114:A *844:45 0.000105276
14 *3114:A *904:16 0.00162717
15 *3114:A *907:48 7.02923e-05
16 *3114:A *907:56 0.000226319
17 *3115:A *2399:A 1.62378e-05
18 *3115:A *2987:GATE_N 6.89249e-05
19 *3115:A *3194:A 9.71197e-05
20 *3115:A *3213:A 7.49387e-06
21 *3115:A *840:87 3.34295e-05
22 *3115:A *904:10 7.5474e-05
23 *3115:A *904:16 0.000357991
24 *3115:A *925:33 0.000123288
25 *3121:A *3115:A 0.000103116
*RES
1 *2417:Y *446:6 13.8 
2 *446:6 *3114:A 37.7643 
3 *446:6 *3115:A 22.8893 
*END

*D_NET *447 0.00576527
*CONN
*I *3113:A I *D sky130_fd_sc_hd__clkbuf_2
*I *3112:A I *D sky130_fd_sc_hd__buf_2
*I *2419:Y O *D sky130_fd_sc_hd__nand2_1
*CAP
1 *3113:A 0.000692674
2 *3112:A 0.000679262
3 *2419:Y 0
4 *447:6 0.00137194
5 *3112:A *2419:B 5.31101e-05
6 *3112:A *2498:C1 0.000198587
7 *3112:A *2506:B1 0
8 *3112:A *2507:B1 4.48128e-06
9 *3112:A *2648:A0 5.20693e-05
10 *3112:A *3059:GATE_N 9.26675e-07
11 *3112:A *3111:A 2.95626e-05
12 *3112:A *811:10 1.61917e-05
13 *3112:A *828:60 0
14 *3112:A *917:62 3.94285e-06
15 *3112:A *917:73 5.83233e-05
16 *3113:A *2419:B 0.000189448
17 *3113:A *2648:A0 6.07232e-05
18 *3113:A *2786:D 3.18676e-05
19 *3113:A *3058:D 0.00077788
20 *3113:A *3203:A 0
21 *3113:A *870:85 0.000185643
22 *3113:A *915:27 0.00103902
23 *3113:A *919:29 2.44318e-05
24 *2497:A1 *3112:A 0
25 *2498:A1 *3112:A 3.87416e-05
26 *2498:B2 *3112:A 0.000219635
27 *2506:B2 *3112:A 0
28 *3125:A *3112:A 0
29 *3125:A *3113:A 0
30 *441:31 *3112:A 3.68166e-05
*RES
1 *2419:Y *447:6 13.8 
2 *447:6 *3112:A 35.3089 
3 *447:6 *3113:A 35.675 
*END

*D_NET *448 0.00885709
*CONN
*I *3111:A I *D sky130_fd_sc_hd__clkbuf_2
*I *3110:A I *D sky130_fd_sc_hd__buf_2
*I *2421:Y O *D sky130_fd_sc_hd__nand2_1
*CAP
1 *3111:A 0.000874949
2 *3110:A 0
3 *2421:Y 4.36033e-05
4 *448:28 0.00137658
5 *448:8 0.00229513
6 *3111:A *2405:B 2.06112e-05
7 *3111:A *2506:B1 6.57026e-05
8 *3111:A *2914:GATE_N 2.26973e-05
9 *3111:A *3042:D 0.00020727
10 *3111:A *3138:A 0
11 *3111:A *651:26 0.000267942
12 *3111:A *810:14 1.00375e-05
13 *3111:A *889:56 0.00035074
14 *3111:A *893:59 4.54637e-05
15 *3111:A *897:29 1.04707e-05
16 *3111:A *897:31 0.000398021
17 *3111:A *897:45 7.25293e-05
18 *448:8 *895:63 5.33005e-05
19 *448:28 *2614:B2 0.000551889
20 *448:28 *2648:A0 0
21 *448:28 *2909:D 0
22 *448:28 *3037:D 0
23 *448:28 *3068:D 9.64383e-05
24 *448:28 *449:24 0
25 *448:28 *807:99 2.59355e-05
26 *448:28 *807:115 5.66157e-05
27 *448:28 *830:90 0
28 *448:28 *848:10 3.34295e-05
29 *448:28 *897:45 0.00072792
30 *448:28 *918:147 1.31516e-05
31 *2509:A1 *448:28 0.000120267
32 *2509:B2 *448:28 0.000184331
33 *2605:B2 *448:28 7.50697e-05
34 *2608:B2 *448:28 1.07719e-05
35 *2619:A1 *448:28 0.000100823
36 *2619:B2 *448:28 0.000308287
37 *3112:A *3111:A 2.95626e-05
38 *3126:A *448:28 0.000397248
39 *3127:A *3111:A 7.47029e-06
40 *3127:A *448:28 2.8266e-06
*RES
1 *2421:Y *448:8 14.3357 
2 *448:8 *448:28 43.75 
3 *448:28 *3110:A 9.3 
4 *448:8 *3111:A 30.0197 
*END

*D_NET *449 0.00948197
*CONN
*I *3109:A I *D sky130_fd_sc_hd__dlymetal6s2s_1
*I *3108:A I *D sky130_fd_sc_hd__buf_2
*I *2423:Y O *D sky130_fd_sc_hd__nand2_1
*CAP
1 *3109:A 0.00139248
2 *3108:A 0
3 *2423:Y 0
4 *449:24 0.00119337
5 *449:6 0.00258584
6 *3109:A *2509:C1 1.36991e-05
7 *3109:A *2648:A0 0.00042457
8 *3109:A *3075:D 3.90464e-05
9 *3109:A *806:48 4.33463e-05
10 *3109:A *839:75 0.000116051
11 *3109:A *866:23 0.000140604
12 *3109:A *866:35 0.000170593
13 *3109:A *867:6 1.21258e-05
14 *3109:A *895:63 0.000158233
15 *3109:A *895:71 5.35475e-05
16 *3109:A *915:48 0
17 *449:24 *2509:C1 4.37327e-05
18 *449:24 *2614:B2 5.03772e-05
19 *449:24 *2909:D 0.000215548
20 *449:24 *3037:D 0.000168224
21 *449:24 *3068:D 3.34366e-05
22 *449:24 *806:48 0.000192763
23 *449:24 *806:50 0
24 *449:24 *807:99 9.90431e-05
25 *449:24 *822:6 0.000184745
26 *449:24 *822:39 0.000108777
27 *449:24 *830:90 0.000311021
28 *449:24 *865:59 0.00103408
29 *449:24 *895:71 9.54798e-06
30 *449:24 *918:147 0
31 *449:24 *933:24 0.000571298
32 *2497:B2 *3109:A 9.54798e-06
33 *2506:B2 *3109:A 5.52238e-05
34 *2507:A1 *3109:A 4.41891e-05
35 *2509:B2 *449:24 6.92148e-06
36 *2619:B2 *449:24 0
37 *448:28 *449:24 0
*RES
1 *2423:Y *449:6 13.8 
2 *449:6 *449:24 43.0714 
3 *449:24 *3108:A 9.3 
4 *449:6 *3109:A 36.6036 
*END

*D_NET *450 0.00880592
*CONN
*I *3107:A I *D sky130_fd_sc_hd__clkbuf_2
*I *3106:A I *D sky130_fd_sc_hd__buf_2
*I *2425:Y O *D sky130_fd_sc_hd__nand2_1
*CAP
1 *3107:A 0.00030974
2 *3106:A 0.00367859
3 *2425:Y 0
4 *450:4 0.00398833
5 *3106:A *2592:B2 0.000369181
6 *3106:A *2639:A 0
7 *3106:A *806:48 2.22043e-05
8 *3106:A *808:54 4.98422e-05
9 *3106:A *811:26 2.06112e-05
10 *3106:A *811:32 7.46146e-05
11 *3106:A *822:49 8.49861e-06
12 *3106:A *893:59 4.86178e-05
13 *3106:A *893:97 9.60337e-06
14 *3107:A *2506:B1 0.000226088
*RES
1 *2425:Y *450:4 9.3 
2 *450:4 *3106:A 40.0449 
3 *450:4 *3107:A 15.1036 
*END

*D_NET *451 0.000709122
*CONN
*I *2783:D I *D sky130_fd_sc_hd__dfrtp_1
*I *2686:X O *D sky130_fd_sc_hd__a31o_1
*CAP
1 *2783:D 0.000295735
2 *2686:X 0.000295735
3 *2783:D *475:20 4.46186e-06
4 *2783:D *475:38 3.48235e-05
5 *2783:D *672:84 7.83659e-05
*RES
1 *2686:X *2783:D 31.283 
*END

*D_NET *452 0.001893
*CONN
*I *2784:D I *D sky130_fd_sc_hd__dfrtp_1
*I *2695:X O *D sky130_fd_sc_hd__or4b_4
*CAP
1 *2784:D 0.000613785
2 *2695:X 0.000613785
3 *2784:D *2382:B 0.000120506
4 *2784:D *2450:B 0
5 *2784:D *2450:C 0.000135064
6 *2784:D *2695:C 4.75521e-05
7 *2784:D *2784:CLK 0.000130741
8 *2784:D *772:10 0.000133522
9 *2784:D *774:16 9.80415e-05
10 *2784:D *951:51 0
*RES
1 *2695:X *2784:D 38.85 
*END

*D_NET *453 0.00126851
*CONN
*I *2785:D I *D sky130_fd_sc_hd__dfrtp_1
*I *2697:X O *D sky130_fd_sc_hd__or4b_4
*CAP
1 *2785:D 0.000355586
2 *2697:X 0.000355586
3 *2785:D *2383:B 0.0001879
4 *2785:D *2426:A 6.2169e-06
5 *2785:D *2648:A0 0
6 *2785:D *2698:B1 3.48139e-05
7 *2785:D *2786:D 0
8 *2785:D *2786:RESET_B 0
9 *2785:D *773:20 0.000328411
10 *2785:D *956:26 0
*RES
1 *2697:X *2785:D 34.7071 
*END

*D_NET *454 0.000541372
*CONN
*I *2786:D I *D sky130_fd_sc_hd__dfrtp_1
*I *2699:X O *D sky130_fd_sc_hd__a21o_1
*CAP
1 *2786:D 0.000254752
2 *2699:X 0.000254752
3 *2786:D *2786:CLK 0
4 *2786:D *2786:RESET_B 0
5 *2785:D *2786:D 0
6 *3113:A *2786:D 3.18676e-05
*RES
1 *2699:X *2786:D 31.9036 
*END

*D_NET *455 0.00053469
*CONN
*I *2787:D I *D sky130_fd_sc_hd__dfrtp_1
*I *2706:X O *D sky130_fd_sc_hd__mux2_1
*CAP
1 *2787:D 0.000120952
2 *2706:X 0.000120952
3 *2787:D *2723:B1 9.60875e-05
4 *2787:D *2738:B 0.000135975
5 *2787:D *2738:C 6.07232e-05
*RES
1 *2706:X *2787:D 30.1893 
*END

*D_NET *456 0.00100807
*CONN
*I *2788:D I *D sky130_fd_sc_hd__dfrtp_1
*I *2711:X O *D sky130_fd_sc_hd__mux2_1
*CAP
1 *2788:D 0.000153304
2 *2711:X 0.000153304
3 *2788:D *787:23 5.33005e-05
4 *2788:D *787:34 0.000129868
5 *2788:D *787:36 8.07951e-05
6 *2788:D *787:38 0.000122812
7 *2788:D *1047:111 0.000314689
*RES
1 *2711:X *2788:D 32.2071 
*END

*D_NET *457 0.000605897
*CONN
*I *2789:D I *D sky130_fd_sc_hd__dfrtp_1
*I *2719:X O *D sky130_fd_sc_hd__mux2_1
*CAP
1 *2789:D 0.000148409
2 *2719:X 0.000148409
3 *2789:D *2789:RESET_B 0.000110341
4 *2789:D *956:70 4.53515e-05
5 *2789:D *1047:111 0.000153387
*RES
1 *2719:X *2789:D 31.6714 
*END

*D_NET *458 0.000474894
*CONN
*I *2790:D I *D sky130_fd_sc_hd__dfrtp_1
*I *2723:X O *D sky130_fd_sc_hd__a22o_1
*CAP
1 *2790:D 0.000118308
2 *2723:X 0.000118308
3 *2790:D *2723:A2 1.58163e-05
4 *2790:D *2790:RESET_B 1.02504e-05
5 *2790:D *868:20 4.63862e-05
6 *2790:D *956:12 8.91822e-05
7 *2790:D *996:16 7.6644e-05
*RES
1 *2723:X *2790:D 30.3857 
*END

*D_NET *459 0.00187857
*CONN
*I *3086:D I *D sky130_fd_sc_hd__dfrtp_1
*I *2732:X O *D sky130_fd_sc_hd__mux2_1
*CAP
1 *3086:D 0.000747232
2 *2732:X 0.000747232
3 *3086:D *3086:RESET_B 8.86413e-05
4 *3086:D *3087:CLK 8.86129e-06
5 *3086:D *782:6 0.000273269
6 *3086:D *782:25 1.33343e-05
*RES
1 *2732:X *3086:D 27.8188 
*END

*D_NET *460 0.00108212
*CONN
*I *3087:D I *D sky130_fd_sc_hd__dfrtp_1
*I *2737:X O *D sky130_fd_sc_hd__a22o_1
*CAP
1 *3087:D 0.00030718
2 *2737:X 0.00030718
3 *3087:D *2737:A1 6.46382e-05
4 *3087:D *3098:A 0.000300915
5 *3087:D *783:12 0.000102207
*RES
1 *2737:X *3087:D 26.1357 
*END

*D_NET *461 0.00351775
*CONN
*I *3088:D I *D sky130_fd_sc_hd__dfrtp_1
*I *2742:X O *D sky130_fd_sc_hd__a22o_1
*CAP
1 *3088:D 0
2 *2742:X 0.00109859
3 *461:22 0.00109859
4 *461:22 *2392:A 0
5 *461:22 *2732:A1 0.000246558
6 *461:22 *2737:B2 5.41794e-05
7 *461:22 *3086:RESET_B 6.05161e-06
8 *461:22 *3088:RESET_B 2.79421e-05
9 *461:22 *3089:D 0.000374251
10 *461:22 *722:42 5.41794e-05
11 *461:22 *782:6 6.4443e-05
12 *461:22 *782:25 5.72899e-05
13 *461:22 *782:32 0.000268396
14 *461:22 *784:8 5.30637e-06
15 *461:22 *785:14 6.04162e-05
16 *461:22 *804:14 0.000101545
17 *380:10 *461:22 0
*RES
1 *2742:X *461:22 48.5857 
2 *461:22 *3088:D 9.3 
*END

*D_NET *462 0.00204024
*CONN
*I *3089:D I *D sky130_fd_sc_hd__dfrtp_1
*I *2747:X O *D sky130_fd_sc_hd__a22o_1
*CAP
1 *3089:D 0.000766617
2 *2747:X 0.000766617
3 *3089:D *771:78 4.79842e-05
4 *3089:D *784:8 1.72752e-05
5 *383:10 *3089:D 6.74911e-05
6 *461:22 *3089:D 0.000374251
*RES
1 *2747:X *3089:D 38.4036 
*END

*D_NET *463 0.000577305
*CONN
*I *3090:D I *D sky130_fd_sc_hd__dfrtp_1
*I *2752:X O *D sky130_fd_sc_hd__mux2_1
*CAP
1 *3090:D 0.000164166
2 *2752:X 0.000164166
3 *3090:D *2760:A2 0.000125369
4 *3090:D *3090:CLK 0
5 *3090:D *3090:RESET_B 0.000123603
*RES
1 *2752:X *3090:D 31.4214 
*END

*D_NET *464 0.00186461
*CONN
*I *3091:D I *D sky130_fd_sc_hd__dfrtp_1
*I *2757:X O *D sky130_fd_sc_hd__o22a_1
*CAP
1 *3091:D 0.000448643
2 *2757:X 0.000448643
3 *3091:D *3091:RESET_B 9.18702e-05
4 *3091:D *739:16 0.000151482
5 *3091:D *739:22 7.79781e-06
6 *3091:D *772:56 7.43578e-06
7 *3091:D *988:14 0.000240462
8 *2446:B *3091:D 2.8046e-05
9 *116:10 *3091:D 0.000188071
10 *116:38 *3091:D 5.41794e-05
11 *374:27 *3091:D 0.000197977
*RES
1 *2757:X *3091:D 38.7786 
*END

*D_NET *465 0.00256066
*CONN
*I *3092:D I *D sky130_fd_sc_hd__dfrtp_1
*I *2760:X O *D sky130_fd_sc_hd__a22o_1
*CAP
1 *3092:D 0.000845788
2 *2760:X 0.000845788
3 *3092:D *2659:A1 0.000113061
4 *3092:D *2760:B1 4.39581e-05
5 *3092:D *2760:B2 5.33005e-05
6 *3092:D *3327:A 0.00012798
7 *3092:D *505:38 2.26973e-05
8 *3092:D *1024:12 0.000486942
9 *2755:B1 *3092:D 2.11419e-05
10 *3251:A *3092:D 0
*RES
1 *2760:X *3092:D 42.9249 
*END

*D_NET *466 0.00364808
*CONN
*I *3093:D I *D sky130_fd_sc_hd__dfrtp_1
*I *2766:X O *D sky130_fd_sc_hd__mux2_4
*CAP
1 *3093:D 0.00110129
2 *2766:X 0.00110129
3 *3093:D *2766:A0 0
4 *3093:D *2766:S 0
5 *3093:D *2783:CLK 0.000583616
6 *3093:D *3094:D 7.43578e-06
7 *3093:D *3095:D 0.000172609
8 *3093:D *3228:A 6.05161e-06
9 *3093:D *771:28 0.000120366
10 *3093:D *885:115 0.000392657
11 *3093:D *945:25 6.05161e-06
12 *3093:D *955:59 3.34295e-05
13 *380:10 *3093:D 0.000123278
*RES
1 *2766:X *3093:D 47.725 
*END

*D_NET *467 0.0005673
*CONN
*I *3094:D I *D sky130_fd_sc_hd__dfrtp_1
*I *2772:X O *D sky130_fd_sc_hd__a22o_1
*CAP
1 *3094:D 0.000204426
2 *2772:X 0.000204426
3 *3094:D *2772:A2 3.69047e-06
4 *3094:D *771:14 4.25716e-05
5 *3094:D *945:25 4.05247e-05
6 *3093:D *3094:D 7.43578e-06
7 *383:10 *3094:D 6.42242e-05
*RES
1 *2772:X *3094:D 31.0107 
*END

*D_NET *468 0.00159427
*CONN
*I *3095:D I *D sky130_fd_sc_hd__dfrtp_1
*I *2778:X O *D sky130_fd_sc_hd__a22o_1
*CAP
1 *3095:D 0.000377026
2 *2778:X 0.000377026
3 *3095:D *3096:D 0.000387995
4 *3095:D *955:59 0.000107003
5 *3093:D *3095:D 0.000172609
6 *380:10 *3095:D 0.000172609
*RES
1 *2778:X *3095:D 37.3857 
*END

*D_NET *469 0.00215797
*CONN
*I *3096:D I *D sky130_fd_sc_hd__dfrtp_1
*I *2782:X O *D sky130_fd_sc_hd__a22o_1
*CAP
1 *3096:D 0.000838176
2 *2782:X 0.000838176
3 *3096:D *2778:B2 5.30637e-06
4 *3096:D *939:23 7.83659e-05
5 *3096:D *942:20 9.9471e-06
6 *3095:D *3096:D 0.000387995
*RES
1 *2782:X *3096:D 38.2607 
*END

*D_NET *470 0.00110597
*CONN
*I *2683:A1 I *D sky130_fd_sc_hd__o22ai_1
*I *2378:Y O *D sky130_fd_sc_hd__inv_2
*CAP
1 *2683:A1 0.000252566
2 *2378:Y 0.000252566
3 *2683:A1 *2378:A 4.40119e-05
4 *2683:A1 *2697:D_N 7.83587e-05
5 *2683:A1 *672:53 0.000446597
6 *2683:A1 *1018:12 0
7 *3099:A *2683:A1 3.18676e-05
*RES
1 *2378:Y *2683:A1 33.7786 
*END

*D_NET *471 0.00559093
*CONN
*I *2683:B2 I *D sky130_fd_sc_hd__o22ai_1
*I *2379:Y O *D sky130_fd_sc_hd__inv_2
*CAP
1 *2683:B2 8.31505e-05
2 *2379:Y 0.00155511
3 *471:20 0.00163826
4 *2683:B2 *2683:B1 0.00010096
5 *2683:B2 *672:70 0.000271352
6 *471:20 *2384:A 0
7 *471:20 *2685:A 8.48418e-05
8 *471:20 *2707:A 0.000281769
9 *471:20 *2725:B 0.00010096
10 *471:20 *2728:B1 0.000248486
11 *471:20 *2730:A1 0.000437219
12 *471:20 *2740:A1 0.000112438
13 *471:20 *2740:A3 0
14 *471:20 *2740:B2 0
15 *471:20 *2762:A1 0
16 *471:20 *2762:A2 0
17 *471:20 *3347:A 9.73086e-05
18 *471:20 *718:25 0
19 *471:20 *991:16 0.000470164
20 *471:20 *992:16 9.67766e-05
21 *471:20 *992:27 1.21289e-05
*RES
1 *2379:Y *471:20 47.55 
2 *471:20 *2683:B2 11.8893 
*END

*D_NET *472 0.0016598
*CONN
*I *2688:B I *D sky130_fd_sc_hd__or3_1
*I *2700:A1_N I *D sky130_fd_sc_hd__o2bb2a_4
*I *2380:Y O *D sky130_fd_sc_hd__inv_2
*CAP
1 *2688:B 0.000168844
2 *2700:A1_N 0
3 *2380:Y 0.000223972
4 *472:14 0.000392816
5 *2688:B *2688:A 0.000256345
6 *2688:B *2703:C1 0.000229619
7 *2688:B *672:43 1.04232e-05
8 *2688:B *982:75 0.000111172
9 *472:14 *2703:C1 6.87732e-05
10 *472:14 *2728:C1 5.71472e-05
11 *472:14 *891:23 3.57163e-05
12 *472:14 *982:75 0
13 *472:14 *1018:12 0.000104974
*RES
1 *2380:Y *472:14 23.0679 
2 *472:14 *2700:A1_N 9.3 
3 *472:14 *2688:B 14.4071 
*END

*D_NET *473 0.00229618
*CONN
*I *2671:A1 I *D sky130_fd_sc_hd__o31a_1
*I *2381:Y O *D sky130_fd_sc_hd__inv_2
*CAP
1 *2671:A1 0.000413682
2 *2381:Y 0.000413682
3 *2671:A1 *2671:A2 1.33343e-05
4 *2671:A1 *2671:B1 0.000247606
5 *2671:A1 *2672:A 2.59355e-05
6 *2671:A1 *2676:B 5.33005e-05
7 *2671:A1 *2679:B 2.89114e-05
8 *2671:A1 *3180:A 0.000556672
9 *2671:A1 *672:21 0.000197984
10 *2671:A1 *887:12 0.000156392
11 *2671:A1 *887:99 9.94004e-05
12 *2671:A1 *954:38 5.33005e-05
13 *2671:A1 *997:20 3.59758e-05
14 *2671:A1 *1050:31 0
*RES
1 *2381:Y *2671:A1 39.5464 
*END

*D_NET *474 0.0106585
*CONN
*I *2447:B I *D sky130_fd_sc_hd__and3b_1
*I *2698:A1 I *D sky130_fd_sc_hd__a31o_1
*I *2383:C_N I *D sky130_fd_sc_hd__or3b_4
*I *2680:A I *D sky130_fd_sc_hd__and3_1
*I *2382:X O *D sky130_fd_sc_hd__and2b_1
*CAP
1 *2447:B 0.000528235
2 *2698:A1 0
3 *2383:C_N 8.08248e-05
4 *2680:A 0.000314764
5 *2382:X 4.09699e-05
6 *474:45 0.00083804
7 *474:25 0.00158949
8 *474:6 0.000659776
9 *2383:C_N *2383:B 0.000323086
10 *2383:C_N *2698:A3 0.00026839
11 *2383:C_N *502:42 1.38323e-05
12 *2383:C_N *502:55 5.33005e-05
13 *2447:B *2388:A 0.000255068
14 *2447:B *2447:C 0.000100823
15 *2447:B *2671:A3 0.000353266
16 *2447:B *2676:B 1.83053e-05
17 *2447:B *3366:A 1.13883e-05
18 *2447:B *950:123 0.000277638
19 *2680:A *2426:C 9.60875e-05
20 *2680:A *2680:C 0.00035013
21 *2680:A *3101:A 5.52238e-05
22 *2680:A *3183:A 3.53079e-05
23 *2680:A *3366:A 0.000224577
24 *2680:A *868:39 0.000178587
25 *2680:A *891:72 9.91086e-05
26 *2680:A *950:63 1.69961e-05
27 *2680:A *950:80 9.90819e-06
28 *2680:A *952:40 0.0003482
29 *2680:A *1048:10 0.00012345
30 *2680:A *1048:31 0.000410034
31 *474:6 *3366:A 0.000122591
32 *474:6 *952:40 0.000135028
33 *474:25 *2449:C 0.00014204
34 *474:25 *2450:B 1.09026e-05
35 *474:25 *2694:C 3.13225e-05
36 *474:25 *772:10 0.000647719
37 *474:25 *950:35 0.00014101
38 *474:25 *954:8 0.000258485
39 *474:45 *2383:B 2.286e-05
40 *474:45 *2449:A_N 9.8045e-05
41 *474:45 *2450:A_N 0.000192698
42 *474:45 *2450:B 3.34672e-05
43 *474:45 *2450:D 0
44 *474:45 *2664:D 6.57499e-06
45 *474:45 *2694:A 9.96242e-05
46 *474:45 *3359:A 0.000184745
47 *474:45 *502:55 8.70594e-05
48 *474:45 *696:20 1.60271e-05
49 *474:45 *772:10 0.000101545
50 *474:45 *772:12 0.000445577
51 *474:45 *775:8 7.20343e-05
52 *474:45 *966:16 0.000134372
*RES
1 *2382:X *474:6 10.6571 
2 *474:6 *2680:A 29.1929 
3 *474:6 *474:25 13.125 
4 *474:25 *474:45 29.2857 
5 *474:45 *2383:C_N 12.7107 
6 *474:45 *2698:A1 9.3 
7 *474:25 *2447:B 33.0321 
*END

*D_NET *475 0.00517941
*CONN
*I *2384:A I *D sky130_fd_sc_hd__inv_2
*I *2690:A2 I *D sky130_fd_sc_hd__o31ai_1
*I *2394:A1 I *D sky130_fd_sc_hd__o21ai_1
*I *2763:B1 I *D sky130_fd_sc_hd__a21oi_1
*I *2383:X O *D sky130_fd_sc_hd__or3b_4
*CAP
1 *2384:A 0.000102499
2 *2690:A2 0.000317382
3 *2394:A1 0
4 *2763:B1 0.000116844
5 *2383:X 0.000672445
6 *475:38 0.000620979
7 *475:20 0.000257886
8 *475:14 0.00101458
9 *2384:A *2685:A 0
10 *2384:A *2762:A1 0.000138797
11 *2690:A2 *2762:B1 0.000418811
12 *2690:A2 *931:34 1.98839e-05
13 *2763:B1 *2394:A2 5.33433e-05
14 *2763:B1 *2666:A0 9.02133e-05
15 *2763:B1 *2764:D 5.52238e-05
16 *2763:B1 *672:84 0.000157399
17 *475:14 *2383:B 2.55587e-05
18 *475:14 *2428:A 1.02504e-05
19 *475:14 *2682:A 9.31011e-05
20 *475:14 *2698:A3 7.79781e-06
21 *475:14 *2699:A2 2.88018e-06
22 *475:14 *2783:RESET_B 1.20135e-05
23 *475:14 *502:42 1.99099e-05
24 *475:14 *953:10 5.83233e-05
25 *475:20 *2394:A2 1.74352e-05
26 *475:20 *2394:B1 0.00024807
27 *475:20 *672:84 0.00011308
28 *475:20 *931:14 0
29 *475:38 *2389:A 7.44945e-07
30 *475:38 *2394:B1 0.000168082
31 *475:38 *2685:A 0
32 *475:38 *2686:A1 1.70307e-05
33 *475:38 *2761:B2 6.90134e-05
34 *475:38 *2762:A1 7.79446e-05
35 *475:38 *2762:B1 5.20298e-05
36 *475:38 *480:10 9.0731e-05
37 *475:38 *672:84 1.98397e-05
38 *2783:D *475:20 4.46186e-06
39 *2783:D *475:38 3.48235e-05
40 *471:20 *2384:A 0
*RES
1 *2383:X *475:14 31.05 
2 *475:14 *475:20 8.60714 
3 *475:20 *2763:B1 13.1571 
4 *475:20 *2394:A1 9.3 
5 *475:14 *475:38 4.98214 
6 *475:38 *2690:A2 18.2375 
7 *475:38 *2384:A 15.7464 
*END

*D_NET *476 0.00217226
*CONN
*I *3217:A I *D sky130_fd_sc_hd__clkbuf_2
*I *3308:A I *D sky130_fd_sc_hd__clkbuf_1
*I *2385:Y O *D sky130_fd_sc_hd__nor4_1
*CAP
1 *3217:A 7.02367e-05
2 *3308:A 0.000102866
3 *2385:Y 0.000110936
4 *476:12 0.000284038
5 *3217:A *940:42 0.000169804
6 *3217:A *940:44 2.24646e-05
7 *3217:A *943:43 0.00018518
8 *3217:A *943:82 9.51822e-06
9 *3308:A *2400:C 0.00012501
10 *3308:A *2424:B 0.00017924
11 *3308:A *2424:C 1.81709e-05
12 *3308:A *2503:D 4.58976e-05
13 *3308:A *488:14 6.8646e-06
14 *3308:A *909:18 0.00014285
15 *3308:A *940:44 3.17148e-05
16 *3308:A *943:43 4.73656e-05
17 *476:12 *2385:B 2.14658e-05
18 *476:12 *2385:C 0.00029365
19 *476:12 *2400:A_N 0.000224583
20 *476:12 *936:18 7.43539e-05
21 *476:12 *943:58 6.05161e-06
*RES
1 *2385:Y *476:12 17.7643 
2 *476:12 *3308:A 17.7107 
3 *476:12 *3217:A 16.3536 
*END

*D_NET *477 0.0157445
*CONN
*I *3215:A I *D sky130_fd_sc_hd__buf_2
*I *3214:A I *D sky130_fd_sc_hd__clkbuf_4
*I *2386:X O *D sky130_fd_sc_hd__or4_1
*CAP
1 *3215:A 0
2 *3214:A 0.0025398
3 *2386:X 0.00154224
4 *477:30 0.00257086
5 *477:26 0.0015733
6 *3214:A *2504:B1 1.90936e-05
7 *3214:A *2515:A2 3.27477e-05
8 *3214:A *2625:B2 0.0027444
9 *3214:A *2639:A 0
10 *3214:A *671:26 0.000173781
11 *3214:A *812:28 0.000810149
12 *3214:A *844:20 0.00202613
13 *3214:A *885:32 0
14 *3214:A *889:56 4.8817e-05
15 *3214:A *918:147 0.000110241
16 *3214:A *919:35 4.79414e-05
17 *477:26 *2403:A 1.34631e-05
18 *477:26 *2403:B 4.88515e-05
19 *477:26 *2420:A_N 3.18676e-05
20 *477:26 *2495:A2 0.00010286
21 *477:26 *2504:B1 0.000274385
22 *477:26 *2595:C1 5.52302e-05
23 *477:26 *2939:D 0.000163656
24 *477:26 *3058:D 4.17721e-05
25 *477:26 *3138:A 8.27532e-05
26 *477:26 *3139:A 9.77423e-05
27 *477:26 *490:14 1.90936e-05
28 *477:26 *647:10 7.40526e-05
29 *477:26 *925:133 0.000304805
30 *477:26 *948:33 1.71615e-05
31 *477:30 *869:66 4.58194e-05
32 *477:30 *917:62 9.77423e-05
33 *3127:A *3214:A 0
34 *3129:A *3214:A 2.22043e-05
35 *439:8 *477:26 1.15172e-05
*RES
1 *2386:X *477:26 46.4429 
2 *477:26 *477:30 5.44643 
3 *477:30 *3214:A 41.786 
4 *477:30 *3215:A 9.3 
*END

*D_NET *478 0.00460671
*CONN
*I *2433:A I *D sky130_fd_sc_hd__nand2_4
*I *2434:A2 I *D sky130_fd_sc_hd__a211oi_2
*I *2691:A I *D sky130_fd_sc_hd__and3_1
*I *2388:B I *D sky130_fd_sc_hd__nor2_1
*I *2387:X O *D sky130_fd_sc_hd__or3b_1
*CAP
1 *2433:A 0.000112886
2 *2434:A2 1.69729e-05
3 *2691:A 5.40981e-05
4 *2388:B 0.000182888
5 *2387:X 3.61801e-05
6 *478:36 0.00102631
7 *478:23 0.00112605
8 *478:8 0.000394562
9 *2388:B *2691:C 6.94912e-05
10 *2388:B *3178:A 4.87854e-05
11 *2388:B *3180:A 0.000434177
12 *2388:B *678:8 0.000103275
13 *2388:B *887:22 5.17614e-05
14 *2388:B *982:27 3.79104e-05
15 *2433:A *2434:A1 0.000283187
16 *2433:A *507:12 1.31516e-05
17 *2433:A *794:12 0.000113402
18 *2434:A2 *2434:A1 5.83233e-05
19 *2434:A2 *794:12 2.19684e-05
20 *2691:A *2824:D 0
21 *478:8 *2695:D_N 4.15914e-05
22 *478:8 *3180:A 9.4724e-05
23 *478:8 *982:27 7.80714e-06
24 *478:23 *2691:C 1.78639e-05
25 *478:23 *2824:D 1.40415e-05
26 *478:36 *2434:A1 3.32631e-05
27 *478:36 *2434:C1 0.00018077
28 *478:36 *2824:D 1.72798e-05
29 *478:36 *766:31 1.39841e-05
*RES
1 *2387:X *478:8 15.1393 
2 *478:8 *2388:B 20.3357 
3 *478:8 *478:23 7.08929 
4 *478:23 *2691:A 10.3357 
5 *478:23 *478:36 14.9107 
6 *478:36 *2434:A2 14.5321 
7 *478:36 *2433:A 17.8714 
*END

*D_NET *479 0.00320596
*CONN
*I *3178:A I *D sky130_fd_sc_hd__clkbuf_4
*I *2388:Y O *D sky130_fd_sc_hd__nor2_1
*CAP
1 *3178:A 0.000659353
2 *2388:Y 0.000659353
3 *3178:A *2439:B 0.000275579
4 *3178:A *2672:A 0
5 *3178:A *2757:B2 9.60939e-05
6 *3178:A *3324:A 0.000100831
7 *3178:A *3345:A 0.000180764
8 *3178:A *503:16 3.74267e-05
9 *3178:A *882:52 0.000212548
10 *3178:A *885:14 0.000139351
11 *3178:A *885:26 5.47391e-05
12 *3178:A *887:22 8.52901e-05
13 *3178:A *1050:10 0.000305291
14 *2388:B *3178:A 4.87854e-05
15 *2438:B *3178:A 9.60939e-05
16 *2445:A *3178:A 4.87953e-05
17 *2445:B *3178:A 1.76135e-05
18 *2823:D *3178:A 8.89385e-05
19 *431:10 *3178:A 0
20 *433:10 *3178:A 9.91086e-05
*RES
1 *2388:Y *3178:A 45.5643 
*END

*D_NET *480 0.00293815
*CONN
*I *2684:C1 I *D sky130_fd_sc_hd__o311a_1
*I *2394:B1 I *D sky130_fd_sc_hd__o21ai_1
*I *2389:Y O *D sky130_fd_sc_hd__nand2_1
*CAP
1 *2684:C1 0.000409831
2 *2394:B1 0.000183221
3 *2389:Y 8.91754e-05
4 *480:10 0.000682227
5 *2394:B1 *2686:A1 5.4695e-05
6 *2394:B1 *510:32 0.000340917
7 *2394:B1 *675:37 0
8 *2394:B1 *931:14 0
9 *2684:C1 *2682:B 2.65242e-05
10 *2684:C1 *2684:B1 5.33005e-05
11 *2684:C1 *2685:C_N 5.71472e-05
12 *2684:C1 *2690:B1 0.000206329
13 *2684:C1 *508:46 2.96669e-05
14 *2684:C1 *675:37 0.000181796
15 *480:10 *2686:A1 9.82592e-05
16 *480:10 *2762:B1 6.05161e-06
17 *480:10 *931:34 1.21258e-05
18 *475:20 *2394:B1 0.00024807
19 *475:38 *2394:B1 0.000168082
20 *475:38 *480:10 9.0731e-05
*RES
1 *2389:Y *480:10 15.675 
2 *480:10 *2394:B1 19.3893 
3 *480:10 *2684:C1 21.858 
*END

*D_NET *481 0.00351624
*CONN
*I *2736:A1 I *D sky130_fd_sc_hd__a221o_1
*I *2733:A1 I *D sky130_fd_sc_hd__o21ai_1
*I *2390:Y O *D sky130_fd_sc_hd__nor2_1
*CAP
1 *2736:A1 1.66626e-05
2 *2733:A1 0.000323414
3 *2390:Y 0.000489318
4 *481:14 0.000829395
5 *2733:A1 *2391:C 0.000166407
6 *2733:A1 *2443:A 0
7 *2733:A1 *2733:A2 0.000349875
8 *2733:A1 *2736:B1 7.6644e-05
9 *2733:A1 *2742:A2 0.000154188
10 *2733:A1 *783:37 3.06406e-05
11 *2733:A1 *801:14 3.34366e-05
12 *2733:A1 *801:25 0.00051421
13 *2736:A1 *2736:B1 8.20201e-05
14 *2736:A1 *801:25 7.34773e-05
15 *481:14 *2731:A1 0
16 *481:14 *2731:A2 0
17 *481:14 *2731:B1 5.80706e-06
18 *481:14 *2736:B2 1.47169e-05
19 *481:14 *2736:C1 0.000356028
20 *481:14 *3347:A 0
*RES
1 *2390:Y *481:14 29.4964 
2 *481:14 *2733:A1 24.3357 
3 *481:14 *2736:A1 14.8357 
*END

*D_NET *482 0.00101439
*CONN
*I *2741:A1 I *D sky130_fd_sc_hd__o21ai_1
*I *2743:A1 I *D sky130_fd_sc_hd__a21bo_1
*I *2391:X O *D sky130_fd_sc_hd__or3_1
*CAP
1 *2741:A1 0
2 *2743:A1 4.92309e-05
3 *2391:X 0.000110903
4 *482:12 0.000160134
5 *2743:A1 *722:14 5.33005e-05
6 *2743:A1 *722:18 0.00018372
7 *2743:A1 *782:53 0.000224583
8 *482:12 *2443:A 0.000145753
9 *482:12 *718:19 1.72894e-05
10 *482:12 *722:10 5.86416e-05
11 *482:12 *722:75 1.08359e-05
*RES
1 *2391:X *482:12 20.7821 
2 *482:12 *2743:A1 11.4786 
3 *482:12 *2741:A1 9.3 
*END

*D_NET *483 0.00394547
*CONN
*I *3307:A I *D sky130_fd_sc_hd__buf_1
*I *2761:B1 I *D sky130_fd_sc_hd__a32o_1
*I *2393:A I *D sky130_fd_sc_hd__inv_2
*I *2392:Y O *D sky130_fd_sc_hd__nor4_1
*CAP
1 *3307:A 2.9238e-05
2 *2761:B1 0.000190166
3 *2393:A 1.99857e-05
4 *2392:Y 0.000690348
5 *483:21 0.000503777
6 *483:8 0.000994707
7 *2393:A *2728:A1 1.04232e-05
8 *2761:B1 *2701:A 1.21371e-05
9 *2761:B1 *2761:B2 4.75736e-05
10 *2761:B1 *2762:A2 0
11 *2761:B1 *2763:A1 0.000262675
12 *2761:B1 *2764:B 1.81887e-05
13 *2761:B1 *672:70 1.46883e-05
14 *2761:B1 *931:10 5.74533e-05
15 *2761:B1 *931:14 3.47055e-05
16 *3307:A *804:10 5.33005e-05
17 *483:8 *2677:A3 0.00014285
18 *483:8 *2764:C 6.33771e-07
19 *483:8 *3104:A 1.02821e-05
20 *483:8 *783:26 2.59355e-05
21 *483:8 *783:37 0.000285619
22 *483:8 *785:14 5.71472e-05
23 *483:21 *2443:A 1.00375e-05
24 *483:21 *2728:A1 1.24368e-05
25 *483:21 *2762:A2 0
26 *483:21 *2763:A1 0.000314881
27 *483:21 *2764:D 4.23086e-05
28 *483:21 *722:10 0.000103974
*RES
1 *2392:Y *483:8 18.4786 
2 *483:8 *2393:A 9.72857 
3 *483:8 *483:21 10.3214 
4 *483:21 *2761:B1 18.4339 
5 *483:21 *3307:A 14.3357 
*END

*D_NET *484 0.00314333
*CONN
*I *2728:A1 I *D sky130_fd_sc_hd__o221a_2
*I *2763:A1 I *D sky130_fd_sc_hd__a21oi_1
*I *2393:Y O *D sky130_fd_sc_hd__inv_2
*CAP
1 *2728:A1 0.000178997
2 *2763:A1 0.000405254
3 *2393:Y 0
4 *484:4 0.000584252
5 *2728:A1 *2728:A2 9.90431e-05
6 *2728:A1 *722:10 4.70078e-05
7 *2763:A1 *2764:D 0.00101598
8 *2763:A1 *881:31 0.000196581
9 *2763:A1 *931:14 1.57981e-05
10 *2393:A *2728:A1 1.04232e-05
11 *2761:B1 *2763:A1 0.000262675
12 *483:21 *2728:A1 1.24368e-05
13 *483:21 *2763:A1 0.000314881
*RES
1 *2393:Y *484:4 9.3 
2 *484:4 *2763:A1 32.0143 
3 *484:4 *2728:A1 12.925 
*END

*D_NET *485 0.00598372
*CONN
*I *3138:A I *D sky130_fd_sc_hd__buf_2
*I *3139:A I *D sky130_fd_sc_hd__dlymetal6s2s_1
*I *2394:Y O *D sky130_fd_sc_hd__o21ai_1
*CAP
1 *3138:A 0.000844739
2 *3139:A 5.15171e-05
3 *2394:Y 0.000842141
4 *485:12 0.0017384
5 *3138:A *2403:A 2.59355e-05
6 *3138:A *2405:A 9.41667e-05
7 *3138:A *2421:B 5.33005e-05
8 *3138:A *2425:A 1.73088e-05
9 *3138:A *2898:D 8.57485e-05
10 *3138:A *2914:GATE_N 9.13605e-06
11 *3138:A *651:26 0.000114508
12 *3138:A *808:54 5.33005e-05
13 *3138:A *808:78 5.52238e-05
14 *3138:A *826:10 8.50795e-06
15 *3138:A *826:12 0
16 *3138:A *828:8 5.61874e-05
17 *3138:A *828:18 3.80952e-05
18 *3138:A *840:10 0.00038038
19 *3138:A *841:15 0.000127039
20 *3138:A *869:68 4.30452e-05
21 *3138:A *869:74 0.000166911
22 *3138:A *893:59 1.27324e-05
23 *3138:A *895:63 2.40354e-05
24 *3138:A *919:49 0.000261416
25 *3139:A *2403:A 4.82865e-05
26 *485:12 *2504:B1 9.77704e-05
27 *485:12 *2783:RESET_B 0
28 *485:12 *2784:RESET_B 0
29 *485:12 *2786:CLK 0
30 *485:12 *3058:D 0
31 *485:12 *502:10 3.79047e-05
32 *485:12 *510:32 7.12975e-05
33 *485:12 *773:20 0.000123673
34 *485:12 *812:10 8.82347e-05
35 *2504:A1 *3138:A 1.37312e-05
36 *3111:A *3138:A 0
37 *3128:A *485:12 0.00014499
38 *3129:A *485:12 7.35637e-05
39 *477:26 *3138:A 8.27532e-05
40 *477:26 *3139:A 9.77423e-05
*RES
1 *2394:Y *485:12 34.1036 
2 *485:12 *3139:A 10.675 
3 *485:12 *3138:A 37.1571 
*END

*D_NET *486 0.00471089
*CONN
*I *3306:A I *D sky130_fd_sc_hd__clkbuf_1
*I *3213:A I *D sky130_fd_sc_hd__buf_2
*I *2396:Y O *D sky130_fd_sc_hd__nor4b_1
*CAP
1 *3306:A 0
2 *3213:A 0.000817798
3 *2396:Y 0.000829773
4 *486:18 0.00164757
5 *3213:A *2399:B 4.81157e-05
6 *3213:A *2987:D 6.81335e-05
7 *3213:A *2987:GATE_N 0.000209186
8 *3213:A *3019:GATE_N 2.15363e-05
9 *3213:A *3194:A 3.45453e-05
10 *3213:A *850:31 0.000115711
11 *3213:A *870:24 8.06331e-05
12 *3213:A *904:10 0.000226835
13 *3213:A *938:26 0.000153615
14 *486:18 *3197:A 1.90936e-05
15 *486:18 *493:8 0.000123806
16 *486:18 *496:16 2.04825e-05
17 *486:18 *925:33 0.000100448
18 *486:18 *943:82 6.40275e-05
19 *2597:A1 *3213:A 0.000122091
20 *3115:A *3213:A 7.49387e-06
*RES
1 *2396:Y *486:18 28.5356 
2 *486:18 *3213:A 33.6929 
3 *486:18 *3306:A 9.3 
*END

*D_NET *487 0.00320182
*CONN
*I *3305:A I *D sky130_fd_sc_hd__clkbuf_1
*I *3372:A I *D sky130_fd_sc_hd__clkbuf_1
*I *2398:Y O *D sky130_fd_sc_hd__nor4b_1
*CAP
1 *3305:A 0.000274541
2 *3372:A 0.00048027
3 *2398:Y 6.59684e-05
4 *487:8 0.00082078
5 *3305:A *2599:C1 0
6 *3305:A *753:12 5.41494e-05
7 *3305:A *870:18 0.000126629
8 *3305:A *940:105 2.61337e-05
9 *3372:A *2400:C 3.80904e-05
10 *3372:A *2424:C 0.000146474
11 *3372:A *488:14 0
12 *3372:A *930:20 0.000780623
13 *3372:A *936:18 9.96264e-05
14 *3372:A *940:42 5.06854e-05
15 *3372:A *940:44 2.16719e-05
16 *3372:A *940:77 3.25078e-05
17 *3372:A *940:105 8.46292e-05
18 *487:8 *2416:C 9.90367e-05
*RES
1 *2398:Y *487:8 14.7464 
2 *487:8 *3372:A 25.4607 
3 *487:8 *3305:A 19.1393 
*END

*D_NET *488 0.0072011
*CONN
*I *3209:A I *D sky130_fd_sc_hd__buf_2
*I *3208:A I *D sky130_fd_sc_hd__clkbuf_4
*I *2400:X O *D sky130_fd_sc_hd__and4bb_1
*CAP
1 *3209:A 0.000951293
2 *3208:A 0.000485396
3 *2400:X 0.000482234
4 *488:14 0.00191892
5 *3208:A *2469:B1 0.000100478
6 *3208:A *2911:GATE_N 0.000300053
7 *3208:A *837:83 0.000394975
8 *3208:A *864:47 0.000142867
9 *3208:A *910:10 0
10 *3208:A *937:12 0.000846197
11 *3209:A *2462:B1 0.000137983
12 *3209:A *2600:B1 0.000180777
13 *3209:A *3067:D 5.17614e-05
14 *3209:A *808:78 3.60653e-05
15 *3209:A *922:16 0.000104578
16 *488:14 *2400:C 0
17 *488:14 *2424:B 5.01213e-05
18 *488:14 *2911:GATE_N 0.000218491
19 *488:14 *3304:A 0.000327564
20 *488:14 *930:20 0
21 *488:14 *937:12 0.000379693
22 *2462:B2 *3209:A 3.30352e-05
23 *2600:A1 *3209:A 2.28499e-05
24 *2600:B2 *3209:A 2.89016e-05
25 *3308:A *488:14 6.8646e-06
26 *3372:A *488:14 0
*RES
1 *2400:X *488:14 24.8357 
2 *488:14 *3208:A 28.675 
3 *488:14 *3209:A 25.7464 
*END

*D_NET *489 0.00329724
*CONN
*I *3207:A I *D sky130_fd_sc_hd__buf_2
*I *3371:A I *D sky130_fd_sc_hd__clkbuf_1
*I *2402:Y O *D sky130_fd_sc_hd__nor4b_1
*CAP
1 *3207:A 0
2 *3371:A 0.000383477
3 *2402:Y 0.000251268
4 *489:10 0.000634745
5 *3371:A *2420:D 0.000102563
6 *3371:A *491:12 0.00033218
7 *3371:A *498:16 5.06983e-05
8 *3371:A *647:10 0.000333888
9 *489:10 *3146:A 0.00014238
10 *489:10 *491:12 0.000150618
11 *489:10 *647:10 0.000259993
12 *489:10 *849:10 5.52302e-05
13 *489:10 *870:18 0.000130079
14 *489:10 *919:14 6.63058e-05
15 *3165:A *489:10 0.00040381
16 *380:10 *489:10 0
*RES
1 *2402:Y *489:10 22.6036 
2 *489:10 *3371:A 22.7286 
3 *489:10 *3207:A 13.8 
*END

*D_NET *490 0.0133054
*CONN
*I *3205:A I *D sky130_fd_sc_hd__clkbuf_2
*I *3204:A I *D sky130_fd_sc_hd__clkbuf_4
*I *2404:X O *D sky130_fd_sc_hd__and4bb_1
*CAP
1 *3205:A 0.0012985
2 *3204:A 0.00360064
3 *2404:X 0.000444739
4 *490:14 0.00534387
5 *3204:A *2592:B2 2.74457e-05
6 *3204:A *3078:GATE_N 9.60337e-06
7 *3204:A *3190:A 0.000106864
8 *3204:A *3200:A 0.000115606
9 *3204:A *491:12 0.000103347
10 *3204:A *807:22 2.22043e-05
11 *3204:A *920:26 0.000954086
12 *3205:A *2595:B1 0.000144773
13 *3205:A *2602:A 6.35819e-05
14 *3205:A *3051:D 3.14048e-05
15 *3205:A *498:16 0.000103
16 *3205:A *810:106 3.32631e-05
17 *3205:A *869:29 6.21521e-06
18 *3205:A *869:33 1.49363e-05
19 *3205:A *881:39 7.53238e-05
20 *3205:A *889:56 0.000101601
21 *3205:A *897:29 0.000224577
22 *3205:A *899:29 6.52967e-05
23 *490:14 *2907:D 4.16984e-05
24 *490:14 *830:20 1.98839e-05
25 *490:14 *940:14 0.000175892
26 *490:14 *948:33 9.87983e-06
27 *2595:A1 *3205:A 9.60939e-05
28 *2595:B2 *3205:A 5.19509e-05
29 *435:12 *3205:A 0
30 *435:12 *490:14 0
31 *477:26 *490:14 1.90936e-05
*RES
1 *2404:X *490:14 21.1967 
2 *490:14 *3204:A 31.9662 
3 *490:14 *3205:A 39.6648 
*END

*D_NET *491 0.0107872
*CONN
*I *3203:A I *D sky130_fd_sc_hd__clkbuf_2
*I *3202:A I *D sky130_fd_sc_hd__clkbuf_4
*I *2406:X O *D sky130_fd_sc_hd__and4bb_1
*CAP
1 *3203:A 0.000311909
2 *3202:A 0.000881593
3 *2406:X 0.00032092
4 *491:12 0.0019052
5 *491:6 0.00165643
6 *3202:A *2520:C1 0.000143137
7 *3202:A *2586:B1 9.56491e-05
8 *3202:A *3078:GATE_N 0.000382601
9 *3202:A *3190:A 0.000912747
10 *3202:A *499:38 0
11 *3202:A *807:18 0
12 *3202:A *863:8 5.71472e-05
13 *3202:A *898:10 5.6467e-05
14 *3202:A *914:6 2.89114e-05
15 *3203:A *2596:A2 0.000232399
16 *3203:A *2596:B1 9.41642e-05
17 *3203:A *3191:A 8.12055e-05
18 *3203:A *899:6 0.000274294
19 *3203:A *919:29 0.000117621
20 *491:6 *647:10 7.33786e-06
21 *491:6 *834:66 0.000139907
22 *491:12 *2420:C 5.01213e-05
23 *491:12 *2470:A 0.000128154
24 *491:12 *2470:B 3.92757e-05
25 *491:12 *2882:GATE_N 0.00012938
26 *491:12 *3190:A 0.000251391
27 *491:12 *3191:A 3.87941e-05
28 *491:12 *3200:A 0.000874976
29 *491:12 *492:14 0
30 *491:12 *499:38 0
31 *491:12 *647:10 0.000144089
32 *491:12 *849:31 0
33 *491:12 *875:122 2.1527e-05
34 *491:12 *919:14 7.83587e-05
35 *2519:B2 *3202:A 0.000144903
36 *2586:A1 *3202:A 5.49927e-05
37 *2596:B2 *3203:A 0.0001827
38 *2596:B2 *491:6 4.85033e-05
39 *3113:A *3203:A 0
40 *3145:A *3202:A 0.000101722
41 *3204:A *491:12 0.000103347
42 *3371:A *491:12 0.00033218
43 *381:18 *3202:A 0.000212548
44 *489:10 *491:12 0.000150618
*RES
1 *2406:X *491:6 13.1214 
2 *491:6 *491:12 28.9911 
3 *491:12 *3202:A 36.1661 
4 *491:6 *3203:A 17.9786 
*END

*D_NET *492 0.0042913
*CONN
*I *3201:A I *D sky130_fd_sc_hd__clkbuf_2
*I *3200:A I *D sky130_fd_sc_hd__clkbuf_4
*I *2408:X O *D sky130_fd_sc_hd__and4b_1
*CAP
1 *3201:A 2.05275e-05
2 *3200:A 0.000336667
3 *2408:X 0.000414854
4 *492:14 0.000772048
5 *3200:A *3190:A 0.000879113
6 *3201:A *866:39 1.58163e-05
7 *3201:A *893:37 4.08637e-05
8 *492:14 *2420:B 0.000187651
9 *492:14 *647:10 6.95019e-05
10 *492:14 *849:31 0.000196559
11 *492:14 *866:39 9.61999e-05
12 *492:14 *893:37 0.000270917
13 *3204:A *3200:A 0.000115606
14 *491:12 *3200:A 0.000874976
15 *491:12 *492:14 0
*RES
1 *2408:X *492:14 27.4429 
2 *492:14 *3200:A 29.9607 
3 *492:14 *3201:A 9.83571 
*END

*D_NET *493 0.00199585
*CONN
*I *3199:A I *D sky130_fd_sc_hd__clkbuf_2
*I *3304:A I *D sky130_fd_sc_hd__clkbuf_1
*I *2410:Y O *D sky130_fd_sc_hd__nor4b_1
*CAP
1 *3199:A 2.98339e-05
2 *3304:A 0.000196114
3 *2410:Y 0.000195476
4 *493:8 0.000421424
5 *3199:A *909:18 2.59355e-05
6 *3304:A *2424:B 7.79781e-06
7 *3304:A *840:44 9.41642e-05
8 *3304:A *892:33 9.60939e-05
9 *3304:A *909:18 0.000148903
10 *3304:A *937:12 0.000144696
11 *3304:A *943:43 1.19402e-05
12 *3304:A *947:34 0
13 *493:8 *3223:A 0
14 *493:8 *940:14 2.62628e-05
15 *493:8 *940:27 3.58934e-05
16 *493:8 *943:41 4.51815e-05
17 *493:8 *943:43 5.50215e-05
18 *493:8 *943:82 9.74231e-06
19 *493:8 *947:43 0
20 *383:10 *3304:A 0
21 *486:18 *493:8 0.000123806
22 *488:14 *3304:A 0.000327564
*RES
1 *2410:Y *493:8 18.4786 
2 *493:8 *3304:A 19.7286 
3 *493:8 *3199:A 14.3357 
*END

*D_NET *494 0.00513525
*CONN
*I *3197:A I *D sky130_fd_sc_hd__clkbuf_2
*I *3196:A I *D sky130_fd_sc_hd__clkbuf_4
*I *2412:X O *D sky130_fd_sc_hd__and4bb_1
*CAP
1 *3197:A 0.000221899
2 *3196:A 0.000771795
3 *2412:X 4.03106e-05
4 *494:8 0.001034
5 *3196:A *2395:A 5.03772e-05
6 *3196:A *2468:B1 0
7 *3196:A *2598:B1 1.33434e-05
8 *3196:A *2599:C1 0.000573375
9 *3196:A *496:16 0.000356262
10 *3196:A *559:12 7.6644e-05
11 *3196:A *893:12 0.000249244
12 *3196:A *893:37 0.000162407
13 *3196:A *906:10 9.90367e-05
14 *3196:A *906:20 4.46186e-06
15 *3196:A *930:20 6.57131e-05
16 *3196:A *936:20 8.26605e-05
17 *3196:A *936:24 0
18 *3197:A *2599:A2 0.000139913
19 *3197:A *2599:C1 0.000355788
20 *3197:A *3193:A 2.61337e-05
21 *3197:A *496:16 7.25152e-05
22 *3197:A *870:18 0.000108603
23 *3197:A *938:14 0.000265453
24 *3197:A *938:119 0.000225616
25 *494:8 *850:31 8.25843e-06
26 *494:8 *930:20 1.21258e-05
27 *494:8 *938:26 9.41642e-05
28 *494:8 *947:77 6.05161e-06
29 *486:18 *3197:A 1.90936e-05
*RES
1 *2412:X *494:8 14.7464 
2 *494:8 *3196:A 33.9757 
3 *494:8 *3197:A 21.7286 
*END

*D_NET *495 0.00518112
*CONN
*I *3194:A I *D sky130_fd_sc_hd__clkbuf_4
*I *3195:A I *D sky130_fd_sc_hd__clkbuf_2
*I *2414:X O *D sky130_fd_sc_hd__and4bb_1
*CAP
1 *3194:A 0.00109947
2 *3195:A 0.000229498
3 *2414:X 0.000144664
4 *495:8 0.00147363
5 *3194:A *2987:GATE_N 0.000619024
6 *3194:A *2994:D 9.76491e-05
7 *3194:A *3019:GATE_N 1.74352e-05
8 *3194:A *496:16 7.60306e-05
9 *3194:A *815:12 6.49132e-05
10 *3194:A *850:31 1.37292e-05
11 *3194:A *850:33 6.8646e-06
12 *3194:A *904:10 2.07382e-05
13 *3194:A *938:26 5.52238e-05
14 *3195:A *2599:A2 0.000527071
15 *3195:A *3083:GATE_N 0.000240477
16 *3195:A *496:16 0.000177867
17 *3195:A *850:33 1.37292e-05
18 *495:8 *925:33 0.000134471
19 *2599:A1 *3194:A 3.69697e-05
20 *3115:A *3194:A 9.71197e-05
21 *3213:A *3194:A 3.45453e-05
*RES
1 *2414:X *495:8 16.3893 
2 *495:8 *3195:A 21.2107 
3 *495:8 *3194:A 29.4429 
*END

*D_NET *496 0.00845138
*CONN
*I *3193:A I *D sky130_fd_sc_hd__clkbuf_2
*I *3192:A I *D sky130_fd_sc_hd__clkbuf_4
*I *2416:X O *D sky130_fd_sc_hd__and4b_1
*CAP
1 *3193:A 0.000126059
2 *3192:A 0.00015891
3 *2416:X 0.00010375
4 *496:16 0.00192573
5 *496:8 0.00199663
6 *3192:A *2612:A2 0
7 *3192:A *2612:B1 5.33005e-05
8 *3192:A *900:6 0.000149489
9 *3192:A *900:21 1.02936e-05
10 *3192:A *934:6 0.000437756
11 *3192:A *934:12 4.43256e-05
12 *3193:A *2599:B1 6.09476e-05
13 *3193:A *2599:C1 6.8646e-06
14 *3193:A *870:18 5.01213e-05
15 *3193:A *938:26 7.79781e-06
16 *496:8 *938:119 0.000137983
17 *496:16 *2543:C1 7.8327e-05
18 *496:16 *2622:A2 0.00067848
19 *496:16 *2623:C1 6.98246e-05
20 *496:16 *2988:D 0.000222878
21 *496:16 *3083:GATE_N 0.000345716
22 *496:16 *559:12 7.83587e-05
23 *496:16 *805:54 0
24 *496:16 *816:8 0
25 *496:16 *816:10 0
26 *496:16 *832:33 0
27 *496:16 *832:37 0
28 *496:16 *844:20 1.53815e-05
29 *496:16 *847:36 0.000148911
30 *496:16 *847:51 0
31 *496:16 *847:57 0.000173097
32 *496:16 *875:24 0.000115072
33 *496:16 *875:30 0
34 *496:16 *893:12 1.21955e-05
35 *496:16 *905:10 7.82674e-05
36 *496:16 *929:83 3.61333e-05
37 *496:16 *934:12 9.10731e-05
38 *496:16 *936:20 0
39 *496:16 *936:24 0
40 *496:16 *938:26 5.94923e-05
41 *2468:B2 *496:16 0.00012401
42 *2597:A1 *3193:A 0
43 *2599:A1 *3193:A 0
44 *2599:A1 *496:16 0
45 *2609:B2 *496:16 5.48488e-05
46 *2612:A1 *3192:A 5.96516e-05
47 *2612:A1 *496:16 1.04232e-05
48 *3194:A *496:16 7.60306e-05
49 *3195:A *496:16 0.000177867
50 *3196:A *496:16 0.000356262
51 *3197:A *3193:A 2.61337e-05
52 *3197:A *496:16 7.25152e-05
53 *486:18 *496:16 2.04825e-05
*RES
1 *2416:X *496:8 15.1571 
2 *496:8 *496:16 46.4107 
3 *496:16 *3192:A 14.7821 
4 *496:8 *3193:A 16.6571 
*END

*D_NET *497 0.00908143
*CONN
*I *3191:A I *D sky130_fd_sc_hd__clkbuf_2
*I *3190:A I *D sky130_fd_sc_hd__clkbuf_4
*I *2418:X O *D sky130_fd_sc_hd__and4bb_1
*CAP
1 *3191:A 0.000266811
2 *3190:A 0.00149937
3 *2418:X 0.000603011
4 *497:8 0.00236919
5 *3190:A *2420:C 0.000100831
6 *3190:A *2519:B1 0
7 *3190:A *2601:C1 6.76188e-05
8 *3190:A *2939:GATE_N 0.000295122
9 *3190:A *3160:A 0
10 *3190:A *899:29 0
11 *3191:A *2596:A2 0.000188586
12 *3191:A *2596:B1 1.87955e-05
13 *3191:A *919:14 0.000497212
14 *497:8 *2875:D 0.000479645
15 *497:8 *3035:D 9.31893e-05
16 *497:8 *850:31 1.04066e-05
17 *497:8 *941:21 5.33005e-05
18 *2596:A1 *3190:A 0
19 *2596:A1 *3191:A 0
20 *2596:B2 *3191:A 5.52302e-05
21 *3145:A *3190:A 0.000212997
22 *3200:A *3190:A 0.000879113
23 *3202:A *3190:A 0.000912747
24 *3203:A *3191:A 8.12055e-05
25 *3204:A *3190:A 0.000106864
26 *491:12 *3190:A 0.000251391
27 *491:12 *3191:A 3.87941e-05
*RES
1 *2418:X *497:8 21.7286 
2 *497:8 *3190:A 47.9786 
3 *497:8 *3191:A 21.3893 
*END

*D_NET *498 0.00727449
*CONN
*I *3189:A I *D sky130_fd_sc_hd__clkbuf_2
*I *3188:A I *D sky130_fd_sc_hd__clkbuf_4
*I *2420:X O *D sky130_fd_sc_hd__and4b_1
*CAP
1 *3189:A 0
2 *3188:A 0.00164562
3 *2420:X 0.000702985
4 *498:16 0.0023486
5 *3188:A *2464:A2 0
6 *3188:A *2471:B1 6.2589e-06
7 *3188:A *2520:A2 0
8 *3188:A *2603:B1 0.00015563
9 *3188:A *531:18 5.26091e-05
10 *3188:A *822:39 0.000125582
11 *3188:A *865:59 0.000527887
12 *3188:A *881:39 0.000535043
13 *3188:A *881:55 9.32764e-05
14 *3188:A *881:57 0
15 *3188:A *912:43 2.57858e-05
16 *3188:A *917:34 0
17 *3188:A *918:147 0
18 *3188:A *919:35 4.53834e-05
19 *3188:A *919:55 0.000133706
20 *498:16 *2603:B1 5.52238e-05
21 *498:16 *3051:D 9.60875e-05
22 *498:16 *810:106 9.71197e-05
23 *498:16 *917:8 0.000113378
24 *498:16 *917:34 8.7636e-06
25 *2463:A1 *3188:A 1.30748e-05
26 *2496:B2 *3188:A 0.000117457
27 *2499:A1 *3188:A 7.24753e-05
28 *2595:A1 *498:16 2.5215e-05
29 *2595:B2 *498:16 6.26743e-05
30 *2792:D *3188:A 6.09476e-05
31 *3205:A *498:16 0.000103
32 *3371:A *498:16 5.06983e-05
*RES
1 *2420:X *498:16 22.05 
2 *498:16 *3188:A 49.7286 
3 *498:16 *3189:A 9.3 
*END

*D_NET *499 0.00817256
*CONN
*I *3187:A I *D sky130_fd_sc_hd__clkbuf_2
*I *3186:A I *D sky130_fd_sc_hd__clkbuf_4
*I *2422:X O *D sky130_fd_sc_hd__and4b_1
*CAP
1 *3187:A 0
2 *3186:A 0.000157765
3 *2422:X 0.000447345
4 *499:38 0.00145089
5 *499:18 0.00174047
6 *3186:A *2586:A2 5.33005e-05
7 *3186:A *847:125 2.23592e-05
8 *3186:A *914:95 4.17564e-05
9 *3186:A *918:124 0.000100474
10 *499:18 *2422:C 5.52238e-05
11 *499:18 *2891:D 8.44271e-06
12 *499:18 *3035:GATE_N 0.000163822
13 *499:18 *834:66 0.00022836
14 *499:18 *866:39 1.65169e-05
15 *499:18 *892:33 8.6229e-06
16 *499:18 *893:37 0.000266479
17 *499:18 *939:46 5.41794e-05
18 *499:18 *944:31 5.52238e-05
19 *499:38 *2520:B1 0.000108353
20 *499:38 *2520:C1 6.09782e-05
21 *499:38 *2540:A2 0.000350817
22 *499:38 *2585:A2 0.000259035
23 *499:38 *2600:B1 6.57603e-05
24 *499:38 *2882:GATE_N 0.00051129
25 *499:38 *2932:D 0
26 *499:38 *2943:GATE_N 2.15383e-05
27 *499:38 *580:10 7.83659e-05
28 *499:38 *807:18 5.33072e-05
29 *499:38 *849:31 1.01075e-05
30 *499:38 *849:35 5.05056e-05
31 *499:38 *875:122 0.000197977
32 *499:38 *895:8 0.000123812
33 *499:38 *899:33 0.000594719
34 *499:38 *922:27 6.00214e-05
35 *499:38 *925:43 5.27703e-06
36 *2519:A1 *499:38 9.65172e-05
37 *2520:A1 *499:38 0.000329751
38 *2520:B2 *499:38 3.57844e-05
39 *2600:A1 *499:18 5.33005e-05
40 *2600:A1 *499:38 3.48013e-05
41 *2601:B2 *499:38 0.00018077
42 *3145:A *3186:A 1.85502e-05
43 *3202:A *499:38 0
44 *491:12 *499:38 0
*RES
1 *2422:X *499:18 28.8 
2 *499:18 *499:38 48.0714 
3 *499:38 *3186:A 21.1929 
4 *499:18 *3187:A 9.3 
*END

*D_NET *500 0.00104493
*CONN
*I *3184:A I *D sky130_fd_sc_hd__clkbuf_4
*I *3185:A I *D sky130_fd_sc_hd__buf_2
*I *2424:X O *D sky130_fd_sc_hd__and4_1
*CAP
1 *3184:A 0
2 *3185:A 9.1938e-05
3 *2424:X 0.000119865
4 *500:10 0.000211803
5 *3185:A *2468:B1 8.86413e-05
6 *3185:A *840:44 0.000310292
7 *3185:A *892:33 5.52302e-05
8 *500:10 *2598:B1 0
9 *500:10 *930:20 0.000167161
*RES
1 *2424:X *500:10 20.55 
2 *500:10 *3185:A 12.3 
3 *500:10 *3184:A 9.3 
*END

*D_NET *501 0.00193031
*CONN
*I *3358:A I *D sky130_fd_sc_hd__dlygate4sd1_1
*I *2427:A I *D sky130_fd_sc_hd__inv_8
*I *2700:B2 I *D sky130_fd_sc_hd__o2bb2a_4
*I *2426:X O *D sky130_fd_sc_hd__or4b_4
*CAP
1 *3358:A 0.000167753
2 *2427:A 0
3 *2700:B2 0
4 *2426:X 0.000321239
5 *501:17 0.00029126
6 *501:8 0.000444746
7 *3358:A *2704:B2 2.89016e-05
8 *3358:A *883:10 2.89016e-05
9 *3358:A *883:32 1.76039e-05
10 *3358:A *1012:12 0
11 *3358:A *1047:8 0
12 *501:8 *2378:A 0
13 *501:8 *3233:A 0
14 *501:8 *672:53 0.000401538
15 *501:8 *679:16 3.36444e-05
16 *501:8 *770:10 6.8646e-06
17 *501:8 *891:72 7.6644e-05
18 *501:8 *969:63 4.84319e-05
19 *501:8 *982:75 0
20 *501:17 *2700:A2_N 0
21 *501:17 *2703:C1 1.41029e-05
22 *501:17 *672:53 1.02504e-05
23 *501:17 *679:16 3.84291e-05
24 *501:17 *891:23 0
25 *501:17 *1012:12 0
26 *501:17 *1047:8 0
*RES
1 *2426:X *501:8 20.6036 
2 *501:8 *2700:B2 13.8 
3 *501:8 *501:17 2.25 
4 *501:17 *2427:A 13.8 
5 *501:17 *3358:A 16.8893 
*END

*D_NET *502 0.00583857
*CONN
*I *2680:B I *D sky130_fd_sc_hd__and3_1
*I *2689:A2 I *D sky130_fd_sc_hd__o311a_1
*I *2698:A2 I *D sky130_fd_sc_hd__a31o_1
*I *2684:A2 I *D sky130_fd_sc_hd__o311a_1
*I *2682:A I *D sky130_fd_sc_hd__nor2_1
*I *2428:Y O *D sky130_fd_sc_hd__nand2_1
*CAP
1 *2680:B 0.000240025
2 *2689:A2 1.79186e-05
3 *2698:A2 0
4 *2684:A2 8.66545e-05
5 *2682:A 8.86955e-05
6 *2428:Y 0
7 *502:55 0.000466663
8 *502:42 0.000572939
9 *502:10 0.000308654
10 *502:4 0.000497524
11 *2680:B *2426:A 1.18647e-05
12 *2680:B *679:16 0.000555747
13 *2680:B *1012:12 0.000599378
14 *2682:A *2383:B 0
15 *2682:A *2699:A2 4.884e-05
16 *2684:A2 *2428:A 4.46186e-06
17 *2684:A2 *2699:A1 0.000134634
18 *2684:A2 *953:10 6.37316e-05
19 *2689:A2 *2695:A 5.50901e-05
20 *2689:A2 *679:16 2.59355e-05
21 *502:10 *2428:A 9.82841e-05
22 *502:10 *2699:A1 0.000148903
23 *502:10 *510:32 0.00010096
24 *502:10 *773:20 9.90431e-05
25 *502:42 *2383:B 1.39841e-05
26 *502:42 *2428:A 2.18827e-05
27 *502:42 *2428:B 0
28 *502:42 *2698:A3 0.000343715
29 *502:42 *2699:A2 0.000120504
30 *502:42 *2699:B1 5.87889e-05
31 *502:42 *508:18 9.41642e-05
32 *502:42 *510:32 0.000131439
33 *502:42 *773:20 0.00014285
34 *502:55 *2426:A 6.86379e-05
35 *502:55 *2648:A0 1.38752e-05
36 *502:55 *2689:A1 4.19535e-05
37 *502:55 *508:18 3.53079e-05
38 *502:55 *696:20 0.000139907
39 *502:55 *1012:12 8.05091e-05
40 *2383:C_N *502:42 1.38323e-05
41 *2383:C_N *502:55 5.33005e-05
42 *474:45 *502:55 8.70594e-05
43 *475:14 *2682:A 9.31011e-05
44 *475:14 *502:42 1.99099e-05
45 *485:12 *502:10 3.79047e-05
*RES
1 *2428:Y *502:4 9.3 
2 *502:4 *502:10 8.60714 
3 *502:10 *2682:A 15.9964 
4 *502:10 *2684:A2 15.7464 
5 *502:4 *502:42 18.0714 
6 *502:42 *2698:A2 9.3 
7 *502:42 *502:55 9.76786 
8 *502:55 *2689:A2 14.3357 
9 *502:55 *2680:B 21.8179 
*END

*D_NET *503 0.00963088
*CONN
*I *2720:A1 I *D sky130_fd_sc_hd__a21bo_1
*I *2702:A2 I *D sky130_fd_sc_hd__o32a_1
*I *2692:B I *D sky130_fd_sc_hd__and3b_1
*I *2758:B I *D sky130_fd_sc_hd__and4b_1
*I *2431:B I *D sky130_fd_sc_hd__nor2_4
*I *2439:B I *D sky130_fd_sc_hd__or2_1
*I *2429:X O *D sky130_fd_sc_hd__and3b_2
*CAP
1 *2720:A1 0.00047577
2 *2702:A2 0.000271296
3 *2692:B 0
4 *2758:B 0.000461775
5 *2431:B 0
6 *2439:B 0.00026959
7 *2429:X 3.43404e-05
8 *503:62 0.000803608
9 *503:53 0.000102492
10 *503:31 0.000475489
11 *503:16 0.000841973
12 *503:8 0.000638959
13 *2439:B *2672:A 8.47107e-05
14 *2439:B *982:8 2.89016e-05
15 *2439:B *1022:24 9.25014e-06
16 *2439:B *1050:10 3.56976e-05
17 *2439:B *1050:25 4.75252e-05
18 *2702:A2 *2702:A1 5.52302e-05
19 *2702:A2 *3233:A 9.40271e-05
20 *2702:A2 *3362:A 0.000142856
21 *2702:A2 *676:16 0.000242736
22 *2702:A2 *954:38 0.000249921
23 *2720:A1 *2669:A 0.00010096
24 *2720:A1 *2749:B1 1.37292e-05
25 *2720:A1 *674:30 0.000188586
26 *2720:A1 *675:10 6.59765e-05
27 *2720:A1 *675:12 8.12651e-05
28 *2720:A1 *772:10 0
29 *2720:A1 *772:39 0
30 *2720:A1 *772:43 4.88637e-05
31 *2758:B *2757:A2 0.000103275
32 *2758:B *2757:B1 0.000125731
33 *2758:B *2759:A1 3.51442e-05
34 *2758:B *3322:A 0.00025188
35 *2758:B *3361:A 0.000136958
36 *2758:B *505:10 3.68898e-05
37 *2758:B *739:22 2.90164e-05
38 *2758:B *882:52 2.09495e-05
39 *2758:B *885:8 0.000110238
40 *2758:B *885:14 1.90936e-05
41 *2758:B *988:14 5.2177e-05
42 *503:8 *2695:B 0
43 *503:8 *675:12 1.8038e-05
44 *503:16 *2672:A 4.99283e-06
45 *503:16 *2749:A4 4.88232e-05
46 *503:16 *885:97 0.00113377
47 *503:16 *887:99 0.000317265
48 *503:16 *1022:24 6.54576e-05
49 *503:31 *505:10 5.52302e-05
50 *503:53 *675:12 3.09981e-05
51 *503:62 *3362:A 0
52 *503:62 *675:12 3.5477e-05
53 PADDR[2] *2758:B 0.000218679
54 PADDR[2] *503:31 2.14757e-05
55 *2444:A *2758:B 0.00032691
56 *2758:A_N *2758:B 0.000126439
57 *2824:GATE_N *2439:B 0.000127439
58 *3178:A *2439:B 0.000275579
59 *3178:A *503:16 3.74267e-05
*RES
1 *2429:X *503:8 14.3804 
2 *503:8 *503:16 9.85617 
3 *503:16 *2439:B 21.1393 
4 *503:16 *503:31 5.03571 
5 *503:31 *2431:B 9.3 
6 *503:31 *2758:B 32.8714 
7 *503:8 *503:53 0.883929 
8 *503:53 *2692:B 13.8 
9 *503:53 *503:62 1.03571 
10 *503:62 *2702:A2 21.5857 
11 *503:62 *2720:A1 21.1929 
*END

*D_NET *504 0.00453498
*CONN
*I *2749:A2 I *D sky130_fd_sc_hd__o41a_4
*I *3183:A I *D sky130_fd_sc_hd__buf_2
*I *2430:Y O *D sky130_fd_sc_hd__nand3b_1
*CAP
1 *2749:A2 2.23854e-05
2 *3183:A 0.000325342
3 *2430:Y 0.000261161
4 *504:12 0.000608888
5 *3183:A *2680:C 0.000147512
6 *3183:A *2685:A 5.52302e-05
7 *3183:A *2749:A1 9.90431e-05
8 *3183:A *3101:A 0.000253533
9 *3183:A *672:43 0.000910862
10 *3183:A *950:80 0.00038907
11 *3183:A *982:52 0.000335232
12 *3183:A *1048:31 0.000222666
13 *504:12 *2381:A 1.94945e-05
14 *504:12 *2680:C 0.000120983
15 *504:12 *2696:B 0.000118585
16 *504:12 *2749:B1 5.52302e-05
17 *504:12 *672:43 0.000331896
18 *504:12 *696:20 6.50253e-05
19 *504:12 *952:36 8.6229e-06
20 *504:12 *997:20 0.000148911
21 *2680:A *3183:A 3.53079e-05
*RES
1 *2430:Y *504:12 25.675 
2 *504:12 *3183:A 22.5857 
3 *504:12 *2749:A2 9.72857 
*END

*D_NET *505 0.0117985
*CONN
*I *2751:B1 I *D sky130_fd_sc_hd__a221o_1
*I *2710:B1 I *D sky130_fd_sc_hd__a221o_1
*I *2718:B1 I *D sky130_fd_sc_hd__a221o_1
*I *2759:B1 I *D sky130_fd_sc_hd__a221o_1
*I *2434:A1 I *D sky130_fd_sc_hd__a211oi_2
*I *2433:B I *D sky130_fd_sc_hd__nand2_4
*I *2431:Y O *D sky130_fd_sc_hd__nor2_4
*CAP
1 *2751:B1 1.84629e-05
2 *2710:B1 0.000447487
3 *2718:B1 0.000807236
4 *2759:B1 0.000471726
5 *2434:A1 0.000337007
6 *2433:B 2.23854e-05
7 *2431:Y 2.6373e-05
8 *505:61 0.00165012
9 *505:57 0.000460852
10 *505:38 0.00101111
11 *505:10 0.00082267
12 *505:6 0.00098204
13 *2434:A1 *507:12 0.000222614
14 *2434:A1 *794:12 0
15 *2434:A1 *989:18 7.15591e-05
16 *2710:B1 *2710:A1 9.54798e-06
17 *2710:B1 *2710:B2 6.91411e-05
18 *2710:B1 *2711:S 0
19 *2710:B1 *2717:A2 6.99087e-05
20 *2710:B1 *3239:A 0
21 *2710:B1 *788:16 9.00664e-05
22 *2710:B1 *882:19 0
23 *2710:B1 *997:20 0
24 *2718:B1 *2710:B2 0
25 *2718:B1 *2716:B 4.46689e-05
26 *2718:B1 *2718:A2 0.000498833
27 *2718:B1 *674:18 2.01525e-05
28 *2751:B1 *2751:A1 4.28365e-05
29 *2759:B1 *2751:A1 5.52302e-05
30 *2759:B1 *2753:B1 0.00010096
31 *2759:B1 *2759:A1 2.27189e-05
32 *2759:B1 *2759:A2 0.000139907
33 *2759:B1 *2759:B2 1.28809e-05
34 *505:6 *1022:24 5.33005e-05
35 *505:10 *3361:A 0.000439685
36 *505:10 *970:12 0.000139907
37 *505:10 *1022:24 9.60939e-05
38 *505:38 *2448:B 2.04825e-05
39 *505:38 *3090:CLK 0.00010964
40 *505:38 *3091:RESET_B 9.91086e-05
41 *505:38 *772:56 2.72545e-05
42 *505:38 *882:44 0
43 *505:38 *982:27 0.00018545
44 *505:38 *982:52 0.000234377
45 *505:38 *1050:31 8.61727e-05
46 *505:38 *1050:37 0.000141019
47 *505:57 *2751:A1 6.35819e-05
48 *505:57 *882:44 6.8646e-06
49 *505:61 *2718:A2 0.000154555
50 PADDR[2] *505:6 9.41642e-05
51 PADDR[2] *505:10 3.63805e-05
52 *2433:A *2434:A1 0.000283187
53 *2434:A2 *2434:A1 5.83233e-05
54 *2753:A2 *2759:B1 3.16723e-05
55 *2755:B1 *505:38 0.000226758
56 *2758:B *505:10 3.68898e-05
57 *2758:C *2759:B1 5.33005e-05
58 *3092:D *505:38 2.26973e-05
59 *3251:A *2751:B1 1.66761e-05
60 *3251:A *505:38 3.17148e-05
61 *3251:A *505:57 3.8326e-05
62 *3251:A *505:61 3.02517e-05
63 *3278:A *505:61 0
64 *115:26 *2759:B1 0.000235013
65 *115:34 *2759:B1 3.17594e-05
66 *116:57 *2759:B1 9.69243e-05
67 *478:36 *2434:A1 3.32631e-05
68 *503:31 *505:10 5.52302e-05
*RES
1 *2431:Y *505:6 10.2464 
2 *505:6 *505:10 9.07143 
3 *505:10 *2433:B 9.72857 
4 *505:10 *2434:A1 26.1036 
5 *505:6 *505:38 17.6071 
6 *505:38 *2759:B1 22.0143 
7 *505:38 *505:57 1.1875 
8 *505:57 *505:61 4.3218 
9 *505:61 *2718:B1 19.567 
10 *505:61 *2710:B1 25.6832 
11 *505:57 *2751:B1 14.3804 
*END

*D_NET *506 0.00219511
*CONN
*I *2705:A2 I *D sky130_fd_sc_hd__o21ai_1
*I *2722:A1_N I *D sky130_fd_sc_hd__a2bb2o_1
*I *2432:Y O *D sky130_fd_sc_hd__nand2_1
*CAP
1 *2705:A2 0.000313264
2 *2722:A1_N 3.46432e-05
3 *2432:Y 5.02245e-05
4 *506:10 0.000398132
5 *2705:A2 *2704:A1_N 5.52302e-05
6 *2705:A2 *2705:B1 9.60939e-05
7 *2705:A2 *2706:A1 0.000177821
8 *2705:A2 *2723:B1 0.000117809
9 *2705:A2 *2738:C 1.21101e-05
10 *2705:A2 *2788:RESET_B 7.43578e-06
11 *2705:A2 *3365:A 0.000363193
12 *2705:A2 *730:6 2.14658e-05
13 *2705:A2 *957:77 5.52238e-05
14 *2705:A2 *1047:27 4.18895e-05
15 *2722:A1_N *2723:B1 6.05161e-06
16 *2722:A1_N *981:35 5.33005e-05
17 *2722:A1_N *1047:27 9.60939e-05
18 *506:10 *2738:C 7.80714e-06
19 *506:10 *2745:A1 3.17148e-05
20 *506:10 *3365:A 0.000127446
21 *506:10 *981:18 0.000128161
*RES
1 *2432:Y *506:10 20.2464 
2 *506:10 *2722:A1_N 10.2464 
3 *506:10 *2705:A2 17.4071 
*END

*D_NET *507 0.00484327
*CONN
*I *2436:B I *D sky130_fd_sc_hd__and3b_1
*I *2437:A I *D sky130_fd_sc_hd__and3_1
*I *2435:B I *D sky130_fd_sc_hd__and3b_1
*I *2438:A I *D sky130_fd_sc_hd__and2_4
*I *2433:Y O *D sky130_fd_sc_hd__nand2_4
*CAP
1 *2436:B 0
2 *2437:A 0.000537516
3 *2435:B 0
4 *2438:A 0.000196821
5 *2433:Y 0.000193228
6 *507:26 0.000465414
7 *507:24 0.00108545
8 *507:12 0.000472572
9 *2437:A *766:27 0
10 *2437:A *794:12 0
11 *2437:A *935:12 3.34779e-05
12 *2437:A *982:8 7.02611e-05
13 *2437:A *989:18 4.38063e-05
14 *2438:A *3326:A 0.00012894
15 *2438:A *887:22 9.71197e-05
16 *507:12 *3327:A 5.39166e-06
17 *507:12 *989:18 0.000244372
18 *507:24 *2435:C 4.71257e-05
19 *507:24 *2436:A_N 7.80714e-06
20 *507:24 *2436:C 4.33438e-05
21 *507:24 *766:27 0.000130103
22 *507:24 *767:27 0.000103981
23 *507:24 *767:42 2.49484e-05
24 *507:24 *970:12 4.06875e-05
25 *507:24 *1024:12 0.00012501
26 *507:26 *982:8 0.000128409
27 PENABLE *2437:A 3.48013e-05
28 *2433:A *507:12 1.31516e-05
29 *2434:A1 *507:12 0.000222614
30 *2438:B *2438:A 0.000102228
31 *3263:A *2437:A 6.39808e-05
32 *431:10 *2438:A 8.359e-05
33 *431:10 *507:26 9.71197e-05
34 *433:10 *2438:A 0
*RES
1 *2433:Y *507:12 22.8179 
2 *507:12 *507:24 15.5893 
3 *507:24 *507:26 3.41071 
4 *507:26 *2438:A 23.1571 
5 *507:26 *2435:B 9.3 
6 *507:24 *2437:A 26.0143 
7 *507:12 *2436:B 9.3 
*END

*D_NET *508 0.00573346
*CONN
*I *2684:A3 I *D sky130_fd_sc_hd__o311a_1
*I *2682:B I *D sky130_fd_sc_hd__nor2_1
*I *2681:C I *D sky130_fd_sc_hd__or3_1
*I *2689:A3 I *D sky130_fd_sc_hd__o311a_1
*I *2440:Y O *D sky130_fd_sc_hd__nand2b_1
*CAP
1 *2684:A3 2.37855e-05
2 *2682:B 0.000224182
3 *2681:C 0.000282374
4 *2689:A3 9.51708e-05
5 *2440:Y 0.000147332
6 *508:46 0.000620377
7 *508:18 0.000763097
8 *508:10 0.000905293
9 *2681:C *2689:C1 0.00037335
10 *2681:C *3233:A 0.000139907
11 *2681:C *956:26 1.44883e-05
12 *2681:C *969:50 2.42516e-05
13 *2681:C *969:63 2.59355e-05
14 *2681:C *1012:12 0.000423992
15 *2682:B *2684:B1 5.30637e-06
16 *2682:B *2685:B 2.83284e-06
17 *2682:B *2699:A1 0.000145598
18 *2689:A3 *2695:A 8.65736e-05
19 *508:10 *2428:B 0.000245913
20 *508:10 *773:20 0.000208839
21 *508:18 *696:20 0.00026546
22 *508:18 *956:26 1.95705e-05
23 *508:18 *1012:12 7.40526e-05
24 *508:46 *2428:B 6.55169e-05
25 *508:46 *2684:B1 1.92789e-05
26 *508:46 *2690:B1 3.78581e-06
27 *508:46 *2695:A 9.60875e-05
28 *508:46 *2697:A 2.95641e-05
29 *508:46 *2697:D_N 0.00014183
30 *508:46 *773:20 7.40526e-05
31 *2684:C1 *2682:B 2.65242e-05
32 *2684:C1 *508:46 2.96669e-05
33 *502:42 *508:18 9.41642e-05
34 *502:55 *508:18 3.53079e-05
*RES
1 *2440:Y *508:10 17.3 
2 *508:10 *508:18 14.2679 
3 *508:18 *2689:A3 15.175 
4 *508:18 *2681:C 21.05 
5 *508:10 *508:46 10.1786 
6 *508:46 *2682:B 21.6036 
7 *508:46 *2684:A3 9.72857 
*END

*D_NET *509 0.00401573
*CONN
*I *3182:A I *D sky130_fd_sc_hd__buf_12
*I *3105:A I *D sky130_fd_sc_hd__clkbuf_1
*I *2441:X O *D sky130_fd_sc_hd__or4bb_4
*CAP
1 *3182:A 2.61003e-05
2 *3105:A 0.000634505
3 *2441:X 0.00069155
4 *509:8 0.00135216
5 *3105:A *2507:C1 5.86416e-05
6 *3105:A *2509:C1 0.000175892
7 *3105:A *2915:GATE_N 5.33005e-05
8 *3105:A *823:68 0.000234797
9 *3105:A *828:60 0
10 *3105:A *828:70 5.33005e-05
11 *3105:A *838:18 2.11543e-05
12 *3105:A *838:28 4.04012e-05
13 *3105:A *895:81 2.77258e-05
14 *3105:A *898:161 0.000447951
15 *3182:A *2507:C1 2.89114e-05
16 *509:8 *2388:A 0
17 *509:8 *2447:A_N 2.37761e-05
18 *509:8 *2447:C 0
19 *509:8 *2450:C 0
20 *509:8 *2671:A3 1.02504e-05
21 *509:8 *795:26 0
22 *509:8 *828:60 0
23 *2506:A1 *3105:A 0
24 *2507:A1 *3105:A 0.00010197
25 *2507:B2 *3105:A 3.33467e-05
26 *2804:D *3105:A 0
27 *2804:D *509:8 0
*RES
1 *2441:X *509:8 25.4607 
2 *509:8 *3105:A 28.6036 
3 *509:8 *3182:A 14.3357 
*END

*D_NET *510 0.0130878
*CONN
*I *2694:B I *D sky130_fd_sc_hd__and3_1
*I *2686:A2 I *D sky130_fd_sc_hd__a31o_1
*I *2761:A2 I *D sky130_fd_sc_hd__a32o_1
*I *2768:A2 I *D sky130_fd_sc_hd__o21a_1
*I *2769:C I *D sky130_fd_sc_hd__or3_1
*I *2449:X O *D sky130_fd_sc_hd__and4b_1
*CAP
1 *2694:B 0.000101357
2 *2686:A2 1.66814e-05
3 *2761:A2 2.13275e-05
4 *2768:A2 0.000307423
5 *2769:C 0
6 *2449:X 0.000182268
7 *510:46 0.00132324
8 *510:38 0.00143379
9 *510:32 0.00198623
10 *510:12 0.00185652
11 *2686:A2 *2686:B1 1.22604e-05
12 *2694:B *950:10 0.000135028
13 *2761:A2 *2761:A3 3.24989e-05
14 *2761:A2 *2764:D 1.43455e-05
15 *2761:A2 *868:70 1.02504e-05
16 *2768:A2 *2768:B1 0.000146513
17 *2768:A2 *2769:B 7.83587e-05
18 *2768:A2 *2771:B 0
19 *2768:A2 *945:10 0
20 *2768:A2 *945:14 0
21 *510:12 *2450:D 0.000188118
22 *510:12 *2664:D 5.01138e-05
23 *510:12 *2694:A 9.25014e-06
24 *510:12 *775:8 3.52899e-05
25 *510:12 *966:16 9.41642e-05
26 *510:32 *2440:A_N 8.3725e-05
27 *510:32 *2440:B 1.16613e-05
28 *510:32 *2686:B1 1.00733e-05
29 *510:32 *2783:RESET_B 0
30 *510:32 *675:37 3.74194e-05
31 *510:32 *773:20 0.000459692
32 *510:32 *931:14 0
33 *510:32 *950:10 0.000563309
34 *510:38 *2761:A3 0.000110717
35 *510:38 *2761:B2 0.000344232
36 *510:38 *2764:D 4.10989e-05
37 *510:38 *675:37 2.59355e-05
38 *510:38 *751:16 0
39 *510:38 *801:14 7.80714e-06
40 *510:46 *2697:A 0.000298663
41 *510:46 *885:115 0.000108045
42 *510:46 *887:105 6.20217e-05
43 *510:46 *949:25 0.000398428
44 *510:46 *949:29 0.00101421
45 *510:46 *1019:12 0.000779515
46 *2394:B1 *510:32 0.000340917
47 *3175:A *510:38 5.15925e-05
48 *485:12 *510:32 7.12975e-05
49 *502:10 *510:32 0.00010096
50 *502:42 *510:32 0.000131439
*RES
1 *2449:X *510:12 21.8 
2 *510:12 *510:32 34.6607 
3 *510:32 *510:38 11.2411 
4 *510:38 *510:46 11.5705 
5 *510:46 *2769:C 13.8 
6 *510:46 *2768:A2 18.3357 
7 *510:38 *2761:A2 14.3804 
8 *510:32 *2686:A2 9.72857 
9 *510:12 *2694:B 10.6571 
*END

*D_NET *511 0.00676046
*CONN
*I *2516:A I *D sky130_fd_sc_hd__nor2_1
*I *3180:A I *D sky130_fd_sc_hd__buf_2
*I *2450:Y O *D sky130_fd_sc_hd__nand4b_1
*CAP
1 *2516:A 0.000789651
2 *3180:A 0.000447199
3 *2450:Y 0.000619975
4 *511:6 0.00185683
5 *2516:A *2516:B 0.000521104
6 *2516:A *2632:A 0
7 *2516:A *2632:B 0.000191877
8 *2516:A *2648:S 1.61893e-05
9 *2516:A *2674:A 5.71472e-05
10 *2516:A *2674:B 0.000139632
11 *2516:A *2748:A_N 0.00010326
12 *2516:A *2748:B 0.000367396
13 *2516:A *738:12 6.74911e-05
14 *2516:A *885:26 0.000109929
15 *2516:A *962:73 0
16 *3180:A *2674:A 0
17 *3180:A *2695:D_N 7.79781e-06
18 *3180:A *678:8 3.9745e-05
19 *3180:A *738:12 0
20 *3180:A *887:12 0
21 *3180:A *887:22 0
22 *3180:A *982:27 0
23 *3180:A *1050:31 5.48488e-05
24 *511:6 *2450:C 0.000178459
25 *2388:B *3180:A 0.000434177
26 *2671:A1 *3180:A 0.000556672
27 *2796:D *2516:A 0
28 *3136:A *2516:A 0
29 *3163:A *2516:A 0.000106357
30 *478:8 *3180:A 9.4724e-05
*RES
1 *2450:Y *511:6 20.5143 
2 *511:6 *3180:A 30.5679 
3 *511:6 *2516:A 38.55 
*END

*D_NET *512 0.000574521
*CONN
*I *2452:C1 I *D sky130_fd_sc_hd__a221o_1
*I *2451:X O *D sky130_fd_sc_hd__a22o_1
*CAP
1 *2452:C1 0.000213605
2 *2451:X 0.000213605
3 *2452:C1 *2551:B1 0.00014285
4 *2452:C1 *2841:GATE_N 0
5 *2452:C1 *2942:GATE_N 0
6 *2452:C1 *809:44 0
7 *2452:C1 *911:92 0
8 *2452:B2 *2452:C1 4.46186e-06
*RES
1 *2451:X *2452:C1 30.9036 
*END

*D_NET *513 0.000243019
*CONN
*I *2460:B1 I *D sky130_fd_sc_hd__o22ai_2
*I *2452:X O *D sky130_fd_sc_hd__a221o_1
*CAP
1 *2460:B1 8.08963e-05
2 *2452:X 8.08963e-05
3 *2460:B1 *2460:B2 1.02504e-05
4 *2460:B1 *809:44 3.48023e-05
5 *2460:B1 *878:38 0
6 *2452:A1 *2460:B1 3.61733e-05
*RES
1 *2452:X *2460:B1 29.2429 
*END

*D_NET *514 0.000750859
*CONN
*I *2454:C1 I *D sky130_fd_sc_hd__a221o_1
*I *2453:X O *D sky130_fd_sc_hd__a22o_1
*CAP
1 *2454:C1 0.000256924
2 *2453:X 0.000256924
3 *2454:C1 *2453:B1 6.05161e-06
4 *2454:C1 *2454:B1 3.98694e-05
5 *2454:C1 *2937:GATE_N 1.56e-05
6 *2454:C1 *825:61 0.000156035
7 *2454:C1 *858:19 1.07719e-05
8 *2454:C1 *858:34 2.87555e-06
9 *2453:A1 *2454:C1 0
10 *2454:B2 *2454:C1 5.80706e-06
*RES
1 *2453:X *2454:C1 31.725 
*END

*D_NET *515 0.00476836
*CONN
*I *2459:A I *D sky130_fd_sc_hd__or3_1
*I *2454:X O *D sky130_fd_sc_hd__a221o_1
*CAP
1 *2459:A 0.000441268
2 *2454:X 0.00134635
3 *515:34 0.00178762
4 *2459:A *2554:B1 6.41996e-05
5 *2459:A *2578:B1 1.58163e-05
6 *515:34 *2555:C1 3.51724e-05
7 *515:34 *2556:A2 5.33005e-05
8 *515:34 *2557:B1 5.76121e-05
9 *515:34 *2653:A1 5.33005e-05
10 *515:34 *2910:GATE_N 0.000461962
11 *515:34 *2967:D 3.95407e-06
12 *515:34 *884:65 6.22626e-05
13 *515:34 *884:71 5.52302e-05
14 *2554:B2 *2459:A 5.52302e-05
15 *2557:A1 *515:34 6.94127e-05
16 *2578:B2 *2459:A 1.92789e-05
17 *377:12 *515:34 0.000149914
18 *381:16 *515:34 3.64807e-05
*RES
1 *2454:X *515:34 43.6929 
2 *515:34 *2459:A 16.4071 
*END

*D_NET *516 0.00135868
*CONN
*I *2456:C1 I *D sky130_fd_sc_hd__a221o_1
*I *2455:X O *D sky130_fd_sc_hd__a22o_1
*CAP
1 *2456:C1 0.000362799
2 *2455:X 0.000362799
3 *2456:C1 *2455:A2 5.49489e-05
4 *2456:C1 *2455:B1 0.000306338
5 *2456:C1 *816:38 4.1311e-05
6 *2456:A1 *2456:C1 0.000230482
*RES
1 *2455:X *2456:C1 25.6357 
*END

*D_NET *517 0.000628797
*CONN
*I *2459:B I *D sky130_fd_sc_hd__or3_1
*I *2456:X O *D sky130_fd_sc_hd__a221o_1
*CAP
1 *2459:B 0.000262333
2 *2456:X 0.000262333
3 *2459:B *2455:B1 6.03385e-05
4 *2459:B *2459:C 4.01768e-05
5 *2459:B *2481:C 3.61629e-06
*RES
1 *2456:X *2459:B 22.0107 
*END

*D_NET *518 0.000605336
*CONN
*I *2458:B1 I *D sky130_fd_sc_hd__a211o_1
*I *2457:X O *D sky130_fd_sc_hd__a22o_1
*CAP
1 *2458:B1 0.000191353
2 *2457:X 0.000191353
3 *2458:B1 *2456:B1 0
4 *2458:B1 *816:38 0
5 *2458:B1 *820:24 0.000150847
6 *2458:A1 *2458:B1 7.17836e-05
*RES
1 *2457:X *2458:B1 31.975 
*END

*D_NET *519 0.00149364
*CONN
*I *2459:C I *D sky130_fd_sc_hd__or3_1
*I *2458:X O *D sky130_fd_sc_hd__a211o_1
*CAP
1 *2459:C 0.000445046
2 *2458:X 0.000445046
3 *2459:C *2458:C1 0.000178847
4 *2459:C *2481:C 2.89114e-05
5 *2459:C *2482:B2 2.04825e-05
6 *2459:C *853:67 0
7 *2459:C *900:79 0.000117457
8 *2459:C *908:85 2.28598e-05
9 *2459:C *908:125 0.000194811
10 *2459:B *2459:C 4.01768e-05
*RES
1 *2458:X *2459:C 34.4214 
*END

*D_NET *520 0.00945242
*CONN
*I *2460:B2 I *D sky130_fd_sc_hd__o22ai_2
*I *2459:X O *D sky130_fd_sc_hd__or3_1
*CAP
1 *2460:B2 0.00284114
2 *2459:X 0.00284114
3 *2460:B2 *2475:B1 0.000467873
4 *2460:B2 *2482:B2 0.000598708
5 *2460:B2 *2556:A2 0.000983973
6 *2460:B2 *2871:GATE_N 0.000199384
7 *2460:B2 *2873:GATE_N 9.52156e-05
8 *2460:B2 *853:67 2.22043e-05
9 *2460:B2 *878:10 5.03772e-05
10 *2460:B2 *878:16 0
11 *2460:B2 *928:63 0.000560508
12 *2460:B2 *1016:22 0
13 *2452:A1 *2460:B2 4.27949e-05
14 *2452:B2 *2460:B2 5.03772e-05
15 *2460:B1 *2460:B2 1.02504e-05
16 *384:14 *2460:B2 0.000688481
*RES
1 *2459:X *2460:B2 44.805 
*END

*D_NET *521 0.00861988
*CONN
*I *2461:B I *D sky130_fd_sc_hd__nor2_1
*I *2627:B I *D sky130_fd_sc_hd__nor2_1
*I *2460:Y O *D sky130_fd_sc_hd__o22ai_2
*CAP
1 *2461:B 0.000639586
2 *2627:B 5.90289e-05
3 *2460:Y 0.000214775
4 *521:18 0.0020986
5 *521:12 0.00161476
6 *2461:B *2461:A 0.000394975
7 *2461:B *2807:GATE_N 0
8 *2461:B *842:36 0
9 *2627:B *2791:GATE_N 6.37237e-05
10 *2627:B *880:62 9.90367e-05
11 *521:12 *2460:A2 5.52238e-05
12 *521:12 *2652:A1 6.12069e-05
13 *521:12 *2652:S 0
14 *521:12 *2830:GATE_N 0
15 *521:12 *878:10 9.90367e-05
16 *521:12 *1055:16 0
17 *521:18 *2793:GATE_N 0.00014285
18 *521:18 *2798:GATE_N 5.52302e-05
19 *521:18 *2830:GATE_N 6.70515e-05
20 *521:18 *3031:D 5.71472e-05
21 *521:18 *3174:A 0.000186669
22 *521:18 *3309:A 6.70515e-05
23 *521:18 *880:12 9.80173e-05
24 *521:18 *880:62 9.47712e-05
25 *521:18 *1013:12 0.00113185
26 PWDATA[0] *2461:B 0.000287627
27 rdata[10] *2461:B 2.6949e-05
28 *2452:A1 *521:12 0
29 *2452:B2 *521:12 5.30637e-06
30 *2460:A1 *521:12 0.000306163
31 *2460:A1 *521:18 5.52302e-05
32 *2550:A1 *521:18 0.000144773
33 *2791:D *2461:B 0.000223564
34 *2791:D *2627:B 2.89016e-05
35 *2802:D *2461:B 4.37397e-05
36 *2807:D *2461:B 7.49499e-05
37 *2809:D *2461:B 4.46186e-06
38 *3294:A *521:18 0.000117621
*RES
1 *2460:Y *521:12 23.6214 
2 *521:12 *521:18 30.25 
3 *521:18 *2627:B 11.5143 
4 *521:18 *2461:B 30.6393 
*END

*D_NET *522 0.00114657
*CONN
*I *2469:B1 I *D sky130_fd_sc_hd__a211o_1
*I *2462:X O *D sky130_fd_sc_hd__a22o_1
*CAP
1 *2469:B1 0.000421862
2 *2462:X 0.000421862
3 *2469:B1 *2911:GATE_N 0.000100478
4 *2469:B1 *905:94 8.85532e-05
5 *2468:A1 *2469:B1 1.33343e-05
6 *3208:A *2469:B1 0.000100478
*RES
1 *2462:X *2469:B1 34.4214 
*END

*D_NET *523 0.0011987
*CONN
*I *2464:C1 I *D sky130_fd_sc_hd__a221o_1
*I *2463:X O *D sky130_fd_sc_hd__a22o_1
*CAP
1 *2464:C1 0.00034321
2 *2463:X 0.00034321
3 *2464:C1 *2520:A2 0.000272371
4 *2464:C1 *918:147 5.37696e-05
5 *2464:C1 *919:51 6.57914e-05
6 *3122:A *2464:C1 0.000120348
*RES
1 *2463:X *2464:C1 33.0643 
*END

*D_NET *524 0.00142822
*CONN
*I *2471:B1 I *D sky130_fd_sc_hd__o22ai_2
*I *2464:X O *D sky130_fd_sc_hd__a221o_1
*CAP
1 *2471:B1 0.000365711
2 *2464:X 0.000365711
3 *2471:B1 *2464:A2 0.000308752
4 *2471:B1 *531:18 0.000152333
5 *2464:B2 *2471:B1 0.000229456
6 *3188:A *2471:B1 6.2589e-06
*RES
1 *2464:X *2471:B1 34.5107 
*END

*D_NET *525 0.000232639
*CONN
*I *2466:C1 I *D sky130_fd_sc_hd__a221o_1
*I *2465:X O *D sky130_fd_sc_hd__a22o_1
*CAP
1 *2466:C1 3.60192e-05
2 *2465:X 3.60192e-05
3 *2466:C1 *2465:A2 5.41794e-05
4 *2466:C1 *831:18 2.84494e-05
5 *2466:C1 *917:34 5.52302e-05
6 *2466:C1 *922:47 2.27416e-05
*RES
1 *2465:X *2466:C1 28.8679 
*END

*D_NET *526 0.000632057
*CONN
*I *2470:A I *D sky130_fd_sc_hd__or3_1
*I *2466:X O *D sky130_fd_sc_hd__a221o_1
*CAP
1 *2470:A 0.000148391
2 *2466:X 0.000148391
3 *2470:A *875:122 6.74911e-05
4 *2470:A *917:34 0.000139631
5 *491:12 *2470:A 0.000128154
*RES
1 *2466:X *2470:A 30.6 
*END

*D_NET *527 0.000328718
*CONN
*I *2470:B I *D sky130_fd_sc_hd__or3_1
*I *2467:X O *D sky130_fd_sc_hd__a22o_1
*CAP
1 *2470:B 7.97489e-05
2 *2467:X 7.97489e-05
3 *2470:B *2882:GATE_N 7.6644e-05
4 *2470:B *812:76 5.33005e-05
5 *491:12 *2470:B 3.92757e-05
*RES
1 *2467:X *2470:B 29.1714 
*END

*D_NET *528 0.00122254
*CONN
*I *2469:C1 I *D sky130_fd_sc_hd__a211o_1
*I *2468:X O *D sky130_fd_sc_hd__a221o_1
*CAP
1 *2469:C1 0.000276609
2 *2468:X 0.000276609
3 *2469:C1 *2623:C1 4.34741e-05
4 *2469:C1 *805:54 0.000164046
5 *2469:C1 *906:20 2.72449e-05
6 *2462:A1 *2469:C1 0.00018077
7 *2468:A1 *2469:C1 0.000253782
*RES
1 *2468:X *2469:C1 33.4393 
*END

*D_NET *529 0.00365665
*CONN
*I *2470:C I *D sky130_fd_sc_hd__or3_1
*I *2469:X O *D sky130_fd_sc_hd__a211o_1
*CAP
1 *2470:C 0.00101569
2 *2469:X 0.00101569
3 *2470:C *2610:B1 8.00806e-05
4 *2470:C *2882:GATE_N 0.000253017
5 *2470:C *831:18 5.33005e-05
6 *2470:C *875:12 6.4443e-05
7 *2470:C *875:103 1.92905e-05
8 *2470:C *875:122 0.000560227
9 *2470:C *925:72 0.000516547
10 *2470:C *930:20 7.83659e-05
*RES
1 *2469:X *2470:C 44.4214 
*END

*D_NET *530 0.00147377
*CONN
*I *2471:B2 I *D sky130_fd_sc_hd__o22ai_2
*I *2470:X O *D sky130_fd_sc_hd__or3_1
*CAP
1 *2471:B2 0.000703919
2 *2470:X 0.000703919
3 *2471:B2 *2471:A2 3.70198e-05
4 *2471:B2 *531:8 2.89114e-05
*RES
1 *2470:X *2471:B2 29.0286 
*END

*D_NET *531 0.008323
*CONN
*I *2628:B I *D sky130_fd_sc_hd__nor2_1
*I *2472:B I *D sky130_fd_sc_hd__nor2_1
*I *2471:Y O *D sky130_fd_sc_hd__o22ai_2
*CAP
1 *2628:B 0
2 *2472:B 0
3 *2471:Y 0.00015807
4 *531:18 0.00151965
5 *531:8 0.00167772
6 *531:8 *2471:A2 5.52302e-05
7 *531:18 *2792:GATE_N 9.90431e-05
8 *531:18 *2845:D 0.000351818
9 *531:18 *2845:GATE_N 3.72768e-05
10 *531:18 *2916:GATE_N 9.60875e-05
11 *531:18 *2925:D 5.52238e-05
12 *531:18 *2941:GATE_N 0.000925154
13 *531:18 *2957:D 0.000475683
14 *531:18 *3039:GATE_N 0.000273016
15 *531:18 *3053:D 0.000434806
16 *531:18 *810:41 0.000100305
17 *531:18 *826:26 0.000782983
18 *531:18 *828:70 5.52302e-05
19 *531:18 *845:31 0.000349708
20 *531:18 *845:33 9.60939e-05
21 *2471:B1 *531:18 0.000152333
22 *2471:B2 *531:8 2.89114e-05
23 *2616:A1 *531:18 0.00030824
24 *2616:B2 *531:18 0.000135028
25 *2625:A1 *531:18 0.000102783
26 *3188:A *531:18 5.26091e-05
*RES
1 *2471:Y *531:8 11.9071 
2 *531:8 *531:18 48.4643 
3 *531:18 *2472:B 9.3 
4 *531:8 *2628:B 9.3 
*END

*D_NET *532 0.00185955
*CONN
*I *2474:C1 I *D sky130_fd_sc_hd__a221o_1
*I *2473:X O *D sky130_fd_sc_hd__a22o_1
*CAP
1 *2474:C1 0.000402645
2 *2473:X 0.000402645
3 *2474:C1 *2473:A2 0
4 *2474:C1 *2473:B1 0
5 *2474:C1 *2560:B 5.41879e-05
6 *2474:C1 *2636:A 5.71472e-05
7 *2474:C1 *3315:A 5.71472e-05
8 *2474:C1 *838:44 0
9 *2474:C1 *838:54 0
10 *2474:C1 *884:16 0.000431136
11 *2474:C1 *888:86 0.000173328
12 *2473:A1 *2474:C1 0
13 *2474:A1 *2474:C1 0.000224168
14 *2474:B2 *2474:C1 5.71472e-05
*RES
1 *2473:X *2474:C1 37.5464 
*END

*D_NET *533 0.000419711
*CONN
*I *2482:B1 I *D sky130_fd_sc_hd__o22ai_1
*I *2474:X O *D sky130_fd_sc_hd__a221o_1
*CAP
1 *2482:B1 8.23819e-05
2 *2474:X 8.23819e-05
3 *2482:B1 *2482:A2 0.000100823
4 *2482:B1 *2560:B 5.33005e-05
5 *427:10 *2482:B1 0.000100823
*RES
1 *2474:X *2482:B1 29.475 
*END

*D_NET *534 0.00121404
*CONN
*I *2476:C1 I *D sky130_fd_sc_hd__a221o_1
*I *2475:X O *D sky130_fd_sc_hd__a22o_1
*CAP
1 *2476:C1 0.000435218
2 *2475:X 0.000435218
3 *2476:C1 *2475:A2 0.000150545
4 *2476:C1 *2476:A2 9.60337e-06
5 *2476:C1 *2646:A1 7.83659e-05
6 *2476:C1 *884:44 3.34687e-05
7 *2476:C1 *884:57 6.3532e-05
8 *2476:C1 *918:29 8.09146e-06
9 *389:10 *2476:C1 0
*RES
1 *2475:X *2476:C1 35.4571 
*END

*D_NET *535 0.00838886
*CONN
*I *2481:A I *D sky130_fd_sc_hd__or3_1
*I *2476:X O *D sky130_fd_sc_hd__a221o_1
*CAP
1 *2481:A 0.00219033
2 *2476:X 0.00219033
3 *2481:A *2476:A2 0.000898913
4 *2481:A *2482:B2 0.0019247
5 *2481:A *2559:B2 0.000841546
6 *2481:A *2581:B2 0.000242248
7 *2481:A *853:65 0
8 *2481:A *881:57 2.11419e-05
9 *2481:A *900:79 4.51691e-05
10 *2481:A *904:91 2.86703e-05
11 *2481:A *908:125 5.80706e-06
*RES
1 *2476:X *2481:A 42.6749 
*END

*D_NET *536 0.0013385
*CONN
*I *2478:C1 I *D sky130_fd_sc_hd__a221o_1
*I *2477:X O *D sky130_fd_sc_hd__a22o_1
*CAP
1 *2478:C1 0.000311714
2 *2477:X 0.000311714
3 *2478:C1 *818:54 1.21258e-05
4 *2478:C1 *831:63 1.33343e-05
5 *2478:C1 *831:69 0.000143652
6 *2477:B2 *2478:C1 0
7 *2478:A1 *2478:C1 0.000409276
8 *2478:B2 *2478:C1 0.000136682
*RES
1 *2477:X *2478:C1 34.3857 
*END

*D_NET *537 0.00262293
*CONN
*I *2481:B I *D sky130_fd_sc_hd__or3_1
*I *2478:X O *D sky130_fd_sc_hd__a221o_1
*CAP
1 *2481:B 0.000311247
2 *2478:X 0.000311247
3 *2481:B *2456:B1 0.000526414
4 *2481:B *818:54 0.00082132
5 *2481:B *900:79 0.000364967
6 *2481:B *908:83 0.000192214
7 *2481:B *923:63 9.55226e-05
*RES
1 *2478:X *2481:B 40.2071 
*END

*D_NET *538 0.000738673
*CONN
*I *2480:B1 I *D sky130_fd_sc_hd__a211o_1
*I *2479:X O *D sky130_fd_sc_hd__a22o_1
*CAP
1 *2480:B1 0.00030153
2 *2479:X 0.00030153
3 *2480:B1 *2479:A2 0
4 *2480:B1 *2480:C1 5.80706e-06
5 *2480:B1 *814:116 4.53427e-05
6 *2480:B1 *816:54 0
7 *2480:B1 *853:67 0
8 *2480:B1 *873:44 1.1979e-05
9 *2480:A1 *2480:B1 7.24849e-05
*RES
1 *2479:X *2480:B1 32.9214 
*END

*D_NET *539 0.000711017
*CONN
*I *2481:C I *D sky130_fd_sc_hd__or3_1
*I *2480:X O *D sky130_fd_sc_hd__a211o_1
*CAP
1 *2481:C 0.000227877
2 *2480:X 0.000227877
3 *2481:C *2455:B1 9.90367e-05
4 *2481:C *2480:C1 2.80292e-05
5 *2481:C *900:79 8.43431e-05
6 *2481:C *908:83 4.46186e-06
7 *2481:C *934:70 6.8646e-06
8 *2459:B *2481:C 3.61629e-06
9 *2459:C *2481:C 2.89114e-05
*RES
1 *2480:X *2481:C 31.0107 
*END

*D_NET *540 0.0154139
*CONN
*I *2482:B2 I *D sky130_fd_sc_hd__o22ai_1
*I *2481:X O *D sky130_fd_sc_hd__or3_1
*CAP
1 *2482:B2 0.00485378
2 *2481:X 0.00485378
3 *2482:B2 *2475:B1 0.000493994
4 *2482:B2 *2476:A2 0.000879456
5 *2482:B2 *2554:A2 0.000386095
6 *2482:B2 *2556:A2 0.000330893
7 *2482:B2 *2559:B2 0.000342991
8 *2482:B2 *2629:B 9.23805e-05
9 *2482:B2 *2639:A 1.20192e-05
10 *2482:B2 *631:18 0
11 *2482:B2 *813:26 0
12 *2482:B2 *904:91 0.000532209
13 *2482:B2 *1016:22 0
14 *2459:C *2482:B2 2.04825e-05
15 *2460:B2 *2482:B2 0.000598708
16 *2481:A *2482:B2 0.0019247
17 *427:10 *2482:B2 9.23805e-05
*RES
1 *2481:X *2482:B2 49.1916 
*END

*D_NET *541 0.00232783
*CONN
*I *2483:B I *D sky130_fd_sc_hd__nor2_1
*I *2629:B I *D sky130_fd_sc_hd__nor2_1
*I *2482:Y O *D sky130_fd_sc_hd__o22ai_1
*CAP
1 *2483:B 0.000207945
2 *2629:B 0.000277451
3 *2482:Y 0
4 *541:4 0.000485397
5 *2483:B *2482:A2 4.16984e-05
6 *2629:B *2482:A2 1.58163e-05
7 *2629:B *880:32 0.000184745
8 *2629:B *880:54 9.60939e-05
9 *2629:B *888:78 0.000269422
10 *2629:B *1013:12 0.000463686
11 *2482:B2 *2629:B 9.23805e-05
12 *427:10 *2629:B 0.000193191
*RES
1 *2482:Y *541:4 9.3 
2 *541:4 *2629:B 27.3179 
3 *541:4 *2483:B 12.1036 
*END

*D_NET *542 0.00167397
*CONN
*I *2485:C1 I *D sky130_fd_sc_hd__a221o_1
*I *2484:X O *D sky130_fd_sc_hd__a22o_1
*CAP
1 *2485:C1 0.000334702
2 *2484:X 0.000334702
3 *2485:C1 *805:12 9.60939e-05
4 *2485:C1 *881:57 0.000149878
5 *2485:C1 *898:118 0.000267807
6 *2484:A1 *2485:C1 0.000267814
7 *2485:B2 *2485:C1 0.000222975
*RES
1 *2484:X *2485:C1 37.475 
*END

*D_NET *543 0.000349535
*CONN
*I *2493:B1 I *D sky130_fd_sc_hd__o22ai_2
*I *2485:X O *D sky130_fd_sc_hd__a221o_1
*CAP
1 *2493:B1 5.22498e-05
2 *2485:X 5.22498e-05
3 *2493:B1 *2485:B1 0.000120506
4 *2485:A1 *2493:B1 0.000124529
*RES
1 *2485:X *2493:B1 29.2429 
*END

*D_NET *544 0.00106761
*CONN
*I *2487:C1 I *D sky130_fd_sc_hd__a221o_1
*I *2486:X O *D sky130_fd_sc_hd__a22o_1
*CAP
1 *2487:C1 0.000233116
2 *2486:X 0.000233116
3 *2487:C1 *2486:A2 2.89016e-05
4 *2487:C1 *811:36 5.59013e-05
5 *2487:C1 *916:19 0.00014105
6 *2486:A1 *2487:C1 1.33343e-05
7 *2487:B2 *2487:C1 0.000332629
8 *3153:A *2487:C1 2.95641e-05
*RES
1 *2486:X *2487:C1 33.3321 
*END

*D_NET *545 0.00352875
*CONN
*I *2492:A I *D sky130_fd_sc_hd__or3_1
*I *2487:X O *D sky130_fd_sc_hd__a221o_1
*CAP
1 *2492:A 0.00130289
2 *2487:X 0.00130289
3 *2492:A *2491:A2 0
4 *2492:A *2493:B2 6.05661e-05
5 *2492:A *2564:B1 0
6 *2492:A *2564:C1 0.000522439
7 *2492:A *2945:D 7.50473e-05
8 *2492:A *805:72 1.40306e-05
9 *2492:A *805:78 5.70551e-05
10 *2492:A *892:49 0.00019384
11 *2564:A1 *2492:A 0
*RES
1 *2487:X *2492:A 45.5107 
*END

*D_NET *546 0.000351082
*CONN
*I *2489:C1 I *D sky130_fd_sc_hd__a221o_1
*I *2488:X O *D sky130_fd_sc_hd__a22o_1
*CAP
1 *2489:C1 4.57697e-05
2 *2488:X 4.57697e-05
3 *2489:C1 *590:12 7.6644e-05
4 *2489:C1 *906:22 4.23086e-05
5 *2489:C1 *921:26 0.000130339
6 *2489:B2 *2489:C1 1.02504e-05
*RES
1 *2488:X *2489:C1 29.5464 
*END

*D_NET *547 0.000623665
*CONN
*I *2492:B I *D sky130_fd_sc_hd__or3_1
*I *2489:X O *D sky130_fd_sc_hd__a221o_1
*CAP
1 *2492:B 0.000306538
2 *2489:X 0.000306538
3 *2492:B *2917:GATE_N 0
4 *2492:B *590:24 1.05901e-05
5 *2492:B *805:72 0
6 *2489:A1 *2492:B 0
7 *2489:B2 *2492:B 0
*RES
1 *2489:X *2492:B 32.0107 
*END

*D_NET *548 0.000746926
*CONN
*I *2491:B1 I *D sky130_fd_sc_hd__a211o_1
*I *2490:X O *D sky130_fd_sc_hd__a22o_1
*CAP
1 *2491:B1 0.000170979
2 *2490:X 0.000170979
3 *2491:B1 *2490:A2 0.000218259
4 *2491:B1 *2491:A2 7.9277e-05
5 *2491:B1 *2491:C1 3.45371e-05
6 *2491:B1 *805:78 3.18703e-05
7 *2491:B1 *855:20 3.18676e-05
8 *2491:A1 *2491:B1 9.15621e-06
*RES
1 *2490:X *2491:B1 31.6714 
*END

*D_NET *549 0.000268908
*CONN
*I *2492:C I *D sky130_fd_sc_hd__or3_1
*I *2491:X O *D sky130_fd_sc_hd__a211o_1
*CAP
1 *2492:C 8.49323e-05
2 *2491:X 8.49323e-05
3 *2492:C *805:78 9.90431e-05
*RES
1 *2491:X *2492:C 20.3679 
*END

*D_NET *550 0.00564336
*CONN
*I *2493:B2 I *D sky130_fd_sc_hd__o22ai_2
*I *2492:X O *D sky130_fd_sc_hd__or3_1
*CAP
1 *2493:B2 0.00178917
2 *2492:X 0.00178917
3 *2493:B2 *2493:A2 1.05731e-05
4 *2493:B2 *2904:GATE_N 4.10274e-05
5 *2493:B2 *2929:D 5.52238e-05
6 *2493:B2 *2929:GATE_N 4.62998e-05
7 *2493:B2 *2945:D 0.000175271
8 *2493:B2 *3048:D 5.52238e-05
9 *2493:B2 *3048:GATE_N 5.55288e-05
10 *2493:B2 *3057:D 0.000170385
11 *2493:B2 *805:72 4.38128e-05
12 *2493:B2 *805:78 5.71472e-05
13 *2493:B2 *829:88 1.65169e-05
14 *2493:B2 *856:21 0.000677432
15 *2493:B2 *856:60 4.08637e-05
16 *2486:B2 *2493:B2 0.000513591
17 *2487:A1 *2493:B2 4.55516e-05
18 *2492:A *2493:B2 6.05661e-05
*RES
1 *2492:X *2493:B2 48.0821 
*END

*D_NET *551 0.0107974
*CONN
*I *2494:B I *D sky130_fd_sc_hd__nor2_1
*I *2630:B I *D sky130_fd_sc_hd__nor2_1
*I *2493:Y O *D sky130_fd_sc_hd__o22ai_2
*CAP
1 *2494:B 0.000417996
2 *2630:B 0
3 *2493:Y 0.00123525
4 *551:40 0.00132907
5 *551:22 0.00214632
6 *2494:B *2494:A 5.7661e-06
7 *2494:B *2538:A 1.81709e-05
8 *2494:B *2633:A 8.50152e-05
9 *2494:B *2641:A 2.54619e-05
10 *2494:B *886:40 0.00040059
11 *2494:B *886:44 0.000605917
12 *551:22 *2493:A2 0.000337358
13 *551:22 *2561:B1 0.000144353
14 *551:22 *2655:S 6.79379e-05
15 *551:22 *3048:GATE_N 6.05161e-06
16 *551:22 *807:121 7.83449e-05
17 *551:22 *809:111 0.000773525
18 *551:22 *822:117 0.000149554
19 *551:22 *822:134 2.14658e-05
20 *551:22 *892:121 0.000147833
21 *551:22 *932:49 0.000238988
22 *551:22 *1003:14 5.52238e-05
23 *551:40 *2482:A2 6.57032e-05
24 *551:40 *2570:A2 4.58194e-05
25 *551:40 *2794:GATE_N 2.59355e-05
26 *551:40 *2840:D 9.90367e-05
27 *551:40 *621:20 6.02165e-05
28 *551:40 *856:67 1.33343e-05
29 *551:40 *856:74 0.000521406
30 *551:40 *886:44 1.02504e-05
31 *551:40 *886:46 0
32 *2493:A1 *551:22 5.52302e-05
33 *2561:A1 *551:22 3.25447e-05
34 *2561:A1 *551:40 0.000223558
35 *2794:D *551:40 0.000101545
36 *379:10 *551:22 0.000100124
37 *426:10 *2494:B 0.00100188
38 *426:10 *551:40 0.000150625
*RES
1 *2493:Y *551:22 47.0857 
2 *551:22 *551:40 26.5714 
3 *551:40 *2630:B 13.8 
4 *551:40 *2494:B 29.2821 
*END

*D_NET *552 0.00311952
*CONN
*I *2504:B1 I *D sky130_fd_sc_hd__o22ai_2
*I *2495:X O *D sky130_fd_sc_hd__a22o_1
*CAP
1 *2504:B1 0.00087772
2 *2495:X 0.00087772
3 *2504:B1 *2403:A 3.37161e-05
4 *2504:B1 *2403:B 7.32272e-05
5 *2504:B1 *2495:A2 0.00010096
6 *2504:B1 *2496:A2 9.25014e-06
7 *2504:B1 *2503:A 2.61076e-05
8 *2504:B1 *2503:B 0.000198139
9 *2504:B1 *2504:B2 1.99377e-05
10 *2504:B1 *3058:D 0
11 *2504:B1 *810:106 5.52302e-05
12 *2504:B1 *841:15 1.24368e-05
13 *2504:B1 *893:59 3.13687e-05
14 *2504:B1 *917:62 9.21418e-06
15 *2495:A1 *2504:B1 3.03304e-05
16 *3129:A *2504:B1 0.000233426
17 *3214:A *2504:B1 1.90936e-05
18 *439:8 *2504:B1 0.000139485
19 *477:26 *2504:B1 0.000274385
20 *485:12 *2504:B1 9.77704e-05
*RES
1 *2495:X *2504:B1 44.9929 
*END

*D_NET *553 0.000694904
*CONN
*I *2503:A I *D sky130_fd_sc_hd__or4_1
*I *2496:X O *D sky130_fd_sc_hd__a22o_1
*CAP
1 *2503:A 0.000174653
2 *2496:X 0.000174653
3 *2503:A *2503:B 7.95959e-05
4 *2503:A *2504:B2 7.29712e-05
5 *2503:A *3058:D 3.58934e-05
6 *2503:A *839:50 2.59355e-05
7 *2503:A *866:35 9.90431e-05
8 *2503:A *917:62 6.05161e-06
9 *2504:B1 *2503:A 2.61076e-05
*RES
1 *2496:X *2503:A 31.0286 
*END

*D_NET *554 0.000552421
*CONN
*I *2498:C1 I *D sky130_fd_sc_hd__a221o_1
*I *2497:X O *D sky130_fd_sc_hd__a22o_1
*CAP
1 *2498:C1 0.000114991
2 *2497:X 0.000114991
3 *3112:A *2498:C1 0.000198587
4 *441:31 *2498:C1 0.000123852
*RES
1 *2497:X *2498:C1 30.6 
*END

*D_NET *555 0.00264837
*CONN
*I *2503:B I *D sky130_fd_sc_hd__or4_1
*I *2498:X O *D sky130_fd_sc_hd__a221o_1
*CAP
1 *2503:B 0.000821889
2 *2498:X 0.000821889
3 *2503:B *2498:A2 8.56851e-05
4 *2503:B *2930:GATE_N 5.91452e-05
5 *2503:B *3058:D 1.50181e-05
6 *2503:B *869:66 2.72695e-05
7 *2503:B *869:106 4.43256e-05
8 *2503:B *897:29 2.13481e-06
9 *2503:B *915:33 0.000185643
10 *2503:B *917:62 0.000129068
11 *2503:A *2503:B 7.95959e-05
12 *2504:B1 *2503:B 0.000198139
13 *3127:A *2503:B 0.000178569
*RES
1 *2498:X *2503:B 39.725 
*END

*D_NET *556 0.00224813
*CONN
*I *2503:C I *D sky130_fd_sc_hd__or4_1
*I *2499:X O *D sky130_fd_sc_hd__a22o_1
*CAP
1 *2503:C 0.000484803
2 *2499:X 0.000484803
3 *2503:C *2503:D 1.21258e-05
4 *2503:C *810:106 6.57032e-05
5 *2503:C *823:8 1.36635e-05
6 *2503:C *839:50 0.000218409
7 *2503:C *881:39 0.000149045
8 *2503:C *895:40 0.000187258
9 *2503:C *918:147 2.03875e-05
10 *2503:C *933:10 0.000109495
11 *2503:C *933:18 0.000393065
12 *3129:A *2503:C 0
13 *3137:A *2503:C 0.000109369
*RES
1 *2499:X *2503:C 39.1536 
*END

*D_NET *557 0.000890394
*CONN
*I *2502:B1 I *D sky130_fd_sc_hd__a211o_1
*I *2500:X O *D sky130_fd_sc_hd__a22o_1
*CAP
1 *2502:B1 0.000269752
2 *2500:X 0.000269752
3 *2502:B1 *2500:A2 5.92418e-05
4 *2502:B1 *2850:D 6.48863e-05
5 *2502:B1 *817:28 1.4966e-05
6 *2500:A1 *2502:B1 3.92141e-05
7 *2500:B2 *2502:B1 3.67257e-05
8 *2502:A1 *2502:B1 0.000135857
*RES
1 *2500:X *2502:B1 33.2607 
*END

*D_NET *558 0.000176733
*CONN
*I *2502:C1 I *D sky130_fd_sc_hd__a211o_1
*I *2501:X O *D sky130_fd_sc_hd__a221o_1
*CAP
1 *2502:C1 5.5452e-05
2 *2501:X 5.5452e-05
3 *2502:C1 *903:91 0
4 *2502:C1 *907:14 2.84109e-05
5 *2502:C1 *907:16 6.05161e-06
6 *2500:A1 *2502:C1 3.1367e-05
*RES
1 *2501:X *2502:C1 19.9929 
*END

*D_NET *559 0.0106822
*CONN
*I *2503:D I *D sky130_fd_sc_hd__or4_1
*I *2502:X O *D sky130_fd_sc_hd__a211o_1
*CAP
1 *2503:D 0.00280426
2 *2502:X 0.000848326
3 *559:12 0.00365259
4 *2503:D *2420:C 0.000479242
5 *2503:D *2424:B 9.41642e-05
6 *2503:D *2424:D 9.60875e-05
7 *2503:D *2598:A2 8.31691e-05
8 *2503:D *2598:C1 2.55756e-05
9 *2503:D *2602:A 5.03772e-05
10 *2503:D *2602:B 1.56051e-05
11 *2503:D *2602:C 4.35452e-05
12 *2503:D *2603:B2 2.88018e-06
13 *2503:D *3223:A 5.09088e-05
14 *2503:D *3226:A 0.000141985
15 *2503:D *810:106 0.00116594
16 *2503:D *909:18 5.30093e-05
17 *2503:D *947:8 0.00022459
18 *2503:D *947:14 3.39935e-05
19 *559:12 *2971:D 2.59355e-05
20 *559:12 *2971:GATE_N 1.98839e-05
21 *559:12 *821:6 2.14658e-05
22 *559:12 *907:12 0.00029388
23 *559:12 *907:14 0.000178847
24 *2503:C *2503:D 1.21258e-05
25 *2598:B2 *2503:D 6.29252e-05
26 *3196:A *559:12 7.6644e-05
27 *3308:A *2503:D 4.58976e-05
28 *496:16 *559:12 7.83587e-05
*RES
1 *2502:X *559:12 28.9071 
2 *559:12 *2503:D 45.9964 
*END

*D_NET *560 0.000505758
*CONN
*I *2504:B2 I *D sky130_fd_sc_hd__o22ai_2
*I *2503:X O *D sky130_fd_sc_hd__or4_1
*CAP
1 *2504:B2 9.42724e-05
2 *2503:X 9.42724e-05
3 *2504:B2 *3058:D 0.000142103
4 *2504:B2 *810:106 5.33005e-05
5 *2504:B2 *893:59 2.89016e-05
6 *2503:A *2504:B2 7.29712e-05
7 *2504:B1 *2504:B2 1.99377e-05
*RES
1 *2503:X *2504:B2 30.0821 
*END

*D_NET *561 0.00694273
*CONN
*I *2631:B I *D sky130_fd_sc_hd__nor2_1
*I *2505:B I *D sky130_fd_sc_hd__nor2_1
*I *2504:Y O *D sky130_fd_sc_hd__o22ai_2
*CAP
1 *2631:B 1.05371e-05
2 *2505:B 0.000109631
3 *2504:Y 0.00173445
4 *561:14 0.00185462
5 *2505:B *2505:A 5.52302e-05
6 *2505:B *887:22 0.000161015
7 *2505:B *887:28 9.25014e-06
8 *2631:B *887:22 1.1594e-05
9 *561:14 *2504:A2 9.60337e-06
10 *561:14 *2648:A0 0
11 *561:14 *3075:GATE_N 0.000470297
12 *561:14 *651:26 0.000294238
13 *561:14 *806:12 0.000344892
14 *561:14 *806:14 0.000274163
15 *561:14 *813:26 0
16 *561:14 *826:12 4.53834e-05
17 *2504:A1 *561:14 9.11806e-06
18 *2820:D *2505:B 1.92789e-05
19 *3136:A *561:14 0.00152943
20 *431:10 *2505:B 0
*RES
1 *2504:Y *561:14 26.4362 
2 *561:14 *2505:B 16.4339 
3 *561:14 *2631:B 14.0768 
*END

*D_NET *562 0.000511172
*CONN
*I *2507:C1 I *D sky130_fd_sc_hd__a221o_1
*I *2506:X O *D sky130_fd_sc_hd__a22o_1
*CAP
1 *2507:C1 0.000206684
2 *2506:X 0.000206684
3 *2507:B2 *2507:C1 1.02504e-05
4 *2804:D *2507:C1 0
5 *3105:A *2507:C1 5.86416e-05
6 *3182:A *2507:C1 2.89114e-05
*RES
1 *2506:X *2507:C1 30.6 
*END

*D_NET *563 6.97665e-05
*CONN
*I *2515:B1 I *D sky130_fd_sc_hd__o22ai_1
*I *2507:X O *D sky130_fd_sc_hd__a221o_1
*CAP
1 *2515:B1 3.28662e-05
2 *2507:X 3.28662e-05
3 *2804:D *2515:B1 4.0342e-06
*RES
1 *2507:X *2515:B1 19.1357 
*END

*D_NET *564 0.00443996
*CONN
*I *2509:C1 I *D sky130_fd_sc_hd__a221o_1
*I *2508:X O *D sky130_fd_sc_hd__a22o_1
*CAP
1 *2509:C1 0.000762939
2 *2508:X 0.000762939
3 *2509:C1 *2508:B1 7.15962e-05
4 *2509:C1 *2648:A0 2.26973e-05
5 *2509:C1 *2915:D 5.33005e-05
6 *2509:C1 *2931:D 0.000226237
7 *2509:C1 *828:70 3.9846e-05
8 *2509:C1 *867:28 0.000734926
9 *2509:C1 *895:81 7.48301e-06
10 *2509:C1 *912:43 0.00026771
11 *2509:C1 *912:58 0.00117366
12 *2508:A1 *2509:C1 1.20377e-05
13 *2509:B2 *2509:C1 7.12607e-05
14 *3105:A *2509:C1 0.000175892
15 *3109:A *2509:C1 1.36991e-05
16 *449:24 *2509:C1 4.37327e-05
*RES
1 *2508:X *2509:C1 48.9036 
*END

*D_NET *565 0.0113602
*CONN
*I *2514:A I *D sky130_fd_sc_hd__or3_1
*I *2509:X O *D sky130_fd_sc_hd__a221o_1
*CAP
1 *2514:A 0.00316989
2 *2509:X 0.00316989
3 *2514:A *2423:A 2.06178e-05
4 *2514:A *2462:B1 0.00033475
5 *2514:A *3083:GATE_N 1.57617e-05
6 *2514:A *570:18 0.0027297
7 *2514:A *806:14 2.84241e-06
8 *2514:A *808:54 3.05874e-05
9 *2514:A *812:28 0.000406896
10 *2514:A *840:29 0.000535346
11 *2514:A *929:83 0.000880508
12 *2510:A1 *2514:A 2.21972e-05
13 *3126:A *2514:A 2.06178e-05
14 *3134:A *2514:A 2.06112e-05
*RES
1 *2509:X *2514:A 44.8937 
*END

*D_NET *566 0.001163
*CONN
*I *2511:C1 I *D sky130_fd_sc_hd__a221o_1
*I *2510:X O *D sky130_fd_sc_hd__a22o_1
*CAP
1 *2511:C1 0.000196792
2 *2510:X 0.000196792
3 *2511:C1 *2511:A2 3.33174e-05
4 *2511:C1 *2513:A2 0.000177815
5 *2511:C1 *2514:C 9.60939e-05
6 *2511:C1 *2522:A2 2.89114e-05
7 *2511:C1 *2523:B1 0.000123295
8 *2511:C1 *2524:C1 0.000123295
9 *2511:C1 *925:86 7.65036e-05
10 *2511:B2 *2511:C1 1.28809e-05
11 *2513:A1 *2511:C1 7.32272e-05
12 *3118:A *2511:C1 2.40767e-05
*RES
1 *2510:X *2511:C1 33.4929 
*END

*D_NET *567 0.000560928
*CONN
*I *2514:B I *D sky130_fd_sc_hd__or3_1
*I *2511:X O *D sky130_fd_sc_hd__a221o_1
*CAP
1 *2514:B 0.000170609
2 *2511:X 0.000170609
3 *2514:B *2513:A2 0.000219711
*RES
1 *2511:X *2514:B 20.7786 
*END

*D_NET *568 0.00111768
*CONN
*I *2513:B1 I *D sky130_fd_sc_hd__a211o_1
*I *2512:X O *D sky130_fd_sc_hd__a22o_1
*CAP
1 *2513:B1 0.000263418
2 *2512:X 0.000263418
3 *2513:B1 *2512:B1 9.47028e-05
4 *2513:B1 *2524:C1 0
5 *2513:B1 *2851:GATE_N 0.000266092
6 *2513:B1 *2978:GATE_N 9.65075e-05
7 *2511:B2 *2513:B1 0.000123288
8 *2513:A1 *2513:B1 1.02504e-05
*RES
1 *2512:X *2513:B1 33.4393 
*END

*D_NET *569 0.000905243
*CONN
*I *2514:C I *D sky130_fd_sc_hd__or3_1
*I *2513:X O *D sky130_fd_sc_hd__a211o_1
*CAP
1 *2514:C 0.000119749
2 *2513:X 0.000119749
3 *2514:C *2513:A2 6.57914e-05
4 *2514:C *2521:A2 9.25014e-06
5 *2514:C *2524:C1 0.00014576
6 *2514:C *925:86 0.00018077
7 *2514:C *929:26 0.000148196
8 *2511:C1 *2514:C 9.60939e-05
9 *3118:A *2514:C 1.98839e-05
*RES
1 *2513:X *2514:C 31.725 
*END

*D_NET *570 0.0177426
*CONN
*I *2515:B2 I *D sky130_fd_sc_hd__o22ai_1
*I *2514:X O *D sky130_fd_sc_hd__or3_1
*CAP
1 *2515:B2 0
2 *2514:X 0.00606278
3 *570:18 0.00606278
4 *570:18 *2462:B1 0.000337324
5 *570:18 *2515:A2 0
6 *570:18 *2604:B 2.00751e-05
7 *570:18 *2648:A0 0.00181699
8 *570:18 *3075:GATE_N 0
9 *570:18 *808:14 0
10 *570:18 *808:54 0.0001046
11 *570:18 *812:28 0.000400719
12 *570:18 *813:26 1.86379e-05
13 *570:18 *838:18 0
14 *570:18 *845:29 0
15 *570:18 *867:10 0
16 *570:18 *867:16 0
17 *570:18 *905:47 2.04825e-05
18 *2507:A1 *570:18 0
19 *2507:B2 *570:18 0
20 *2514:A *570:18 0.0027297
21 *2515:A1 *570:18 0.000149776
22 *3162:A *570:18 1.87217e-05
*RES
1 *2514:X *570:18 46.8016 
2 *570:18 *2515:B2 9.3 
*END

*D_NET *571 0.00295475
*CONN
*I *2632:B I *D sky130_fd_sc_hd__nor2_1
*I *2516:B I *D sky130_fd_sc_hd__nor2_1
*I *2515:Y O *D sky130_fd_sc_hd__o22ai_1
*CAP
1 *2632:B 0.000216395
2 *2516:B 0.000254935
3 *2515:Y 0.000312258
4 *571:10 0.000783588
5 *2516:B *2648:S 5.52302e-05
6 *2516:B *885:26 0.000254937
7 *2516:B *885:32 1.52978e-05
8 *2516:B *962:60 0
9 *2632:B *2632:A 6.20656e-05
10 *2632:B *885:26 0.000107503
11 *571:10 *2515:A2 0.000136951
12 *2516:A *2516:B 0.000521104
13 *2516:A *2632:B 0.000191877
14 *2804:D *571:10 4.26069e-05
*RES
1 *2515:Y *571:10 18.8714 
2 *571:10 *2516:B 21.5679 
3 *571:10 *2632:B 18.9607 
*END

*D_NET *572 0.00167299
*CONN
*I *2518:C1 I *D sky130_fd_sc_hd__a221o_1
*I *2517:X O *D sky130_fd_sc_hd__a22o_1
*CAP
1 *2518:C1 0.000425463
2 *2517:X 0.000425463
3 *2518:C1 *2518:A2 0
4 *2518:C1 *2526:B2 0
5 *2518:C1 *2547:B1 9.55467e-05
6 *2518:C1 *865:21 0.000171368
7 *2518:C1 *865:25 0.000173804
8 *2517:A1 *2518:C1 0.000381346
9 *382:10 *2518:C1 0
*RES
1 *2517:X *2518:C1 36.5821 
*END

*D_NET *573 0.000276575
*CONN
*I *2526:B1 I *D sky130_fd_sc_hd__o22ai_1
*I *2518:X O *D sky130_fd_sc_hd__a221o_1
*CAP
1 *2526:B1 3.65997e-05
2 *2518:X 3.65997e-05
3 *2526:B1 *2515:A2 0.000102545
4 *382:10 *2526:B1 0.000100831
*RES
1 *2518:X *2526:B1 28.9393 
*END

*D_NET *574 0.00141847
*CONN
*I *2520:C1 I *D sky130_fd_sc_hd__a221o_1
*I *2519:X O *D sky130_fd_sc_hd__a22o_1
*CAP
1 *2520:C1 0.000237264
2 *2519:X 0.000237264
3 *2520:C1 *2519:A2 0.000140933
4 *2520:C1 *2900:GATE_N 0.00022918
5 *2520:C1 *660:14 3.30237e-05
6 *2519:A1 *2520:C1 4.60387e-05
7 *2519:B2 *2520:C1 0.000144903
8 *2520:B2 *2520:C1 0.000145753
9 *3202:A *2520:C1 0.000143137
10 *499:38 *2520:C1 6.09782e-05
*RES
1 *2519:X *2520:C1 35.3679 
*END

*D_NET *575 0.00615193
*CONN
*I *2525:A I *D sky130_fd_sc_hd__or3_1
*I *2520:X O *D sky130_fd_sc_hd__a221o_1
*CAP
1 *2525:A 0.000878612
2 *2520:X 0.000727469
3 *575:18 0.00160608
4 *2525:A *2892:GATE_N 4.88637e-05
5 *2525:A *580:10 8.81347e-05
6 *2525:A *814:12 5.33433e-05
7 *2525:A *832:47 0.000691479
8 *575:18 *2943:GATE_N 5.24274e-05
9 *575:18 *3212:A 9.41642e-05
10 *575:18 *580:10 0.000324961
11 *575:18 *864:10 0
12 *575:18 *864:27 0.000525381
13 *575:18 *928:14 5.08697e-05
14 *2519:B2 *575:18 0.000356028
15 *2520:A1 *575:18 2.78822e-05
16 *2609:A1 *2525:A 9.94808e-05
17 *2609:A1 *575:18 2.99232e-05
18 *2609:B2 *2525:A 0.000226507
19 *3114:A *2525:A 0.00027032
*RES
1 *2520:X *575:18 35.4027 
2 *575:18 *2525:A 28.0545 
*END

*D_NET *576 0.00151363
*CONN
*I *2522:C1 I *D sky130_fd_sc_hd__a221o_1
*I *2521:X O *D sky130_fd_sc_hd__a22o_1
*CAP
1 *2522:C1 0.000292487
2 *2521:X 0.000292487
3 *2522:C1 *2522:A2 7.71303e-05
4 *2522:C1 *2522:B1 0.000158807
5 *2522:C1 *2524:C1 6.65398e-05
6 *2522:C1 *2525:B 7.03295e-05
7 *2522:C1 *2525:C 4.25809e-05
8 *2522:C1 *832:47 3.56689e-05
9 *2521:A1 *2522:C1 0.000449059
10 *2522:B2 *2522:C1 2.85377e-05
11 *3134:A *2522:C1 0
*RES
1 *2521:X *2522:C1 36.7429 
*END

*D_NET *577 0.000647174
*CONN
*I *2525:B I *D sky130_fd_sc_hd__or3_1
*I *2522:X O *D sky130_fd_sc_hd__a221o_1
*CAP
1 *2525:B 0.000222922
2 *2522:X 0.000222922
3 *2525:B *2522:B1 7.77001e-05
4 *2521:A1 *2525:B 5.33005e-05
5 *2522:C1 *2525:B 7.03295e-05
*RES
1 *2522:X *2525:B 21.6 
*END

*D_NET *578 0.00130353
*CONN
*I *2524:B1 I *D sky130_fd_sc_hd__a211o_1
*I *2523:X O *D sky130_fd_sc_hd__a22o_1
*CAP
1 *2524:B1 0.000193533
2 *2523:X 0.000193533
3 *2524:B1 *2522:A2 5.57914e-05
4 *2524:B1 *2524:C1 5.71472e-05
5 *2524:B1 *2852:GATE_N 0.00015234
6 *2524:B1 *864:47 0.000486441
7 *2524:A1 *2524:B1 0.000164747
*RES
1 *2523:X *2524:B1 34.6179 
*END

*D_NET *579 0.000952513
*CONN
*I *2525:C I *D sky130_fd_sc_hd__or3_1
*I *2524:X O *D sky130_fd_sc_hd__a211o_1
*CAP
1 *2525:C 0.00031929
2 *2524:X 0.00031929
3 *2525:C *864:47 0.000271352
4 *2522:C1 *2525:C 4.25809e-05
5 *3134:A *2525:C 0
*RES
1 *2524:X *2525:C 32.1357 
*END

*D_NET *580 0.0162739
*CONN
*I *2526:B2 I *D sky130_fd_sc_hd__o22ai_1
*I *2525:X O *D sky130_fd_sc_hd__or3_1
*CAP
1 *2526:B2 0.00075124
2 *2525:X 0.00250266
3 *580:20 0.00268959
4 *580:10 0.004441
5 *2526:B2 *2518:B1 3.39935e-05
6 *2526:B2 *2916:D 0.000229716
7 *2526:B2 *2916:GATE_N 5.57254e-05
8 *2526:B2 *865:6 0.00025614
9 *580:10 *2522:B1 0.000569188
10 *580:10 *2892:GATE_N 5.33433e-05
11 *580:10 *2943:GATE_N 0.000136958
12 *580:10 *832:47 0.000328432
13 *580:10 *864:27 0.000186401
14 *580:20 *2463:B1 0.000874878
15 *580:20 *2518:B1 5.73015e-05
16 *580:20 *2520:A2 0.000201819
17 *580:20 *2619:A2 5.56572e-05
18 *580:20 *2619:B1 0.000440435
19 *580:20 *2619:C1 2.07903e-05
20 *580:20 *2895:D 3.67257e-05
21 *580:20 *2895:GATE_N 4.01768e-05
22 *580:20 *2916:GATE_N 1.96517e-05
23 *580:20 *2932:GATE_N 0.00055656
24 *580:20 *3076:GATE_N 0.000654487
25 *580:20 *893:114 0.000189337
26 *580:20 *919:51 0.000113073
27 *2518:C1 *2526:B2 0
28 *2519:B2 *580:10 8.81471e-06
29 *2520:B2 *580:10 7.6644e-05
30 *2525:A *580:10 8.81347e-05
31 *2609:B2 *580:10 7.84241e-05
32 *382:10 *2526:B2 0.000123288
33 *499:38 *580:10 7.83659e-05
34 *575:18 *580:10 0.000324961
*RES
1 *2525:X *580:10 47.4071 
2 *580:10 *580:20 41.5446 
3 *580:20 *2526:B2 28.4875 
*END

*D_NET *581 0.00290545
*CONN
*I *2527:B I *D sky130_fd_sc_hd__nor2_1
*I *2633:B I *D sky130_fd_sc_hd__nor2_1
*I *2526:Y O *D sky130_fd_sc_hd__o22ai_1
*CAP
1 *2527:B 0
2 *2633:B 7.29647e-05
3 *2526:Y 0.000698387
4 *581:10 0.000771352
5 *2633:B *2538:A 4.96531e-05
6 *2633:B *885:32 4.1331e-06
7 *2633:B *885:36 6.39262e-05
8 *2633:B *886:14 1.02504e-05
9 *581:10 *2515:A2 9.68602e-05
10 *581:10 *2538:A 2.82057e-05
11 *581:10 *661:26 0.000390568
12 *581:10 *885:32 0.000123049
13 *581:10 *886:14 0.000127446
14 *581:10 *887:30 0.000249333
15 *2526:A1 *581:10 3.77065e-05
16 *2813:D *2633:B 0.000123288
17 *426:10 *2633:B 5.83233e-05
*RES
1 *2526:Y *581:10 27.6929 
2 *581:10 *2633:B 16.6571 
3 *581:10 *2527:B 13.8 
*END

*D_NET *582 0.000972544
*CONN
*I *2529:C1 I *D sky130_fd_sc_hd__a221o_1
*I *2528:X O *D sky130_fd_sc_hd__a22o_1
*CAP
1 *2529:C1 0.000320484
2 *2528:X 0.000320484
3 *2529:C1 *2529:B1 3.80195e-05
4 *2529:C1 *2562:B1 0.00018372
5 *2529:C1 *914:157 4.87854e-05
6 *2529:B2 *2529:C1 6.10501e-05
*RES
1 *2528:X *2529:C1 23.1536 
*END

*D_NET *583 0.00105948
*CONN
*I *2537:B1 I *D sky130_fd_sc_hd__o22ai_1
*I *2529:X O *D sky130_fd_sc_hd__a221o_1
*CAP
1 *2537:B1 0.000283032
2 *2529:X 0.000283032
3 *2537:B1 *2537:B2 3.36079e-05
4 *2537:B1 *2547:A2 0.000102196
5 *2537:B1 *2642:B 0.000137983
6 *2529:A1 *2537:B1 3.57269e-05
7 *2537:A1 *2537:B1 0.0001839
*RES
1 *2529:X *2537:B1 33.1714 
*END

*D_NET *584 0.000692584
*CONN
*I *2531:C1 I *D sky130_fd_sc_hd__a221o_1
*I *2530:X O *D sky130_fd_sc_hd__a22o_1
*CAP
1 *2531:C1 0.000190709
2 *2530:X 0.000190709
3 *2531:C1 *2901:GATE_N 0
4 *2531:C1 *852:16 0
5 *2531:C1 *892:43 0
6 *2531:C1 *898:31 0.000311165
*RES
1 *2530:X *2531:C1 31.6714 
*END

*D_NET *585 0.00415499
*CONN
*I *2536:A I *D sky130_fd_sc_hd__or3_1
*I *2531:X O *D sky130_fd_sc_hd__a221o_1
*CAP
1 *2536:A 0
2 *2531:X 0.00119989
3 *585:24 0.00119989
4 *585:24 *2489:B1 0
5 *585:24 *2531:B1 5.33005e-05
6 *585:24 *2592:B2 0.000248603
7 *585:24 *2917:GATE_N 1.94945e-05
8 *585:24 *3034:GATE_N 2.89016e-05
9 *585:24 *590:12 0.000695767
10 *585:24 *805:34 5.52238e-05
11 *585:24 *805:42 0.00011674
12 *585:24 *892:43 1.90936e-05
13 *585:24 *908:28 0.000263538
14 *585:24 *923:26 0.000160375
15 *585:24 *923:36 9.41642e-05
*RES
1 *2531:X *585:24 41.8048 
2 *585:24 *2536:A 9.3 
*END

*D_NET *586 0.00132889
*CONN
*I *2533:C1 I *D sky130_fd_sc_hd__a221o_1
*I *2532:X O *D sky130_fd_sc_hd__a22o_1
*CAP
1 *2533:C1 0.000205326
2 *2532:X 0.000205326
3 *2533:C1 *2532:B1 1.71333e-05
4 *2533:C1 *2853:GATE_N 9.83388e-05
5 *2533:C1 *836:22 0.000350555
6 *2533:C1 *862:35 0.000385267
7 *2532:A1 *2533:C1 1.17091e-05
8 *2533:A1 *2533:C1 5.52302e-05
*RES
1 *2532:X *2533:C1 24.9214 
*END

*D_NET *587 0.0028397
*CONN
*I *2536:B I *D sky130_fd_sc_hd__or3_1
*I *2533:X O *D sky130_fd_sc_hd__a221o_1
*CAP
1 *2536:B 0.000934759
2 *2533:X 0.000934759
3 *2536:B *3018:GATE_N 7.97128e-05
4 *2536:B *862:25 0.00033577
5 *2536:B *862:35 0.000208827
6 *2536:B *904:24 0
7 *2536:B *908:28 0.000142729
8 *2536:B *908:34 6.46722e-05
9 *2589:A1 *2536:B 0.000122887
10 *2589:B2 *2536:B 1.55885e-05
*RES
1 *2533:X *2536:B 41.0821 
*END

*D_NET *588 0.000620808
*CONN
*I *2535:B1 I *D sky130_fd_sc_hd__a211o_1
*I *2534:X O *D sky130_fd_sc_hd__a22o_1
*CAP
1 *2535:B1 0.00014858
2 *2534:X 0.00014858
3 *2535:B1 *2534:A2 0.000105546
4 *2535:B1 *2535:C1 5.52238e-05
5 *2535:B1 *831:40 2.27189e-05
6 *2535:B1 *904:28 2.16719e-05
7 *2535:B1 *908:62 6.32633e-05
8 *2535:A1 *2535:B1 5.52238e-05
*RES
1 *2534:X *2535:B1 30.725 
*END

*D_NET *589 0.000745096
*CONN
*I *2536:C I *D sky130_fd_sc_hd__or3_1
*I *2535:X O *D sky130_fd_sc_hd__a211o_1
*CAP
1 *2536:C 0.000204762
2 *2535:X 0.000204762
3 *2536:C *2535:C1 3.22964e-05
4 *2536:C *833:12 0.000150618
5 *2536:C *921:30 4.46231e-06
6 *2536:C *934:26 0.000148196
*RES
1 *2535:X *2536:C 31.3143 
*END

*D_NET *590 0.0147062
*CONN
*I *2537:B2 I *D sky130_fd_sc_hd__o22ai_1
*I *2536:X O *D sky130_fd_sc_hd__or3_1
*CAP
1 *2537:B2 0.00203437
2 *2536:X 0.000509201
3 *590:24 0.00507885
4 *590:12 0.00355369
5 *2537:B2 *2537:A2 5.52302e-05
6 *2537:B2 *2642:B 5.52302e-05
7 *2537:B2 *2837:D 0.00018108
8 *2537:B2 *2954:D 0.000151619
9 *2537:B2 *2954:GATE_N 0.000470798
10 *2537:B2 *3050:GATE_N 6.05161e-06
11 *2537:B2 *852:47 0.000127737
12 *2537:B2 *863:77 4.87832e-05
13 *2537:B2 *916:95 3.72659e-05
14 *2537:B2 *932:49 8.25843e-06
15 *590:12 *906:22 7.83587e-05
16 *590:24 *2489:A2 1.39506e-05
17 *590:24 *2564:B1 6.38036e-05
18 *590:24 *2833:D 1.58163e-05
19 *590:24 *3041:D 0.000126626
20 *590:24 *805:18 0.000469152
21 *590:24 *805:127 0.000107267
22 *590:24 *811:143 0.00012401
23 *590:24 *822:49 0
24 *590:24 *851:20 0.000296429
25 *590:24 *871:118 1.32724e-05
26 *590:24 *898:50 1.6539e-05
27 *590:24 *921:28 1.26915e-05
28 *2489:B2 *590:24 3.82227e-06
29 *2489:C1 *590:12 7.6644e-05
30 *2492:B *590:24 1.05901e-05
31 *2493:A1 *590:24 6.49214e-05
32 *2537:A1 *2537:B2 0.00016473
33 *2537:B1 *2537:B2 3.36079e-05
34 *585:24 *590:12 0.000695767
*RES
1 *2536:X *590:12 26.0321 
2 *590:12 *590:24 47.7679 
3 *590:24 *2537:B2 35.7464 
*END

*D_NET *591 0.00199835
*CONN
*I *2538:B I *D sky130_fd_sc_hd__nor2_1
*I *2634:B I *D sky130_fd_sc_hd__nor2_1
*I *2537:Y O *D sky130_fd_sc_hd__o22ai_1
*CAP
1 *2538:B 0.000238998
2 *2634:B 0.000105613
3 *2537:Y 0.000178162
4 *591:6 0.000522773
5 *2538:B *2626:B 0.000191064
6 *2538:B *2642:B 3.69047e-06
7 *2634:B *2649:A0 0.000317594
8 *2634:B *888:19 0.000161449
9 *2634:B *888:21 5.80706e-06
10 *591:6 *2537:A2 9.80173e-05
11 *591:6 *2642:B 3.82242e-05
12 *2822:D *2538:B 0.000136958
*RES
1 *2537:Y *591:6 11.4786 
2 *591:6 *2634:B 22.3714 
3 *591:6 *2538:B 13.9964 
*END

*D_NET *592 0.000833287
*CONN
*I *2540:C1 I *D sky130_fd_sc_hd__a221o_1
*I *2539:X O *D sky130_fd_sc_hd__a22o_1
*CAP
1 *2540:C1 0.000205867
2 *2539:X 0.000205867
3 *2540:C1 *2539:B1 5.71472e-05
4 *2540:C1 *809:20 0.000159408
5 *2540:C1 *898:93 6.21805e-05
6 *2540:B2 *2540:C1 0.000142819
*RES
1 *2539:X *2540:C1 32.5107 
*END

*D_NET *593 0.000639977
*CONN
*I *2545:A I *D sky130_fd_sc_hd__or3_1
*I *2540:X O *D sky130_fd_sc_hd__a221o_1
*CAP
1 *2545:A 0.00018612
2 *2540:X 0.00018612
3 *2545:A *2545:C 0.000120348
4 *2545:A *2548:B1 8.50795e-06
5 *2545:A *809:20 0
6 *2545:A *822:39 0
7 *2545:A *847:131 0.000138881
*RES
1 *2540:X *2545:A 30.6 
*END

*D_NET *594 0.000108359
*CONN
*I *2545:B I *D sky130_fd_sc_hd__or3_1
*I *2541:X O *D sky130_fd_sc_hd__a22o_1
*CAP
1 *2545:B 4.87938e-05
2 *2541:X 4.87938e-05
3 *2545:B *918:147 1.07719e-05
*RES
1 *2541:X *2545:B 19.1357 
*END

*D_NET *595 0.000845816
*CONN
*I *2544:B1 I *D sky130_fd_sc_hd__a211o_1
*I *2542:X O *D sky130_fd_sc_hd__a22o_1
*CAP
1 *2544:B1 0.0001802
2 *2542:X 0.0001802
3 *2544:B1 *2542:A2 0.000124594
4 *2544:B1 *906:93 9.91086e-05
5 *2542:B2 *2544:B1 0
6 *2543:A1 *2544:B1 0.000100831
7 *2544:A1 *2544:B1 1.3142e-05
8 *3132:A *2544:B1 0.000147741
*RES
1 *2542:X *2544:B1 32.3321 
*END

*D_NET *596 0.000487336
*CONN
*I *2544:C1 I *D sky130_fd_sc_hd__a211o_1
*I *2543:X O *D sky130_fd_sc_hd__a221o_1
*CAP
1 *2544:C1 0.000140047
2 *2543:X 0.000140047
3 *2544:C1 *3020:GATE_N 7.16452e-05
4 *2544:C1 *816:10 0
5 *2544:C1 *928:39 0.000128161
6 *2543:A1 *2544:C1 7.43578e-06
*RES
1 *2543:X *2544:C1 30.6 
*END

*D_NET *597 0.00946334
*CONN
*I *2545:C I *D sky130_fd_sc_hd__or3_1
*I *2544:X O *D sky130_fd_sc_hd__a211o_1
*CAP
1 *2545:C 0.00234142
2 *2544:X 0.00234142
3 *2545:C *2542:A2 6.37188e-06
4 *2545:C *2544:A2 6.2589e-06
5 *2545:C *2613:A 0.000201723
6 *2545:C *2938:GATE_N 0.00038404
7 *2545:C *814:37 0.000181796
8 *2545:C *814:45 8.6229e-06
9 *2545:C *816:18 0.00018372
10 *2545:C *825:18 0.000113266
11 *2545:C *825:20 0.000467455
12 *2545:C *851:53 0.000388109
13 *2545:C *861:14 0.000347723
14 *2545:C *881:57 0.000194037
15 *2545:C *898:14 0.000384077
16 *2545:C *898:89 0.00131086
17 *2545:C *898:93 4.99283e-06
18 *2540:A1 *2545:C 4.19535e-05
19 *2545:A *2545:C 0.000120348
20 *3132:A *2545:C 2.30116e-06
21 *3144:A *2545:C 0.000432842
*RES
1 *2544:X *2545:C 45.9913 
*END

*D_NET *598 0.00656628
*CONN
*I *2548:B1 I *D sky130_fd_sc_hd__o22ai_1
*I *2545:X O *D sky130_fd_sc_hd__or3_1
*CAP
1 *2548:B1 0.00119394
2 *2545:X 0.00119394
3 *2548:B1 *2547:B1 2.28544e-05
4 *2548:B1 *2548:B2 2.28544e-05
5 *2548:B1 *2613:A 0.000605501
6 *2548:B1 *2844:GATE_N 0.00010312
7 *2548:B1 *809:20 2.95746e-06
8 *2548:B1 *822:39 9.54798e-06
9 *2548:B1 *830:71 0.00151584
10 *2548:B1 *861:14 0.000467043
11 *2548:B1 *898:161 0.000550233
12 *2548:B1 *914:151 0.000869937
13 *2545:A *2548:B1 8.50795e-06
*RES
1 *2545:X *2548:B1 40.2247 
*END

*D_NET *599 0.00195779
*CONN
*I *2547:C1 I *D sky130_fd_sc_hd__a221o_1
*I *2546:X O *D sky130_fd_sc_hd__a22o_1
*CAP
1 *2547:C1 0.000629468
2 *2546:X 0.000629468
3 *2547:C1 *3156:A 8.81544e-05
4 *2547:C1 *838:34 0.000247771
5 *2547:C1 *860:6 3.69047e-06
6 *2547:C1 *860:10 1.58163e-05
7 *2547:C1 *860:16 0.000173804
8 *2547:C1 *860:97 8.15095e-05
9 *2547:C1 *894:142 3.28802e-05
10 *2546:B2 *2547:C1 5.52302e-05
*RES
1 *2546:X *2547:C1 37.4571 
*END

*D_NET *600 0.000889669
*CONN
*I *2548:B2 I *D sky130_fd_sc_hd__o22ai_1
*I *2547:X O *D sky130_fd_sc_hd__a221o_1
*CAP
1 *2548:B2 0.000291086
2 *2547:X 0.000291086
3 *2548:B2 *2547:B1 0
4 *2548:B2 *884:16 9.97744e-05
5 *2517:A1 *2548:B2 9.25014e-06
6 *2547:A1 *2548:B2 9.55363e-05
7 *2547:B2 *2548:B2 8.00806e-05
8 *2548:B1 *2548:B2 2.28544e-05
9 *382:10 *2548:B2 0
*RES
1 *2547:X *2548:B2 34.4036 
*END

*D_NET *601 0.00238031
*CONN
*I *2549:B I *D sky130_fd_sc_hd__nor2_1
*I *2635:B I *D sky130_fd_sc_hd__nor2_1
*I *2548:Y O *D sky130_fd_sc_hd__o22ai_1
*CAP
1 *2549:B 0.000216535
2 *2635:B 0.000293058
3 *2548:Y 0.00027059
4 *601:8 0.000780183
5 *2635:B *2649:A0 0.000152333
6 *2635:B *2649:S 0.000128146
7 *2635:B *885:32 0
8 *2635:B *885:36 0
9 *2635:B *932:22 0
10 *601:8 *2548:A2 0.000183015
11 *2548:A1 *2635:B 0.000128154
12 *2548:A1 *601:8 8.78754e-05
13 *2815:D *2549:B 1.24368e-05
14 *3161:A *2635:B 0.00012798
*RES
1 *2548:Y *601:8 13.9607 
2 *601:8 *2635:B 26.0143 
3 *601:8 *2549:B 12.6214 
*END

*D_NET *602 0.000855124
*CONN
*I *2551:C1 I *D sky130_fd_sc_hd__a221o_1
*I *2550:X O *D sky130_fd_sc_hd__a22o_1
*CAP
1 *2551:C1 0.00023359
2 *2550:X 0.00023359
3 *2551:C1 *2452:B1 1.18064e-05
4 *2551:C1 *892:121 0.000120267
5 *2551:B2 *2551:C1 1.02504e-05
6 *3154:A *2551:C1 0.000245619
*RES
1 *2550:X *2551:C1 31.4214 
*END

*D_NET *603 0.000193275
*CONN
*I *2559:B1 I *D sky130_fd_sc_hd__o22ai_2
*I *2551:X O *D sky130_fd_sc_hd__a221o_1
*CAP
1 *2559:B1 5.26835e-05
2 *2551:X 5.26835e-05
3 *2559:B1 *2473:A2 6.11267e-05
4 *2559:B1 *911:92 2.67816e-05
*RES
1 *2551:X *2559:B1 19.8679 
*END

*D_NET *604 0.00178009
*CONN
*I *2553:C1 I *D sky130_fd_sc_hd__a221o_1
*I *2552:X O *D sky130_fd_sc_hd__a22o_1
*CAP
1 *2553:C1 0.000478477
2 *2552:X 0.000478477
3 *2553:C1 *2552:A2 6.03385e-05
4 *2553:C1 *2553:A2 0.000221634
5 *2553:C1 *3047:D 0.000277176
6 *2553:C1 *605:18 2.95726e-05
7 *2553:C1 *859:24 0.000137983
8 *2553:C1 *916:50 2.61337e-05
9 *2553:A1 *2553:C1 5.71472e-05
10 *3151:A *2553:C1 1.31516e-05
11 *385:8 *2553:C1 0
*RES
1 *2552:X *2553:C1 36.85 
*END

*D_NET *605 0.00499007
*CONN
*I *2558:A I *D sky130_fd_sc_hd__or3_1
*I *2553:X O *D sky130_fd_sc_hd__a221o_1
*CAP
1 *2558:A 0
2 *2553:X 0.00157241
3 *605:18 0.00157241
4 *605:18 *2553:A2 1.98839e-05
5 *605:18 *2558:C 9.60875e-05
6 *605:18 *2580:A 0.000225609
7 *605:18 *2919:D 1.07719e-05
8 *605:18 *2921:D 0.000119125
9 *605:18 *2937:GATE_N 0
10 *605:18 *811:60 0
11 *605:18 *858:34 3.63775e-05
12 *605:18 *859:24 0.000484954
13 *605:18 *916:50 0.000733643
14 *2453:A1 *605:18 3.10885e-05
15 *2453:B2 *605:18 3.10885e-05
16 *2553:C1 *605:18 2.95726e-05
17 *2575:A1 *605:18 2.70583e-05
*RES
1 *2553:X *605:18 44.0321 
2 *605:18 *2558:A 9.3 
*END

*D_NET *606 0.00128802
*CONN
*I *2555:C1 I *D sky130_fd_sc_hd__a221o_1
*I *2554:X O *D sky130_fd_sc_hd__a22o_1
*CAP
1 *2555:C1 0.00046292
2 *2554:X 0.00046292
3 *2555:C1 *2555:B1 0
4 *2555:C1 *2557:A2 0.000165321
5 *2555:C1 *2967:D 6.48387e-06
6 *2555:C1 *3070:GATE_N 0
7 *2555:C1 *923:36 9.9974e-05
8 *2555:A1 *2555:C1 5.52238e-05
9 *515:34 *2555:C1 3.51724e-05
*RES
1 *2554:X *2555:C1 34.9571 
*END

*D_NET *607 0.000555173
*CONN
*I *2558:B I *D sky130_fd_sc_hd__or3_1
*I *2555:X O *D sky130_fd_sc_hd__a221o_1
*CAP
1 *2558:B 0.000182732
2 *2555:X 0.000182732
3 *2558:B *2555:A2 4.15914e-05
4 *2558:B *2557:C1 0.000131659
5 *2558:B *2558:C 5.30637e-06
6 *2558:B *858:34 1.1152e-05
*RES
1 *2555:X *2558:B 30.4036 
*END

*D_NET *608 0.000539541
*CONN
*I *2557:B1 I *D sky130_fd_sc_hd__a211o_1
*I *2556:X O *D sky130_fd_sc_hd__a22o_1
*CAP
1 *2557:B1 0.000174495
2 *2556:X 0.000174495
3 *2557:B1 *2557:C1 1.02504e-05
4 *2557:B1 *2910:GATE_N 0.000122689
5 *2557:B1 *3070:GATE_N 0
6 *2557:A1 *2557:B1 0
7 *515:34 *2557:B1 5.76121e-05
*RES
1 *2556:X *2557:B1 30.6 
*END

*D_NET *609 0.000608545
*CONN
*I *2558:C I *D sky130_fd_sc_hd__or3_1
*I *2557:X O *D sky130_fd_sc_hd__a211o_1
*CAP
1 *2558:C 9.88628e-05
2 *2557:X 9.88628e-05
3 *2558:C *2559:B2 2.21972e-05
4 *2558:C *811:60 0.00014955
5 *2558:C *858:34 7.32173e-05
6 *2453:B2 *2558:C 6.44614e-05
7 *2558:B *2558:C 5.30637e-06
8 *605:18 *2558:C 9.60875e-05
*RES
1 *2557:X *2558:C 30.9036 
*END

*D_NET *610 0.00976662
*CONN
*I *2559:B2 I *D sky130_fd_sc_hd__o22ai_2
*I *2558:X O *D sky130_fd_sc_hd__or3_1
*CAP
1 *2559:B2 0.00205865
2 *2558:X 0.00205865
3 *2559:B2 *2581:B2 0.00358372
4 *2559:B2 *3079:GATE_N 0.000182758
5 *2559:B2 *631:18 0.000655488
6 *2559:B2 *838:105 0
7 *2453:B2 *2559:B2 2.06112e-05
8 *2481:A *2559:B2 0.000841546
9 *2482:B2 *2559:B2 0.000342991
10 *2558:C *2559:B2 2.21972e-05
*RES
1 *2558:X *2559:B2 44.3522 
*END

*D_NET *611 0.00431645
*CONN
*I *2560:B I *D sky130_fd_sc_hd__nor2_1
*I *2636:B I *D sky130_fd_sc_hd__nor2_1
*I *2559:Y O *D sky130_fd_sc_hd__o22ai_2
*CAP
1 *2560:B 0.001303
2 *2636:B 0.000134677
3 *2559:Y 0
4 *611:6 0.00143767
5 *2560:B *2474:A2 2.79888e-05
6 *2560:B *3040:D 4.70078e-05
7 *2560:B *3040:GATE_N 0.000144773
8 *2560:B *3072:D 1.92789e-05
9 *2560:B *3072:GATE_N 7.3237e-05
10 *2560:B *3079:GATE_N 0.000114045
11 *2560:B *874:53 9.40278e-05
12 *2560:B *886:54 1.85392e-05
13 *2636:B *3079:GATE_N 0.000194949
14 *2636:B *838:54 0.000139913
15 *2473:B2 *2560:B 0.000142856
16 *2474:A1 *2560:B 5.12371e-05
17 *2474:B2 *2560:B 9.0295e-05
18 *2474:C1 *2560:B 5.41879e-05
19 *2482:B1 *2560:B 5.33005e-05
20 *2800:D *2636:B 1.92905e-05
21 *3157:A *2560:B 6.09476e-05
22 *3157:A *2636:B 9.52291e-05
*RES
1 *2559:Y *611:6 13.8 
2 *611:6 *2636:B 17.7107 
3 *611:6 *2560:B 34.3893 
*END

*D_NET *612 0.000299637
*CONN
*I *2562:C1 I *D sky130_fd_sc_hd__a221o_1
*I *2561:X O *D sky130_fd_sc_hd__a22o_1
*CAP
1 *2562:C1 6.84327e-05
2 *2561:X 6.84327e-05
3 *2562:C1 *2562:B1 6.05161e-06
4 *2562:C1 *994:18 0.00015672
*RES
1 *2561:X *2562:C1 20.2786 
*END

*D_NET *613 0.00089213
*CONN
*I *2570:B1 I *D sky130_fd_sc_hd__o22ai_1
*I *2562:X O *D sky130_fd_sc_hd__a221o_1
*CAP
1 *2570:B1 0.000234593
2 *2562:X 0.000234593
3 *2570:B1 *2642:B 0.000103253
4 *2570:B1 *2658:A0 1.41029e-05
5 *2570:B1 *994:18 3.06878e-06
6 *2562:A1 *2570:B1 0.00030252
*RES
1 *2562:X *2570:B1 31.5286 
*END

*D_NET *614 0.00342372
*CONN
*I *2564:C1 I *D sky130_fd_sc_hd__a221o_1
*I *2563:X O *D sky130_fd_sc_hd__a22o_1
*CAP
1 *2564:C1 0.000624187
2 *2563:X 0.000624187
3 *2564:C1 *2487:A2 3.28686e-05
4 *2564:C1 *2913:GATE_N 2.89016e-05
5 *2564:C1 *871:33 2.61292e-05
6 *2564:C1 *872:18 0.000481906
7 *2564:C1 *872:55 0.000237103
8 *2564:C1 *872:62 9.60875e-05
9 *2564:C1 *918:25 0.000359489
10 *2487:B2 *2564:C1 1.28809e-05
11 *2492:A *2564:C1 0.000522439
12 *2564:B2 *2564:C1 1.97695e-05
13 *385:8 *2564:C1 0.000357774
*RES
1 *2563:X *2564:C1 43.9214 
*END

*D_NET *615 0.00540127
*CONN
*I *2569:A I *D sky130_fd_sc_hd__or3_1
*I *2564:X O *D sky130_fd_sc_hd__a221o_1
*CAP
1 *2569:A 0
2 *2564:X 0.00196022
3 *615:12 0.00196022
4 *615:12 *2569:B 8.00806e-05
5 *615:12 *2865:D 4.01768e-05
6 *615:12 *2865:GATE_N 5.33433e-05
7 *615:12 *831:28 2.07382e-05
8 *615:12 *831:30 1.15281e-05
9 *615:12 *831:40 0.000305108
10 *615:12 *871:33 0.000801694
11 *615:12 *871:51 5.40661e-05
12 *615:12 *871:53 5.5671e-05
13 *615:12 *900:52 2.49484e-05
14 *615:12 *908:68 0
15 *2534:B2 *615:12 3.34672e-05
*RES
1 *2564:X *615:12 45.1214 
2 *615:12 *2569:A 9.3 
*END

*D_NET *616 0.0019525
*CONN
*I *2566:C1 I *D sky130_fd_sc_hd__a221o_1
*I *2565:X O *D sky130_fd_sc_hd__a22o_1
*CAP
1 *2566:C1 0.00027195
2 *2565:X 0.00027195
3 *2566:C1 *836:38 4.58194e-05
4 *2566:C1 *906:114 0.00058838
5 *2566:C1 *906:116 5.83233e-05
6 *2565:A1 *2566:C1 0.000624238
7 *2567:A1 *2566:C1 9.18429e-05
*RES
1 *2565:X *2566:C1 37.6893 
*END

*D_NET *617 0.00184725
*CONN
*I *2569:B I *D sky130_fd_sc_hd__or3_1
*I *2566:X O *D sky130_fd_sc_hd__a221o_1
*CAP
1 *2569:B 0.000568854
2 *2566:X 0.000568854
3 *2569:B *2566:A2 9.47028e-05
4 *2569:B *2885:GATE_N 0.000186662
5 *2569:B *831:40 0.000150109
6 *2569:B *900:52 0.000197984
7 *2569:B *908:62 0
8 *2534:B2 *2569:B 0
9 *615:12 *2569:B 8.00806e-05
*RES
1 *2566:X *2569:B 36.4393 
*END

*D_NET *618 0.000841085
*CONN
*I *2568:B1 I *D sky130_fd_sc_hd__a211o_1
*I *2567:X O *D sky130_fd_sc_hd__a22o_1
*CAP
1 *2568:B1 0.000263584
2 *2567:X 0.000263584
3 *2568:B1 *2567:B1 0.000271345
4 *2568:B1 *820:24 0
5 *2568:B1 *831:53 4.25716e-05
*RES
1 *2567:X *2568:B1 31.8321 
*END

*D_NET *619 0.000505518
*CONN
*I *2569:C I *D sky130_fd_sc_hd__or3_1
*I *2568:X O *D sky130_fd_sc_hd__a211o_1
*CAP
1 *2569:C 8.62207e-05
2 *2568:X 8.62207e-05
3 *2569:C *2567:B1 9.60939e-05
4 *2569:C *2965:D 9.25014e-06
5 *2569:C *831:53 5.97623e-05
6 *2569:C *900:52 0.000125724
7 *2569:C *908:68 1.33343e-05
8 *2534:B2 *2569:C 2.89114e-05
*RES
1 *2568:X *2569:C 30.1893 
*END

*D_NET *620 0.0159938
*CONN
*I *2570:B2 I *D sky130_fd_sc_hd__o22ai_1
*I *2569:X O *D sky130_fd_sc_hd__or3_1
*CAP
1 *2570:B2 0
2 *2569:X 0.00687787
3 *620:18 0.00687787
4 *620:18 *2593:B 0.00164031
5 *620:18 *2642:B 0.00018348
6 *620:18 *856:60 0.000210033
7 *620:18 *900:52 0
8 *620:18 *904:38 8.43894e-06
9 *620:18 *908:68 8.23597e-06
10 *620:18 *908:83 0
11 *620:18 *911:72 0
12 *428:16 *620:18 0.000187624
*RES
1 *2569:X *620:18 41.2653 
2 *620:18 *2570:B2 9.3 
*END

*D_NET *621 0.00161137
*CONN
*I *2571:B I *D sky130_fd_sc_hd__nor2_1
*I *2637:B I *D sky130_fd_sc_hd__nor2_1
*I *2570:Y O *D sky130_fd_sc_hd__o22ai_1
*CAP
1 *2571:B 2.91143e-05
2 *2637:B 0
3 *2570:Y 0.000437333
4 *621:20 0.000466447
5 *621:20 *2482:A2 0.000276664
6 *621:20 *2570:A2 9.60939e-05
7 *621:20 *2637:A 9.41642e-05
8 *621:20 *888:34 0.00015134
9 *551:40 *621:20 6.02165e-05
*RES
1 *2570:Y *621:20 26.9161 
2 *621:20 *2637:B 9.3 
3 *621:20 *2571:B 9.83571 
*END

*D_NET *622 0.000817227
*CONN
*I *2573:C1 I *D sky130_fd_sc_hd__a221o_1
*I *2572:X O *D sky130_fd_sc_hd__a22o_1
*CAP
1 *2573:C1 9.17338e-05
2 *2572:X 9.17338e-05
3 *2573:C1 *805:148 0.00031688
4 *2573:C1 *822:117 0.00031688
*RES
1 *2572:X *2573:C1 31.6714 
*END

*D_NET *623 0.00103516
*CONN
*I *2581:B1 I *D sky130_fd_sc_hd__o22ai_2
*I *2573:X O *D sky130_fd_sc_hd__a221o_1
*CAP
1 *2581:B1 0.00027812
2 *2573:X 0.00027812
3 *2581:B1 *2942:GATE_N 0
4 *2581:B1 *822:59 0
5 *2581:B1 *827:62 0.000180777
6 *2581:B1 *911:78 0.00017097
7 *2581:B1 *911:92 3.10819e-05
8 *2581:B1 *911:131 9.60939e-05
*RES
1 *2573:X *2581:B1 33.7429 
*END

*D_NET *624 0.00141878
*CONN
*I *2575:C1 I *D sky130_fd_sc_hd__a221o_1
*I *2574:X O *D sky130_fd_sc_hd__a22o_1
*CAP
1 *2575:C1 0.000246326
2 *2574:X 0.000246326
3 *2575:C1 *2575:B1 5.52238e-05
4 *2575:C1 *3054:GATE_N 5.33433e-05
5 *2575:C1 *807:24 5.01213e-05
6 *2575:C1 *807:26 0.000125908
7 *2575:C1 *916:50 0.000306317
8 *381:16 *2575:C1 0.000335215
*RES
1 *2574:X *2575:C1 34.975 
*END

*D_NET *625 0.002484
*CONN
*I *2580:A I *D sky130_fd_sc_hd__or3_1
*I *2575:X O *D sky130_fd_sc_hd__a221o_1
*CAP
1 *2580:A 0.00109697
2 *2575:X 0.00109697
3 *2580:A *2921:D 6.4443e-05
4 *605:18 *2580:A 0.000225609
*RES
1 *2575:X *2580:A 31.7786 
*END

*D_NET *626 0.000655294
*CONN
*I *2577:C1 I *D sky130_fd_sc_hd__a221o_1
*I *2576:X O *D sky130_fd_sc_hd__a22o_1
*CAP
1 *2577:C1 0.000200945
2 *2576:X 0.000200945
3 *2577:C1 *2576:A2 0.000184745
4 *2577:C1 *2849:GATE_N 5.84075e-05
5 *2577:C1 *833:14 0
6 *2577:B2 *2577:C1 1.02504e-05
*RES
1 *2576:X *2577:C1 31.0107 
*END

*D_NET *627 0.000457705
*CONN
*I *2580:B I *D sky130_fd_sc_hd__or3_1
*I *2577:X O *D sky130_fd_sc_hd__a221o_1
*CAP
1 *2580:B 0.000195794
2 *2577:X 0.000195794
3 *2580:B *2887:GATE_N 0
4 *2580:B *853:37 2.68406e-05
5 *2580:B *923:36 3.92757e-05
*RES
1 *2577:X *2580:B 30.4036 
*END

*D_NET *628 0.000437085
*CONN
*I *2579:B1 I *D sky130_fd_sc_hd__a211o_1
*I *2578:X O *D sky130_fd_sc_hd__a22o_1
*CAP
1 *2579:B1 0.000115954
2 *2578:X 0.000115954
3 *2579:B1 *2554:B1 5.71472e-05
4 *2579:B1 *2855:GATE_N 0.000117662
5 *2579:B1 *923:63 3.03692e-05
*RES
1 *2578:X *2579:B1 29.7786 
*END

*D_NET *629 0.00101397
*CONN
*I *2580:C I *D sky130_fd_sc_hd__or3_1
*I *2579:X O *D sky130_fd_sc_hd__a211o_1
*CAP
1 *2580:C 0.000339755
2 *2579:X 0.000339755
3 *2580:C *2557:A2 4.35752e-05
4 *2580:C *2887:GATE_N 2.89114e-05
5 *2580:C *858:34 4.90803e-05
6 *2580:C *858:38 0.000148903
7 *2580:C *923:36 6.39901e-05
*RES
1 *2579:X *2580:C 33.85 
*END

*D_NET *630 0.00901465
*CONN
*I *2581:B2 I *D sky130_fd_sc_hd__o22ai_2
*I *2580:X O *D sky130_fd_sc_hd__or3_1
*CAP
1 *2581:B2 0.00254372
2 *2580:X 0.00254372
3 *2581:B2 *2555:B1 0
4 *2581:B2 *2841:D 2.11419e-05
5 *2581:B2 *911:72 0
6 *2581:B2 *911:92 2.06112e-05
7 *2581:B2 *923:36 5.94788e-05
8 *2481:A *2581:B2 0.000242248
9 *2559:B2 *2581:B2 0.00358372
*RES
1 *2580:X *2581:B2 43.2974 
*END

*D_NET *631 0.00665699
*CONN
*I *2582:B I *D sky130_fd_sc_hd__nor2_1
*I *2638:B I *D sky130_fd_sc_hd__nor2_1
*I *2581:Y O *D sky130_fd_sc_hd__o22ai_2
*CAP
1 *2582:B 0
2 *2638:B 0.000269754
3 *2581:Y 0.00215609
4 *631:18 0.00242585
5 *2638:B *2461:A 3.75052e-05
6 *2638:B *3329:A 3.48235e-05
7 *2638:B *842:36 0.000132437
8 *2638:B *886:50 3.22325e-05
9 *2638:B *886:62 0.000122213
10 *2638:B *1054:28 0.000168217
11 *631:18 *2550:A2 4.23907e-05
12 *631:18 *2551:B1 0.000259549
13 *631:18 *858:15 3.63775e-05
14 *631:18 *886:50 2.11419e-05
15 *631:18 *892:121 2.75651e-06
16 PWDATA[5] *2638:B 1.41029e-05
17 *2482:B2 *631:18 0
18 *2559:B2 *631:18 0.000655488
19 *2581:A1 *631:18 0.000146947
20 *77:20 *2638:B 9.91086e-05
21 *426:10 *2638:B 0
*RES
1 *2581:Y *631:18 28.3654 
2 *631:18 *2638:B 21.5143 
3 *631:18 *2582:B 13.8 
*END

*D_NET *632 0.00148948
*CONN
*I *2584:C1 I *D sky130_fd_sc_hd__a221o_1
*I *2583:X O *D sky130_fd_sc_hd__a22o_1
*CAP
1 *2584:C1 0.000454972
2 *2583:X 0.000454972
3 *2584:C1 *2529:A2 0
4 *2584:C1 *2605:A2 0.000273406
5 *2584:C1 *2842:D 0
6 *2584:C1 *805:148 3.2006e-05
7 *2584:C1 *896:40 5.37963e-05
8 *2584:C1 *916:103 0.000195378
9 *2584:C1 *932:49 2.49484e-05
10 *2583:A1 *2584:C1 0
*RES
1 *2583:X *2584:C1 36.1714 
*END

*D_NET *633 0.000818464
*CONN
*I *2592:B1 I *D sky130_fd_sc_hd__o22ai_2
*I *2584:X O *D sky130_fd_sc_hd__a221o_1
*CAP
1 *2592:B1 0.000229454
2 *2584:X 0.000229454
3 *2592:B1 *3045:D 1.92905e-05
4 *2592:B1 *827:48 0.000146985
5 *2592:B1 *863:40 0.000146985
6 *2592:B1 *916:111 4.62969e-05
*RES
1 *2584:X *2592:B1 31.725 
*END

*D_NET *634 0.00037683
*CONN
*I *2586:C1 I *D sky130_fd_sc_hd__a221o_1
*I *2585:X O *D sky130_fd_sc_hd__a22o_1
*CAP
1 *2586:C1 0.000109117
2 *2585:X 0.000109117
3 *2586:C1 *2585:A2 5.52302e-05
4 *2586:C1 *2585:B1 1.07753e-05
5 *2586:C1 *2938:D 3.47641e-06
6 *2586:C1 *807:18 3.75248e-05
7 *2586:C1 *898:20 2.75651e-06
8 *2585:A1 *2586:C1 3.92854e-05
9 *2586:B2 *2586:C1 9.54798e-06
*RES
1 *2585:X *2586:C1 29.7786 
*END

*D_NET *635 0.00501275
*CONN
*I *2591:A I *D sky130_fd_sc_hd__or3_1
*I *2586:X O *D sky130_fd_sc_hd__a221o_1
*CAP
1 *2591:A 0.00017176
2 *2586:X 0.00119746
3 *635:20 0.00136922
4 *2591:A *2591:C 4.25716e-05
5 *2591:A *2972:D 1.02504e-05
6 *2591:A *2993:GATE_N 0
7 *2591:A *805:54 0
8 *2591:A *862:25 5.62995e-05
9 *2591:A *908:12 0
10 *635:20 *2530:A2 5.52238e-05
11 *635:20 *2906:GATE_N 5.5518e-05
12 *635:20 *2938:D 0
13 *635:20 *3066:GATE_N 0.00048746
14 *635:20 *3198:A 0.000142856
15 *635:20 *807:18 0.000246778
16 *635:20 *807:22 3.17148e-05
17 *635:20 *829:41 5.30637e-06
18 *635:20 *847:125 0.000113043
19 *635:20 *898:20 0.000272371
20 *635:20 *900:38 0.000479645
21 *635:20 *908:12 8.70757e-05
22 *2586:B2 *635:20 7.5779e-05
23 *2611:B2 *635:20 0.000112417
*RES
1 *2586:X *635:20 47.9071 
2 *635:20 *2591:A 17.3 
*END

*D_NET *636 0.000418412
*CONN
*I *2588:C1 I *D sky130_fd_sc_hd__a221o_1
*I *2587:X O *D sky130_fd_sc_hd__a22o_1
*CAP
1 *2588:C1 0.00018054
2 *2587:X 0.00018054
3 *2588:C1 *2587:A2 1.83136e-05
4 *2588:C1 *906:93 3.55344e-05
5 *2588:C1 *906:99 3.4846e-06
*RES
1 *2587:X *2588:C1 30.0821 
*END

*D_NET *637 0.00413704
*CONN
*I *2591:B I *D sky130_fd_sc_hd__or3_1
*I *2588:X O *D sky130_fd_sc_hd__a221o_1
*CAP
1 *2591:B 0
2 *2588:X 0.0014792
3 *637:20 0.0014792
4 *637:20 *2998:D 7.15846e-05
5 *637:20 *3018:GATE_N 7.48091e-05
6 *637:20 *851:59 4.70078e-05
7 *637:20 *851:102 0.000242074
8 *637:20 *862:25 0.000215215
9 *637:20 *904:22 0.000138081
10 *637:20 *908:34 0.000389861
*RES
1 *2588:X *637:20 41.7643 
2 *637:20 *2591:B 9.3 
*END

*D_NET *638 0.00102396
*CONN
*I *2590:B1 I *D sky130_fd_sc_hd__a211o_1
*I *2589:X O *D sky130_fd_sc_hd__a22o_1
*CAP
1 *2590:B1 0.000146719
2 *2589:X 0.000146719
3 *2590:B1 *833:12 0.000337644
4 *2590:B1 *908:28 5.52302e-05
5 *2590:B1 *934:26 0.000337644
*RES
1 *2589:X *2590:B1 32.5107 
*END

*D_NET *639 0.000740202
*CONN
*I *2591:C I *D sky130_fd_sc_hd__or3_1
*I *2590:X O *D sky130_fd_sc_hd__a211o_1
*CAP
1 *2591:C 0.000252353
2 *2590:X 0.000252353
3 *2591:C *2972:GATE_N 0.000100625
4 *2591:C *2993:GATE_N 7.8327e-05
5 *2591:C *900:38 1.39726e-05
6 *2591:C *908:12 0
7 *2591:A *2591:C 4.25716e-05
*RES
1 *2590:X *2591:C 31.725 
*END

*D_NET *640 0.00969709
*CONN
*I *2592:B2 I *D sky130_fd_sc_hd__o22ai_2
*I *2591:X O *D sky130_fd_sc_hd__or3_1
*CAP
1 *2592:B2 0.00418218
2 *2591:X 0.00418218
3 *2592:B2 *2993:GATE_N 0
4 *2592:B2 *811:32 0.00038773
5 *2592:B2 *825:18 0
6 *2592:B2 *825:130 7.96824e-05
7 *2592:B2 *827:48 2.75651e-06
8 *2592:B2 *851:20 0
9 *2592:B2 *863:38 0.000116331
10 *2592:B2 *863:40 3.27359e-05
11 *2592:B2 *908:12 1.30905e-05
12 *2592:B2 *932:30 5.51755e-05
13 *3106:A *2592:B2 0.000369181
14 *3144:A *2592:B2 0
15 *3204:A *2592:B2 2.74457e-05
16 *585:24 *2592:B2 0.000248603
*RES
1 *2591:X *2592:B2 46.0818 
*END

*D_NET *641 0.0108173
*CONN
*I *2593:B I *D sky130_fd_sc_hd__nor2_1
*I *2639:B I *D sky130_fd_sc_hd__nor2_1
*I *2592:Y O *D sky130_fd_sc_hd__o22ai_2
*CAP
1 *2593:B 0.00124153
2 *2639:B 0.00099028
3 *2592:Y 0.000251122
4 *641:10 0.00248293
5 *2593:B *2630:A 9.60939e-05
6 *2593:B *888:21 1.94945e-05
7 *2593:B *994:18 0.000134461
8 *2639:B *2460:A2 1.55885e-05
9 *2639:B *2550:A2 0.000865301
10 *2639:B *2936:GATE_N 0.000145406
11 *2639:B *3031:GATE_N 0.000190053
12 *2639:B *3064:D 9.60875e-05
13 *2639:B *838:70 0.0001827
14 *2639:B *838:105 0.000466783
15 *2639:B *855:113 4.8936e-05
16 *2639:B *896:48 2.94555e-05
17 *2639:B *896:50 0
18 *2639:B *1003:14 0.000887779
19 *641:10 *2936:GATE_N 8.79872e-05
20 *641:10 *2954:GATE_N 9.71197e-05
21 *641:10 *825:130 8.33463e-05
22 *641:10 *838:105 0.000203513
23 *641:10 *896:48 6.8089e-05
24 *641:10 *932:49 2.89114e-05
25 *2550:A1 *2639:B 7.80714e-06
26 *2592:A1 *641:10 0.00031275
27 *2794:D *2593:B 2.79421e-05
28 *3154:A *2639:B 8.06843e-05
29 *3173:A *2639:B 1.3701e-05
30 *427:10 *2593:B 2.11419e-05
31 *620:18 *2593:B 0.00164031
*RES
1 *2592:Y *641:10 21.7018 
2 *641:10 *2639:B 47.3446 
3 *641:10 *2593:B 26.9884 
*END

*D_NET *642 0.000431235
*CONN
*I *2595:C1 I *D sky130_fd_sc_hd__a221o_1
*I *2594:X O *D sky130_fd_sc_hd__a22o_1
*CAP
1 *2595:C1 0.000174871
2 *2594:X 0.000174871
3 *2595:C1 *829:20 0
4 *2595:C1 *889:56 0
5 *2594:B2 *2595:C1 0
6 *2595:A1 *2595:C1 2.62628e-05
7 *477:26 *2595:C1 5.52302e-05
*RES
1 *2594:X *2595:C1 30.0821 
*END

*D_NET *643 0.00080506
*CONN
*I *2603:B1 I *D sky130_fd_sc_hd__o22ai_2
*I *2595:X O *D sky130_fd_sc_hd__a221o_1
*CAP
1 *2603:B1 0.000243578
2 *2595:X 0.000243578
3 *2603:B1 *2603:B2 7.73108e-05
4 *2603:B1 *839:16 1.94879e-05
5 *2603:B1 *917:34 0
6 *2496:B2 *2603:B1 1.02504e-05
7 *3188:A *2603:B1 0.00015563
8 *498:16 *2603:B1 5.52238e-05
*RES
1 *2595:X *2603:B1 32.5107 
*END

*D_NET *644 0.00147574
*CONN
*I *2602:A I *D sky130_fd_sc_hd__or3_1
*I *2596:X O *D sky130_fd_sc_hd__a22o_1
*CAP
1 *2602:A 0.000429333
2 *2596:X 0.000429333
3 *2602:A *2602:C 9.90431e-05
4 *2602:A *810:106 7.50601e-05
5 *2602:A *829:20 0
6 *2602:A *889:56 0
7 *2602:A *899:23 9.24395e-05
8 *2602:A *899:29 0.000236571
9 *2503:D *2602:A 5.03772e-05
10 *3205:A *2602:A 6.35819e-05
*RES
1 *2596:X *2602:A 37.475 
*END

*D_NET *645 0.000374145
*CONN
*I *2599:B1 I *D sky130_fd_sc_hd__a211o_1
*I *2597:X O *D sky130_fd_sc_hd__a22o_1
*CAP
1 *2599:B1 0.000126083
2 *2597:X 0.000126083
3 *2599:B1 *903:12 5.52238e-05
4 *2599:A1 *2599:B1 5.80706e-06
5 *3193:A *2599:B1 6.09476e-05
*RES
1 *2597:X *2599:B1 29.7786 
*END

*D_NET *646 0.00240728
*CONN
*I *2599:C1 I *D sky130_fd_sc_hd__a211o_1
*I *2598:X O *D sky130_fd_sc_hd__a221o_1
*CAP
1 *2599:C1 0.000388161
2 *2598:X 0.000388161
3 *2599:C1 *2385:A 0.000154762
4 *2599:C1 *647:10 2.14658e-05
5 *2599:C1 *870:18 0.00014183
6 *2599:C1 *930:20 0
7 *2599:C1 *936:18 0.000115639
8 *2599:C1 *936:20 1.02504e-05
9 *2599:C1 *938:119 1.98839e-05
10 *2599:C1 *947:77 0.000231099
11 *3193:A *2599:C1 6.8646e-06
12 *3196:A *2599:C1 0.000573375
13 *3197:A *2599:C1 0.000355788
14 *3305:A *2599:C1 0
*RES
1 *2598:X *2599:C1 39.8143 
*END

*D_NET *647 0.00750556
*CONN
*I *2602:B I *D sky130_fd_sc_hd__or3_1
*I *2599:X O *D sky130_fd_sc_hd__a211o_1
*CAP
1 *2602:B 0.000291357
2 *2599:X 0.00209515
3 *647:10 0.00238651
4 *2602:B *2420:C 4.36996e-05
5 *2602:B *2602:C 6.05161e-06
6 *647:10 *2406:D 4.87953e-05
7 *647:10 *2416:D 0.000504239
8 *647:10 *2939:D 0.000216304
9 *647:10 *3146:A 8.07951e-05
10 *647:10 *834:66 9.22103e-06
11 *647:10 *849:31 0
12 *647:10 *850:8 0.000150625
13 *647:10 *870:18 0.000396898
14 *647:10 *925:133 1.03245e-05
15 *647:10 *938:119 1.71471e-05
16 *647:10 *943:104 1.39726e-05
17 *647:10 *944:8 6.13757e-06
18 *647:10 *944:69 0.000158912
19 *647:10 *948:33 0
20 *2503:D *2602:B 1.56051e-05
21 *2596:B2 *647:10 4.58194e-05
22 *2599:C1 *647:10 2.14658e-05
23 *3147:A *647:10 9.76689e-05
24 *3371:A *647:10 0.000333888
25 *477:26 *647:10 7.40526e-05
26 *489:10 *647:10 0.000259993
27 *491:6 *647:10 7.33786e-06
28 *491:12 *647:10 0.000144089
29 *492:14 *647:10 6.95019e-05
*RES
1 *2599:X *647:10 47.4607 
2 *647:10 *2602:B 17.2107 
*END

*D_NET *648 0.00131448
*CONN
*I *2601:C1 I *D sky130_fd_sc_hd__a221o_1
*I *2600:X O *D sky130_fd_sc_hd__a22o_1
*CAP
1 *2601:C1 0.000362808
2 *2600:X 0.000362808
3 *2601:C1 *2939:GATE_N 5.40264e-05
4 *2601:C1 *808:78 0.000390572
5 *2601:C1 *823:20 7.6644e-05
6 *3190:A *2601:C1 6.76188e-05
*RES
1 *2600:X *2601:C1 33.3679 
*END

*D_NET *649 0.00114578
*CONN
*I *2602:C I *D sky130_fd_sc_hd__or3_1
*I *2601:X O *D sky130_fd_sc_hd__a221o_1
*CAP
1 *2602:C 0.000292903
2 *2601:X 0.000292903
3 *2602:C *2603:B2 2.59355e-05
4 *2602:C *2831:GATE_N 0.000165713
5 *2602:C *2911:GATE_N 2.06178e-05
6 *2602:C *828:18 0.000133296
7 *2602:C *849:87 2.22043e-05
8 *2602:C *899:29 4.35646e-05
9 *2503:D *2602:C 4.35452e-05
10 *2602:A *2602:C 9.90431e-05
11 *2602:B *2602:C 6.05161e-06
*RES
1 *2601:X *2602:C 34.2786 
*END

*D_NET *650 0.00178526
*CONN
*I *2603:B2 I *D sky130_fd_sc_hd__o22ai_2
*I *2602:X O *D sky130_fd_sc_hd__or3_1
*CAP
1 *2603:B2 0.000657304
2 *2602:X 0.000657304
3 *2603:B2 *2843:D 1.92905e-05
4 *2603:B2 *651:26 3.51442e-05
5 *2603:B2 *810:106 0.000199391
6 *2603:B2 *917:34 5.74009e-05
7 *2503:D *2603:B2 2.88018e-06
8 *2602:C *2603:B2 2.59355e-05
9 *2603:A1 *2603:B2 5.33005e-05
10 *2603:B1 *2603:B2 7.73108e-05
*RES
1 *2602:X *2603:B2 37.9214 
*END

*D_NET *651 0.0102273
*CONN
*I *2640:B I *D sky130_fd_sc_hd__nor2_1
*I *2604:B I *D sky130_fd_sc_hd__nor2_1
*I *2603:Y O *D sky130_fd_sc_hd__o22ai_2
*CAP
1 *2640:B 3.30046e-05
2 *2604:B 0.00038115
3 *2603:Y 0.00191487
4 *651:26 0.00232903
5 *2604:B *2515:A2 0.000296114
6 *2640:B *2515:A2 1.90936e-05
7 *2640:B *962:73 3.74032e-05
8 *651:26 *2498:A2 1.76396e-05
9 *651:26 *2914:GATE_N 0
10 *651:26 *3042:D 0.000106147
11 *651:26 *3083:GATE_N 0.000683891
12 *651:26 *806:14 0.000567738
13 *651:26 *889:26 1.30293e-05
14 *651:26 *889:56 0
15 *651:26 *893:59 9.43675e-06
16 *651:26 *917:34 9.20274e-05
17 *2496:B2 *651:26 0
18 *2515:A1 *2604:B 0.000246319
19 *2515:A1 *2640:B 8.15792e-05
20 *2603:B2 *651:26 3.51442e-05
21 *2820:D *2604:B 5.30637e-06
22 *3111:A *651:26 0.000267942
23 *3127:A *651:26 1.13786e-05
24 *3136:A *651:26 0.00252277
25 *3138:A *651:26 0.000114508
26 *435:12 *651:26 0.000127464
27 *561:14 *651:26 0.000294238
28 *570:18 *2604:B 2.00751e-05
*RES
1 *2603:Y *651:26 37.6291 
2 *651:26 *2604:B 21.5411 
3 *651:26 *2640:B 14.9875 
*END

*D_NET *652 0.00172234
*CONN
*I *2606:C1 I *D sky130_fd_sc_hd__a221o_1
*I *2605:X O *D sky130_fd_sc_hd__a22o_1
*CAP
1 *2606:C1 0.000572368
2 *2605:X 0.000572368
3 *2606:C1 *2605:A2 8.76099e-05
4 *2606:C1 *2614:A2 0.000128146
5 *2606:C1 *811:20 2.4165e-05
6 *2606:C1 *865:59 6.47215e-05
7 *2606:C1 *894:127 8.6229e-06
8 *2606:B2 *2606:C1 5.71472e-05
9 *2614:A1 *2606:C1 0.000207188
*RES
1 *2605:X *2606:C1 38.1357 
*END

*D_NET *653 0.000885465
*CONN
*I *2614:B1 I *D sky130_fd_sc_hd__o22ai_2
*I *2606:X O *D sky130_fd_sc_hd__a221o_1
*CAP
1 *2614:B1 0.000354219
2 *2606:X 0.000354219
3 *2614:B1 *2606:B1 0
4 *2614:B1 *2614:B2 0
5 *2614:B1 *3076:D 3.69047e-06
6 *2614:B1 *661:26 0.00013406
7 *2614:B1 *898:161 3.92757e-05
*RES
1 *2606:X *2614:B1 33.6179 
*END

*D_NET *654 0.000978463
*CONN
*I *2608:C1 I *D sky130_fd_sc_hd__a221o_1
*I *2607:X O *D sky130_fd_sc_hd__a22o_1
*CAP
1 *2608:C1 0.000244628
2 *2607:X 0.000244628
3 *2608:C1 *2922:GATE_N 9.25014e-06
4 *2608:C1 *2924:GATE_N 0.000288266
5 *2608:C1 *825:18 2.86824e-05
6 *2608:C1 *896:12 5.75874e-05
7 *2608:C1 *896:33 0.00010096
8 *2608:B2 *2608:C1 4.46186e-06
*RES
1 *2607:X *2608:C1 32.6179 
*END

*D_NET *655 0.00738868
*CONN
*I *2613:A I *D sky130_fd_sc_hd__or3_1
*I *2608:X O *D sky130_fd_sc_hd__a221o_1
*CAP
1 *2613:A 0.00110827
2 *2608:X 0.00110827
3 *2613:A *2613:C 1.28585e-05
4 *2613:A *3036:GATE_N 1.26634e-05
5 *2613:A *830:35 0.000560508
6 *2613:A *830:71 0.000242549
7 *2613:A *861:14 0.00319555
8 *2613:A *894:112 1.61703e-05
9 *2613:A *898:14 0.000125508
10 *2613:A *898:89 0.000189566
11 *2545:C *2613:A 0.000201723
12 *2548:B1 *2613:A 0.000605501
13 *2607:B2 *2613:A 9.54798e-06
*RES
1 *2608:X *2613:A 40.3688 
*END

*D_NET *656 0.00134101
*CONN
*I *2610:C1 I *D sky130_fd_sc_hd__a221o_1
*I *2609:X O *D sky130_fd_sc_hd__a22o_1
*CAP
1 *2610:C1 0.000238542
2 *2609:X 0.000238542
3 *2610:C1 *2610:A2 3.77834e-05
4 *2610:C1 *923:16 1.10792e-05
5 *2610:C1 *926:12 0.000293706
6 *2610:C1 *928:14 0.000267447
7 *2610:C1 *928:33 0.000221634
8 *2610:B2 *2610:C1 3.22794e-05
*RES
1 *2609:X *2610:C1 34.6893 
*END

*D_NET *657 0.000617749
*CONN
*I *2613:B I *D sky130_fd_sc_hd__or3_1
*I *2610:X O *D sky130_fd_sc_hd__a221o_1
*CAP
1 *2613:B 0.000237151
2 *2610:X 0.000237151
3 *2613:B *2540:A2 9.80173e-05
4 *2613:B *923:16 1.40131e-05
5 *2613:B *926:12 3.14163e-05
*RES
1 *2610:X *2613:B 21.6 
*END

*D_NET *658 0.000543521
*CONN
*I *2612:B1 I *D sky130_fd_sc_hd__a211o_1
*I *2611:X O *D sky130_fd_sc_hd__a22o_1
*CAP
1 *2612:B1 8.94615e-05
2 *2611:X 8.94615e-05
3 *2612:B1 *847:125 9.54798e-06
4 *2612:B1 *900:21 0.000140852
5 *2612:B1 *923:16 0.000107597
6 *2612:A1 *2612:B1 5.33005e-05
7 *3192:A *2612:B1 5.33005e-05
*RES
1 *2611:X *2612:B1 30.0821 
*END

*D_NET *659 0.000900016
*CONN
*I *2613:C I *D sky130_fd_sc_hd__or3_1
*I *2612:X O *D sky130_fd_sc_hd__a211o_1
*CAP
1 *2613:C 0.000243826
2 *2612:X 0.000243826
3 *2613:C *831:22 0
4 *2613:C *900:6 0.000271352
5 *2613:C *937:12 0.000128154
6 *2613:A *2613:C 1.28585e-05
*RES
1 *2612:X *2613:C 31.8321 
*END

*D_NET *660 0.00831594
*CONN
*I *2614:B2 I *D sky130_fd_sc_hd__o22ai_2
*I *2613:X O *D sky130_fd_sc_hd__or3_1
*CAP
1 *2614:B2 0.00244509
2 *2613:X 0.000575557
3 *660:14 0.00302065
4 *2614:B2 *2519:A2 7.47367e-05
5 *2614:B2 *2519:B1 0.000393091
6 *2614:B2 *3068:D 0.000198467
7 *2614:B2 *661:26 5.50156e-05
8 *2614:B2 *807:99 3.98547e-05
9 *2614:B2 *848:8 5.74499e-06
10 *660:14 *2519:A2 6.05161e-06
11 *660:14 *2900:GATE_N 8.87524e-05
12 *660:14 *2932:D 9.90431e-05
13 *660:14 *2932:GATE_N 9.60875e-05
14 *660:14 *831:22 0
15 *660:14 *937:12 0
16 *2520:A1 *660:14 0.00010096
17 *2520:C1 *660:14 3.30237e-05
18 *2605:A1 *2614:B2 1.40306e-05
19 *2614:B1 *2614:B2 0
20 *3145:A *2614:B2 0.000467509
21 *448:28 *2614:B2 0.000551889
22 *449:24 *2614:B2 5.03772e-05
*RES
1 *2613:X *660:14 28.9071 
2 *660:14 *2614:B2 43.2464 
*END

*D_NET *661 0.00604893
*CONN
*I *2641:B I *D sky130_fd_sc_hd__nor2_1
*I *2615:B I *D sky130_fd_sc_hd__nor2_1
*I *2614:Y O *D sky130_fd_sc_hd__o22ai_2
*CAP
1 *2641:B 0.000149067
2 *2615:B 0
3 *2614:Y 0.00156358
4 *661:26 0.00171264
5 *2641:B *2813:GATE_N 1.81709e-05
6 *2641:B *843:20 9.25014e-06
7 *2641:B *881:154 0.000387432
8 *2641:B *886:18 5.33005e-05
9 *2641:B *886:30 0.000269139
10 *661:26 *2615:A 5.7661e-06
11 *661:26 *2836:D 0.000180495
12 *661:26 *3076:D 0.000601223
13 *661:26 *885:32 0.000293498
14 *661:26 *886:14 5.33005e-05
15 *661:26 *886:18 2.42554e-05
16 *2518:B2 *661:26 0.000139913
17 *2614:B1 *661:26 0.00013406
18 *2614:B2 *661:26 5.50156e-05
19 *2813:D *661:26 8.25843e-06
20 *581:10 *661:26 0.000390568
*RES
1 *2614:Y *661:26 46.3357 
2 *661:26 *2615:B 9.3 
3 *661:26 *2641:B 23.8179 
*END

*D_NET *662 0.000380672
*CONN
*I *2617:C1 I *D sky130_fd_sc_hd__a221o_1
*I *2616:X O *D sky130_fd_sc_hd__a22o_1
*CAP
1 *2617:C1 9.18112e-05
2 *2616:X 9.18112e-05
3 *2617:C1 *2616:A2 5.7661e-06
4 *2617:C1 *2616:B1 0
5 *2617:C1 *2617:B1 5.33005e-05
6 *2617:C1 *917:90 0.000137983
*RES
1 *2616:X *2617:C1 20.6893 
*END

*D_NET *663 0.000814365
*CONN
*I *2625:B1 I *D sky130_fd_sc_hd__o22ai_2
*I *2617:X O *D sky130_fd_sc_hd__a221o_1
*CAP
1 *2625:B1 0.00020004
2 *2617:X 0.00020004
3 *2625:B1 *2518:A2 0
4 *2625:B1 *2547:B1 0.000168199
5 *2625:B1 *2625:B2 6.79289e-05
6 *2625:B1 *845:8 0.000122933
7 *2617:A1 *2625:B1 5.52238e-05
*RES
1 *2617:X *2625:B1 32.5107 
*END

*D_NET *664 0.0010918
*CONN
*I *2619:C1 I *D sky130_fd_sc_hd__a221o_1
*I *2618:X O *D sky130_fd_sc_hd__a22o_1
*CAP
1 *2619:C1 0.000384703
2 *2618:X 0.000384703
3 *2619:C1 *2605:B1 7.72966e-05
4 *2619:C1 *2619:A2 5.95533e-05
5 *2619:C1 *2619:B1 4.60282e-05
6 *2619:C1 *919:49 7.5779e-05
7 *2619:C1 *919:51 2.89016e-05
8 *2619:B2 *2619:C1 1.40399e-05
9 *580:20 *2619:C1 2.07903e-05
*RES
1 *2618:X *2619:C1 33.1893 
*END

*D_NET *665 0.00874339
*CONN
*I *2624:A I *D sky130_fd_sc_hd__or3_1
*I *2619:X O *D sky130_fd_sc_hd__a221o_1
*CAP
1 *2624:A 0.00306765
2 *2619:X 0.00306765
3 *2624:A *2541:A2 0
4 *2624:A *2605:B1 2.60158e-05
5 *2624:A *2610:B1 0.000318001
6 *2624:A *2623:B1 2.15154e-05
7 *2624:A *2624:B 7.92169e-05
8 *2624:A *2624:C 3.34783e-05
9 *2624:A *812:55 0
10 *2624:A *844:20 0.000593472
11 *2624:A *899:52 0.00140839
12 *2624:A *906:20 0
13 *2624:A *919:49 6.60111e-05
14 *2624:A *921:26 0
15 *3126:A *2624:A 6.19957e-05
*RES
1 *2619:X *2624:A 47.1871 
*END

*D_NET *666 0.000469383
*CONN
*I *2621:C1 I *D sky130_fd_sc_hd__a221o_1
*I *2620:X O *D sky130_fd_sc_hd__a22o_1
*CAP
1 *2621:C1 0.000105205
2 *2620:X 0.000105205
3 *2621:C1 *2621:B1 4.53031e-05
4 *2621:C1 *819:35 5.52302e-05
5 *2621:C1 *907:56 0.000148189
6 *2621:B2 *2621:C1 1.02504e-05
*RES
1 *2620:X *2621:C1 30.0821 
*END

*D_NET *667 0.00250183
*CONN
*I *2624:B I *D sky130_fd_sc_hd__or3_1
*I *2621:X O *D sky130_fd_sc_hd__a221o_1
*CAP
1 *2624:B 0.000690958
2 *2621:X 0.000690958
3 *2624:B *2610:B1 6.16744e-05
4 *2624:B *2624:C 7.92169e-05
5 *2624:B *906:20 4.16021e-05
6 *2624:A *2624:B 7.92169e-05
7 *3130:A *2624:B 0.000858208
*RES
1 *2621:X *2624:B 38.4929 
*END

*D_NET *668 0.00117239
*CONN
*I *2623:B1 I *D sky130_fd_sc_hd__a211o_1
*I *2622:X O *D sky130_fd_sc_hd__a22o_1
*CAP
1 *2623:B1 0.000360358
2 *2622:X 0.000360358
3 *2623:B1 *2624:C 7.83587e-05
4 *2623:B1 *834:44 0.000206184
5 *2623:B1 *906:20 0.000145618
6 *2624:A *2623:B1 2.15154e-05
*RES
1 *2622:X *2623:B1 33.3679 
*END

*D_NET *669 0.000747505
*CONN
*I *2624:C I *D sky130_fd_sc_hd__or3_1
*I *2623:X O *D sky130_fd_sc_hd__a211o_1
*CAP
1 *2624:C 0.000208564
2 *2623:X 0.000208564
3 *2624:C *906:20 3.27556e-05
4 *2624:C *922:47 7.53109e-06
5 *2624:C *922:68 9.90367e-05
6 *2623:B1 *2624:C 7.83587e-05
7 *2624:A *2624:C 3.34783e-05
8 *2624:B *2624:C 7.92169e-05
*RES
1 *2623:X *2624:C 31.3143 
*END

*D_NET *670 0.0139801
*CONN
*I *2625:B2 I *D sky130_fd_sc_hd__o22ai_2
*I *2624:X O *D sky130_fd_sc_hd__or3_1
*CAP
1 *2625:B2 0.0027968
2 *2624:X 0.0027968
3 *2625:B2 *2518:A2 3.00014e-05
4 *2625:B2 *2610:B1 2.22043e-05
5 *2625:B2 *2639:A 4.37712e-06
6 *2625:B2 *3357:A 0.0028195
7 *2625:B2 *671:26 1.99099e-05
8 *2625:B2 *844:20 0.00196128
9 *2625:B2 *845:29 0.000696231
10 *2625:B2 *930:20 2.06178e-05
11 *2625:B1 *2625:B2 6.79289e-05
12 *3214:A *2625:B2 0.0027444
*RES
1 *2624:X *2625:B2 46.5557 
*END

*D_NET *671 0.0106665
*CONN
*I *2626:B I *D sky130_fd_sc_hd__nor2_1
*I *2642:B I *D sky130_fd_sc_hd__nor2_1
*I *2625:Y O *D sky130_fd_sc_hd__o22ai_2
*CAP
1 *2626:B 0.000107907
2 *2642:B 0.0011312
3 *2625:Y 0.00183791
4 *671:26 0.00307702
5 *2642:B *2537:A2 4.13496e-05
6 *2642:B *2658:A0 0.00054402
7 *2642:B *3315:A 2.42516e-05
8 *2642:B *813:26 0.000259814
9 *2642:B *884:16 0
10 *2642:B *888:86 0.000180764
11 *671:26 *2518:A2 4.5539e-05
12 *671:26 *2538:A 0.00011927
13 *671:26 *2547:B1 0
14 *671:26 *2649:A0 2.09897e-05
15 *671:26 *813:26 0
16 *671:26 *885:36 0.000143684
17 *671:26 *887:30 0.000122062
18 *671:26 *888:19 8.23597e-06
19 *671:26 *889:26 0.000546329
20 *2537:B1 *2642:B 0.000137983
21 *2537:B2 *2642:B 5.52302e-05
22 *2538:B *2626:B 0.000191064
23 *2538:B *2642:B 3.69047e-06
24 *2562:A1 *2642:B 9.15621e-06
25 *2570:B1 *2642:B 0.000103253
26 *2625:B2 *671:26 1.99099e-05
27 *3214:A *671:26 0.000173781
28 *382:10 *2642:B 0.000145406
29 *428:16 *2642:B 0.001395
30 *591:6 *2642:B 3.82242e-05
31 *620:18 *2642:B 0.00018348
*RES
1 *2625:Y *671:26 37.3875 
2 *671:26 *2642:B 48.7107 
3 *671:26 *2626:B 11.4786 
*END

*D_NET *672 0.0164154
*CONN
*I *2673:A I *D sky130_fd_sc_hd__and2_1
*I *2688:C I *D sky130_fd_sc_hd__or3_1
*I *2762:A3 I *D sky130_fd_sc_hd__a31o_1
*I *2666:A1 I *D sky130_fd_sc_hd__mux2_1
*I *2765:B I *D sky130_fd_sc_hd__and2b_1
*I *2683:A2 I *D sky130_fd_sc_hd__o22ai_1
*I *2671:B1 I *D sky130_fd_sc_hd__o31a_1
*I *2665:X O *D sky130_fd_sc_hd__or4_4
*CAP
1 *2673:A 0.000183502
2 *2688:C 0
3 *2762:A3 0
4 *2666:A1 0
5 *2765:B 0.000585218
6 *2683:A2 0
7 *2671:B1 8.52609e-05
8 *2665:X 0
9 *672:84 0.00115541
10 *672:70 0.000917931
11 *672:53 0.00080069
12 *672:43 0.00141326
13 *672:21 0.00123523
14 *672:6 0.000176678
15 *2671:B1 *2671:A2 5.71472e-05
16 *2671:B1 *2676:B 5.52238e-05
17 *2671:B1 *887:12 0.00013257
18 *2673:A *2387:A 0
19 *2673:A *2672:B 0
20 *2673:A *2673:B 5.7661e-06
21 *2673:A *2695:D_N 4.13001e-05
22 *2765:B *2666:A0 3.57366e-05
23 *2765:B *2765:A_N 0.000264421
24 *2765:B *2766:A0 7.32955e-05
25 *2765:B *751:22 0.000219887
26 *2765:B *948:10 0.000186662
27 *672:21 *887:12 9.41918e-05
28 *672:43 *2387:A 0.000259129
29 *672:43 *2679:B 6.82592e-05
30 *672:43 *2680:C 7.21931e-05
31 *672:43 *2688:A 4.27935e-05
32 *672:43 *2696:B 0.000240797
33 *672:43 *2703:C1 0.000235379
34 *672:43 *2756:A 5.33005e-05
35 *672:43 *2757:B2 0
36 *672:43 *3366:A 4.25473e-05
37 *672:43 *739:10 0
38 *672:43 *868:20 0.00012401
39 *672:43 *891:84 3.17148e-05
40 *672:43 *954:40 0.000259516
41 *672:43 *956:26 0.00012401
42 *672:43 *982:52 0.00132601
43 *672:43 *982:75 0
44 *672:43 *1050:31 0
45 *672:43 *1050:37 0
46 *672:53 *2683:B1 0.000250149
47 *672:53 *2688:A 9.41642e-05
48 *672:53 *2703:C1 0.000129944
49 *672:53 *3233:A 0.000119125
50 *672:53 *679:16 0.00015985
51 *672:53 *683:6 0.000152851
52 *672:53 *969:63 0.000139913
53 *672:70 *2683:B1 1.69961e-05
54 *672:70 *2762:A2 0.000192998
55 *672:70 *804:10 4.58194e-05
56 *672:70 *931:10 0.000123594
57 *672:70 *931:14 2.15339e-05
58 *672:84 *2666:A0 0.000128523
59 *672:84 *2761:B2 0.000144554
60 *672:84 *2762:A2 9.54798e-06
61 *672:84 *881:31 0
62 *672:84 *931:14 0.000428457
63 *2671:A1 *2671:B1 0.000247606
64 *2671:A1 *672:21 0.000197984
65 *2683:A1 *672:53 0.000446597
66 *2683:B2 *672:70 0.000271352
67 *2688:B *672:43 1.04232e-05
68 *2761:B1 *672:70 1.46883e-05
69 *2763:B1 *672:84 0.000157399
70 *2783:D *672:84 7.83659e-05
71 *3099:A *672:53 1.21289e-05
72 *3099:A *672:70 0.000289529
73 *3175:A *672:84 0.000144773
74 *3183:A *672:43 0.000910862
75 *475:20 *672:84 0.00011308
76 *475:38 *672:84 1.98397e-05
77 *501:8 *672:53 0.000401538
78 *501:17 *672:53 1.02504e-05
79 *504:12 *672:43 0.000331896
*RES
1 *2665:X *672:6 13.8 
2 *672:6 *2671:B1 17.4964 
3 *672:6 *672:21 7.05357 
4 *672:21 *672:43 45.6429 
5 *672:43 *672:53 23.5714 
6 *672:53 *2683:A2 9.3 
7 *672:53 *672:70 14.3214 
8 *672:70 *672:84 19.1071 
9 *672:84 *2765:B 20.9429 
10 *672:84 *2666:A1 9.3 
11 *672:70 *2762:A3 13.8 
12 *672:43 *2688:C 9.3 
13 *672:21 *2673:A 11.8 
*END

*D_NET *673 0.00421875
*CONN
*I *2709:A1 I *D sky130_fd_sc_hd__a21oi_1
*I *2716:B I *D sky130_fd_sc_hd__nand2_1
*I *2667:X O *D sky130_fd_sc_hd__or2_1
*CAP
1 *2709:A1 0.000310389
2 *2716:B 0.00068682
3 *2667:X 0
4 *673:6 0.000997209
5 *2709:A1 *2709:A2 2.06138e-05
6 *2709:A1 *2718:A1 3.72078e-05
7 *2709:A1 *2718:B2 8.97164e-05
8 *2709:A1 *868:20 4.66203e-05
9 *2709:A1 *979:10 7.15591e-05
10 *2709:A1 *1047:111 0
11 *2716:B *2668:C 0.000517633
12 *2716:B *2718:A1 0.000168301
13 *2716:B *2718:B2 0.000289564
14 *2716:B *2723:A2 5.41794e-05
15 *2716:B *674:18 3.62176e-05
16 *2716:B *676:10 0.000181796
17 *2716:B *788:42 0.000362028
18 *2716:B *1047:111 0.00010326
19 *2718:B1 *2716:B 4.46689e-05
20 *3262:A *2709:A1 1.43e-05
21 *3277:A *2709:A1 0.000186662
*RES
1 *2667:X *673:6 13.8 
2 *673:6 *2716:B 30.3893 
3 *673:6 *2709:A1 19.6393 
*END

*D_NET *674 0.00502128
*CONN
*I *2720:A2 I *D sky130_fd_sc_hd__a21bo_1
*I *2717:A1 I *D sky130_fd_sc_hd__a21oi_1
*I *2669:B I *D sky130_fd_sc_hd__nor2_1
*I *2668:X O *D sky130_fd_sc_hd__or3_1
*CAP
1 *2720:A2 0
2 *2717:A1 0.000369036
3 *2669:B 0
4 *2668:X 0.000598386
5 *674:30 0.000498067
6 *674:18 0.000727416
7 *2717:A1 *2693:B 0
8 *2717:A1 *2717:A2 7.55769e-05
9 *2717:A1 *772:43 0.000486622
10 *2717:A1 *788:16 0.000125372
11 *2717:A1 *891:80 0.000182647
12 *2717:A1 *891:110 0.000280581
13 *2717:A1 *997:20 0
14 *674:18 *2669:A 5.85405e-05
15 *674:18 *2693:A 5.83233e-05
16 *674:18 *2694:C 8.27184e-06
17 *674:18 *2718:A1 0.000150611
18 *674:18 *2718:A2 4.75911e-05
19 *674:18 *2723:A2 3.34687e-05
20 *674:18 *2787:CLK 0.000137983
21 *674:18 *2790:CLK 7.77652e-05
22 *674:18 *676:10 7.83587e-05
23 *674:18 *772:39 1.08359e-05
24 *674:18 *772:74 8.68569e-05
25 *674:18 *772:85 7.15404e-05
26 *674:18 *786:47 0.000132248
27 *674:18 *789:8 5.90443e-06
28 *674:30 *2669:A 3.44635e-05
29 *674:30 *2749:B1 0
30 *674:30 *772:39 3.17067e-05
31 *674:30 *772:43 5.08739e-05
32 *674:30 *891:80 0.000357279
33 *2716:B *674:18 3.62176e-05
34 *2718:B1 *674:18 2.01525e-05
35 *2720:A1 *674:30 0.000188586
*RES
1 *2668:X *674:18 35.3893 
2 *674:18 *674:30 9.625 
3 *674:30 *2669:B 9.3 
4 *674:30 *2717:A1 29.4429 
5 *674:18 *2720:A2 13.8 
*END

*D_NET *675 0.0116747
*CONN
*I *2749:A3 I *D sky130_fd_sc_hd__o41a_4
*I *2761:A3 I *D sky130_fd_sc_hd__a32o_1
*I *2686:A3 I *D sky130_fd_sc_hd__a31o_1
*I *2671:A3 I *D sky130_fd_sc_hd__o31a_1
*I *2669:Y O *D sky130_fd_sc_hd__nor2_1
*CAP
1 *2749:A3 0
2 *2761:A3 0.000317375
3 *2686:A3 0
4 *2671:A3 0.00056966
5 *2669:Y 0.000108005
6 *675:37 0.00195934
7 *675:12 0.0025433
8 *675:10 0.000439682
9 *2671:A3 *2441:B 1.53129e-05
10 *2671:A3 *2447:A_N 0.000137276
11 *2671:A3 *2450:C 0
12 *2671:A3 *2671:A2 6.37665e-05
13 *2671:A3 *2676:B 1.40034e-05
14 *2671:A3 *774:59 8.64475e-05
15 *2671:A3 *953:73 0.000293086
16 *2761:A3 *2678:A 0.000178847
17 *2761:A3 *2701:A 7.77116e-06
18 *2761:A3 *2761:B2 0.000163629
19 *2761:A3 *2764:B 5.14195e-06
20 *2761:A3 *2764:D 1.2114e-06
21 *2761:A3 *801:14 0.000118461
22 *2761:A3 *868:70 5.41797e-06
23 *2761:A3 *881:31 8.46829e-05
24 *675:10 *2749:A4 1.02504e-05
25 *675:10 *2749:B1 0.000123094
26 *675:10 *891:80 5.52238e-05
27 *675:12 *2447:A_N 2.58997e-05
28 *675:12 *2695:B 0
29 *675:12 *2749:A4 0.00024993
30 *675:12 *696:20 4.59293e-05
31 *675:12 *774:59 8.6836e-05
32 *675:12 *953:73 0.000240645
33 *675:12 *953:112 2.94103e-05
34 *675:37 *2676:B 0.00105329
35 *675:37 *2684:B1 0.000316318
36 *675:37 *2685:A 2.8266e-06
37 *675:37 *2685:B 0
38 *675:37 *2686:A1 9.71118e-06
39 *675:37 *2686:B1 5.33334e-05
40 *675:37 *2689:A1 0.000841853
41 *675:37 *2763:A2 0
42 *675:37 *1019:12 0.000434076
43 *2394:B1 *675:37 0
44 *2447:B *2671:A3 0.000353266
45 *2684:C1 *675:37 0.000181796
46 *2720:A1 *675:10 6.59765e-05
47 *2720:A1 *675:12 8.12651e-05
48 *2761:A2 *2761:A3 3.24989e-05
49 *503:8 *675:12 1.8038e-05
50 *503:53 *675:12 3.09981e-05
51 *503:62 *675:12 3.5477e-05
52 *509:8 *2671:A3 1.02504e-05
53 *510:32 *675:37 3.74194e-05
54 *510:38 *2761:A3 0.000110717
55 *510:38 *675:37 2.59355e-05
*RES
1 *2669:Y *675:10 16.2821 
2 *675:10 *675:12 8.16964 
3 *675:12 *2671:A3 24.1125 
4 *675:12 *675:37 19.0571 
5 *675:37 *2686:A3 9.3 
6 *675:37 *2761:A3 25.3491 
7 *675:10 *2749:A3 13.8 
*END

*D_NET *676 0.00359929
*CONN
*I *2703:A2 I *D sky130_fd_sc_hd__o211a_4
*I *2692:C I *D sky130_fd_sc_hd__and3b_1
*I *2696:C I *D sky130_fd_sc_hd__nor3_1
*I *2670:X O *D sky130_fd_sc_hd__or4_1
*CAP
1 *2703:A2 0
2 *2692:C 0
3 *2696:C 0.000166222
4 *2670:X 0.00024928
5 *676:16 0.000686155
6 *676:10 0.000769214
7 *2696:C *2696:A 5.15347e-05
8 *2696:C *954:38 8.56851e-05
9 *676:10 *2694:C 0.00012501
10 *676:10 *2702:A1 5.90443e-06
11 *676:10 *2723:A2 0.000292708
12 *676:10 *772:74 0
13 *676:10 *772:85 0
14 *676:16 *2694:C 0.000332779
15 *676:16 *2702:A1 9.11365e-06
16 *676:16 *2703:B1 0.000307878
17 *676:16 *3233:A 7.43578e-06
18 *676:16 *954:38 7.48301e-06
19 *2702:A2 *676:16 0.000242736
20 *2716:B *676:10 0.000181796
21 *674:18 *676:10 7.83587e-05
*RES
1 *2670:X *676:10 19.6393 
2 *676:10 *676:16 14.3393 
3 *676:16 *2696:C 12.6214 
4 *676:16 *2692:C 9.3 
5 *676:10 *2703:A2 13.8 
*END

*D_NET *677 0.000737727
*CONN
*I *2691:B I *D sky130_fd_sc_hd__and3_1
*I *2673:B I *D sky130_fd_sc_hd__and2_1
*I *2672:Y O *D sky130_fd_sc_hd__nand2_1
*CAP
1 *2691:B 3.62853e-05
2 *2673:B 5.4247e-05
3 *2672:Y 4.15247e-05
4 *677:6 0.000132057
5 *2673:B *2672:B 0
6 *2673:B *1050:31 2.59355e-05
7 *2691:B *982:27 0.000128154
8 *2691:B *1050:25 0.000128154
9 *677:6 *2672:B 4.72917e-05
10 *677:6 *1050:31 2.59355e-05
11 *2673:A *2673:B 5.7661e-06
12 *2823:GATE_N *2673:B 0
13 *2823:GATE_N *677:6 1.33343e-05
14 *432:6 *677:6 9.90431e-05
*RES
1 *2672:Y *677:6 10.6571 
2 *677:6 *2673:B 10.2643 
3 *677:6 *2691:B 19.9429 
*END

*D_NET *678 0.00119899
*CONN
*I *2691:C I *D sky130_fd_sc_hd__and3_1
*I *2676:A I *D sky130_fd_sc_hd__and2_1
*I *2674:Y O *D sky130_fd_sc_hd__nand2_1
*CAP
1 *2691:C 0.000134647
2 *2676:A 0
3 *2674:Y 0.00011877
4 *678:8 0.000253417
5 *2691:C *2674:A 1.02504e-05
6 *2691:C *982:27 0.000137075
7 *678:8 *2674:A 0.000314458
8 *2388:B *2691:C 6.94912e-05
9 *2388:B *678:8 0.000103275
10 *3180:A *678:8 3.9745e-05
11 *478:23 *2691:C 1.78639e-05
*RES
1 *2674:Y *678:8 17.8714 
2 *678:8 *2676:A 13.8 
3 *678:8 *2691:C 16.5768 
*END

*D_NET *679 0.0103374
*CONN
*I *2676:B I *D sky130_fd_sc_hd__and2_1
*I *2684:B1 I *D sky130_fd_sc_hd__o311a_1
*I *2689:B1 I *D sky130_fd_sc_hd__o311a_1
*I *2675:Y O *D sky130_fd_sc_hd__nand2_2
*CAP
1 *2676:B 0.00117491
2 *2684:B1 0.000557671
3 *2689:B1 1.53317e-05
4 *2675:Y 0.000624785
5 *679:33 0.00183224
6 *679:16 0.000739776
7 *2676:B *2387:B 0.000125731
8 *2676:B *2447:C 8.39893e-05
9 *2676:B *2671:A2 3.84717e-05
10 *2676:B *3366:A 0.00035602
11 *2676:B *3368:A 0
12 *2676:B *738:12 0
13 *2676:B *868:62 6.60765e-05
14 *2676:B *885:97 0.000182611
15 *2676:B *954:40 1.4867e-05
16 *2676:B *982:8 2.59355e-05
17 *2684:B1 *2684:A1 5.80706e-06
18 *2684:B1 *2685:B 0
19 *2684:B1 *2689:A1 0.000792111
20 *2684:B1 *2697:A 0.000207998
21 *2684:B1 *691:20 0.000117158
22 *2684:B1 *868:62 0.00021392
23 *2684:B1 *953:10 1.90936e-05
24 *2689:B1 *2695:A 2.6269e-05
25 *679:16 *2426:A 7.12614e-05
26 *679:16 *2695:A 9.37026e-06
27 *679:16 *2703:C1 9.91086e-05
28 *679:16 *969:12 1.3701e-05
29 *679:16 *969:63 0
30 *679:16 *1012:12 0.000136584
31 *679:16 *1047:82 5.52302e-05
32 *679:16 *1048:35 5.52302e-05
33 *679:33 *2449:B 7.69776e-06
34 *679:33 *2695:A 0.000193799
35 *679:33 *956:26 1.90936e-05
36 *679:33 *969:12 2.59355e-05
37 *2447:B *2676:B 1.83053e-05
38 *2671:A1 *2676:B 5.33005e-05
39 *2671:A3 *2676:B 1.40034e-05
40 *2671:B1 *2676:B 5.52238e-05
41 *2680:B *679:16 0.000555747
42 *2682:B *2684:B1 5.30637e-06
43 *2684:C1 *2684:B1 5.33005e-05
44 *2689:A2 *679:16 2.59355e-05
45 *431:10 *2676:B 2.77143e-05
46 *501:8 *679:16 3.36444e-05
47 *501:17 *679:16 3.84291e-05
48 *508:46 *2684:B1 1.92789e-05
49 *672:53 *679:16 0.00015985
50 *675:37 *2676:B 0.00105329
51 *675:37 *2684:B1 0.000316318
*RES
1 *2675:Y *679:16 31.9786 
2 *679:16 *2689:B1 9.83571 
3 *679:16 *679:33 10.3832 
4 *679:33 *2684:B1 20.0717 
5 *679:33 *2676:B 29.1964 
*END

*D_NET *680 0.00596831
*CONN
*I *2678:B I *D sky130_fd_sc_hd__or2_1
*I *2697:A I *D sky130_fd_sc_hd__or4b_4
*I *2677:X O *D sky130_fd_sc_hd__o31a_1
*CAP
1 *2678:B 0
2 *2697:A 0.000777244
3 *2677:X 0.000312735
4 *680:10 0.00108998
5 *2697:A *2689:A1 4.57975e-05
6 *2697:A *2690:B1 8.40933e-05
7 *2697:A *2695:A 2.59355e-05
8 *2697:A *2697:D_N 7.32272e-05
9 *2697:A *2698:A3 6.30931e-05
10 *2697:A *3104:A 8.65632e-05
11 *2697:A *691:20 2.83129e-05
12 *2697:A *696:28 9.60939e-05
13 *2697:A *751:16 8.47192e-05
14 *2697:A *868:62 0.000451693
15 *2697:A *868:70 0.000275376
16 *2697:A *885:115 5.58905e-06
17 *2697:A *953:10 1.34009e-05
18 *2697:A *1019:12 0.000770215
19 *680:10 *2764:A 6.42095e-05
20 *680:10 *3104:A 0.000239403
21 *680:10 *751:16 0.000553423
22 *680:10 *804:10 0.000290986
23 *2684:B1 *2697:A 0.000207998
24 *508:46 *2697:A 2.95641e-05
25 *510:46 *2697:A 0.000298663
*RES
1 *2677:X *680:10 22.675 
2 *680:10 *2697:A 28.3507 
3 *680:10 *2678:B 13.8 
*END

*D_NET *681 0.00398349
*CONN
*I *2680:C I *D sky130_fd_sc_hd__and3_1
*I *2679:Y O *D sky130_fd_sc_hd__nand2_1
*CAP
1 *2680:C 0.000999106
2 *2679:Y 0.000999106
3 *2680:C *2749:A1 8.66063e-05
4 *2680:C *2749:B1 5.71472e-05
5 *2680:C *2756:A 7.02611e-05
6 *2680:C *3101:A 4.48176e-05
7 *2680:C *739:10 0.000106811
8 *2680:C *950:80 0.00038907
9 *2680:C *950:94 0.000482594
10 *2680:C *997:20 5.71472e-05
11 *2680:A *2680:C 0.00035013
12 *3183:A *2680:C 0.000147512
13 *504:12 *2680:C 0.000120983
14 *672:43 *2680:C 7.21931e-05
*RES
1 *2679:Y *2680:C 46.6536 
*END

*D_NET *682 0.00279906
*CONN
*I *2685:A I *D sky130_fd_sc_hd__or3b_1
*I *2680:X O *D sky130_fd_sc_hd__and3_1
*CAP
1 *2685:A 0.000898879
2 *2680:X 0.000898879
3 *2685:A *2389:B 8.79856e-06
4 *2685:A *2685:B 0.000147049
5 *2685:A *2686:A1 0
6 *2685:A *3100:A 0.000331204
7 *2685:A *3101:A 5.91336e-05
8 *2685:A *982:52 0.000312215
9 *2685:A *1018:12 0
10 *2384:A *2685:A 0
11 *3183:A *2685:A 5.52302e-05
12 *471:20 *2685:A 8.48418e-05
13 *475:38 *2685:A 0
14 *675:37 *2685:A 2.8266e-06
*RES
1 *2680:X *2685:A 45.7071 
*END

*D_NET *683 0.0036957
*CONN
*I *2697:D_N I *D sky130_fd_sc_hd__or4b_4
*I *2683:B1 I *D sky130_fd_sc_hd__o22ai_1
*I *2681:X O *D sky130_fd_sc_hd__or3_1
*CAP
1 *2697:D_N 0.000303441
2 *2683:B1 0.000365119
3 *2681:X 0.000443607
4 *683:6 0.00111217
5 *2683:B1 *2685:B 5.52302e-05
6 *2697:D_N *2378:A 0
7 *2697:D_N *2697:C 7.5088e-05
8 *2697:D_N *2698:A3 7.46727e-05
9 *2697:D_N *2762:B1 0.00014466
10 *2697:D_N *953:10 0
11 *2697:D_N *1018:12 0
12 *683:6 *969:63 0.000307343
13 *2683:A1 *2697:D_N 7.83587e-05
14 *2683:B2 *2683:B1 0.00010096
15 *2697:A *2697:D_N 7.32272e-05
16 *508:46 *2697:D_N 0.00014183
17 *672:53 *2683:B1 0.000250149
18 *672:53 *683:6 0.000152851
19 *672:70 *2683:B1 1.69961e-05
*RES
1 *2681:X *683:6 15.175 
2 *683:6 *2683:B1 15.3179 
3 *683:6 *2697:D_N 24.9964 
*END

*D_NET *684 0.00099578
*CONN
*I *2699:A2 I *D sky130_fd_sc_hd__a21o_1
*I *2682:Y O *D sky130_fd_sc_hd__nor2_1
*CAP
1 *2699:A2 0.000313186
2 *2682:Y 0.000313186
3 *2699:A2 *2383:B 0.000139907
4 *2699:A2 *2428:A 5.72775e-05
5 *2682:A *2699:A2 4.884e-05
6 *475:14 *2699:A2 2.88018e-06
7 *502:42 *2699:A2 0.000120504
*RES
1 *2682:Y *2699:A2 32.2429 
*END

*D_NET *685 0.000863997
*CONN
*I *2685:B I *D sky130_fd_sc_hd__or3b_1
*I *2683:Y O *D sky130_fd_sc_hd__o22ai_1
*CAP
1 *2685:B 0.000329442
2 *2683:Y 0.000329442
3 *2685:B *2684:A1 0
4 *2685:B *2687:B 0
5 *2685:B *2690:B1 0
6 *2685:B *953:10 0
7 *2682:B *2685:B 2.83284e-06
8 *2683:B1 *2685:B 5.52302e-05
9 *2684:B1 *2685:B 0
10 *2685:A *2685:B 0.000147049
11 *675:37 *2685:B 0
*RES
1 *2683:Y *2685:B 33.1179 
*END

*D_NET *686 9.34293e-05
*CONN
*I *2685:C_N I *D sky130_fd_sc_hd__or3b_1
*I *2684:X O *D sky130_fd_sc_hd__o311a_1
*CAP
1 *2685:C_N 1.8141e-05
2 *2684:X 1.8141e-05
3 *2684:C1 *2685:C_N 5.71472e-05
*RES
1 *2684:X *2685:C_N 19.1357 
*END

*D_NET *687 0.000205922
*CONN
*I *2686:B1 I *D sky130_fd_sc_hd__a31o_1
*I *2685:X O *D sky130_fd_sc_hd__or3b_1
*CAP
1 *2686:B1 6.51275e-05
2 *2685:X 6.51275e-05
3 *2686:A2 *2686:B1 1.22604e-05
4 *510:32 *2686:B1 1.00733e-05
5 *675:37 *2686:B1 5.33334e-05
*RES
1 *2685:X *2686:B1 19.975 
*END

*D_NET *688 0.00138384
*CONN
*I *2698:A3 I *D sky130_fd_sc_hd__a31o_1
*I *2687:X O *D sky130_fd_sc_hd__or4_1
*CAP
1 *2698:A3 0.000291321
2 *2687:X 0.000291321
3 *2698:A3 *2383:B 2.44318e-05
4 *2698:A3 *2428:B 0
5 *2698:A3 *691:20 1.90936e-05
6 *2698:A3 *953:10 0
7 *2383:C_N *2698:A3 0.00026839
8 *2697:A *2698:A3 6.30931e-05
9 *2697:D_N *2698:A3 7.46727e-05
10 *475:14 *2698:A3 7.79781e-06
11 *502:42 *2698:A3 0.000343715
*RES
1 *2687:X *2698:A3 34.6714 
*END

*D_NET *689 0.0016478
*CONN
*I *2689:C1 I *D sky130_fd_sc_hd__o311a_1
*I *2688:X O *D sky130_fd_sc_hd__or3_1
*CAP
1 *2689:C1 0.000321212
2 *2688:X 0.000321212
3 *2689:C1 *2681:A 0.000209026
4 *2689:C1 *956:26 7.58856e-05
5 *2689:C1 *969:50 4.82225e-05
6 *2689:C1 *1012:12 0.000150697
7 *2689:C1 *1048:31 0.000148196
8 *2681:C *2689:C1 0.00037335
*RES
1 *2688:X *2689:C1 36.5286 
*END

*D_NET *690 0.0019247
*CONN
*I *2690:B1 I *D sky130_fd_sc_hd__o31ai_1
*I *2689:X O *D sky130_fd_sc_hd__o311a_1
*CAP
1 *2690:B1 0.000643697
2 *2689:X 0.000643697
3 *2690:B1 *2687:D 1.38247e-05
4 *2690:B1 *696:28 0.000306317
5 *2690:B1 *953:10 2.29592e-05
6 *2684:C1 *2690:B1 0.000206329
7 *2685:B *2690:B1 0
8 *2697:A *2690:B1 8.40933e-05
9 *508:46 *2690:B1 3.78581e-06
*RES
1 *2689:X *2690:B1 36.35 
*END

*D_NET *691 0.00441605
*CONN
*I *2695:A I *D sky130_fd_sc_hd__or4b_4
*I *2697:B I *D sky130_fd_sc_hd__or4b_4
*I *2690:Y O *D sky130_fd_sc_hd__o31ai_1
*CAP
1 *2695:A 0.000786301
2 *2697:B 0
3 *2690:Y 0.000387325
4 *691:20 0.00117363
5 *2695:A *2428:B 5.17614e-05
6 *2695:A *2664:A_N 5.33005e-05
7 *2695:A *3103:A 0.000446199
8 *2695:A *696:28 3.87532e-05
9 *2695:A *969:12 5.5674e-05
10 *2695:A *1048:10 5.52302e-05
11 *691:20 *2428:B 3.42974e-05
12 *691:20 *2690:A1 9.50762e-05
13 *691:20 *2697:C 7.52112e-05
14 *691:20 *2762:B1 8.53839e-05
15 *691:20 *773:20 2.57157e-05
16 *691:20 *868:62 0.000247311
17 *691:20 *953:8 0.000140933
18 *691:20 *953:10 6.2589e-06
19 *2684:B1 *691:20 0.000117158
20 *2689:A2 *2695:A 5.50901e-05
21 *2689:A3 *2695:A 8.65736e-05
22 *2689:B1 *2695:A 2.6269e-05
23 *2697:A *2695:A 2.59355e-05
24 *2697:A *691:20 2.83129e-05
25 *2698:A3 *691:20 1.90936e-05
26 *508:46 *2695:A 9.60875e-05
27 *679:16 *2695:A 9.37026e-06
28 *679:33 *2695:A 0.000193799
*RES
1 *2690:Y *691:20 30.4916 
2 *691:20 *2697:B 9.3 
3 *691:20 *2695:A 24.6393 
*END

*D_NET *692 0.00164374
*CONN
*I *2695:D_N I *D sky130_fd_sc_hd__or4b_4
*I *2691:X O *D sky130_fd_sc_hd__and3_1
*CAP
1 *2695:D_N 0.000492474
2 *2691:X 0.000492474
3 *2695:D_N *2387:A 4.16984e-05
4 *2695:D_N *2387:B 9.41642e-05
5 *2695:D_N *2387:C_N 0.000108535
6 *2695:D_N *2441:B 0.000216755
7 *2695:D_N *982:27 0.00010326
8 *2695:D_N *1050:31 3.69047e-06
9 *2673:A *2695:D_N 4.13001e-05
10 *3180:A *2695:D_N 7.79781e-06
11 *478:8 *2695:D_N 4.15914e-05
*RES
1 *2691:X *2695:D_N 36.4571 
*END

*D_NET *693 0.00101554
*CONN
*I *2695:B I *D sky130_fd_sc_hd__or4b_4
*I *2692:X O *D sky130_fd_sc_hd__and3b_1
*CAP
1 *2695:B 0.000259126
2 *2692:X 0.000259126
3 *2695:B *2382:B 0.000263948
4 *2695:B *3362:A 3.27456e-05
5 *2695:B *951:83 0.000101551
6 *2695:B *953:73 0
7 *2695:B *954:38 9.90431e-05
8 *503:8 *2695:B 0
9 *675:12 *2695:B 0
*RES
1 *2692:X *2695:B 33.225 
*END

*D_NET *694 0.00397023
*CONN
*I *2694:C I *D sky130_fd_sc_hd__and3_1
*I *2693:X O *D sky130_fd_sc_hd__or4b_1
*CAP
1 *2694:C 0.00104478
2 *2693:X 0.00104478
3 *2694:C *2449:C 0.00014204
4 *2694:C *2693:A 4.02852e-05
5 *2694:C *2693:C 6.56534e-05
6 *2694:C *2698:B1 2.0954e-05
7 *2694:C *2702:A1 1.08192e-05
8 *2694:C *2790:CLK 5.06983e-05
9 *2694:C *772:10 5.58577e-05
10 *2694:C *772:39 8.96729e-05
11 *2694:C *772:74 2.74584e-05
12 *2694:C *774:12 3.25078e-05
13 *2694:C *950:35 0.000132538
14 *2694:C *950:46 0.000232185
15 *2694:C *950:63 0.000144038
16 *2694:C *950:80 0
17 *2694:C *954:8 0.000338569
18 *474:25 *2694:C 3.13225e-05
19 *674:18 *2694:C 8.27184e-06
20 *676:10 *2694:C 0.00012501
21 *676:16 *2694:C 0.000332779
*RES
1 *2693:X *2694:C 48.7429 
*END

*D_NET *695 0.00388118
*CONN
*I *2695:C I *D sky130_fd_sc_hd__or4b_4
*I *2698:B1 I *D sky130_fd_sc_hd__a31o_1
*I *2694:X O *D sky130_fd_sc_hd__and3_1
*CAP
1 *2695:C 0.000382856
2 *2698:B1 0.000705755
3 *2694:X 0
4 *695:4 0.00108861
5 *2695:C *2382:B 5.64742e-05
6 *2695:C *951:38 9.85833e-05
7 *2695:C *951:51 0.000274861
8 *2695:C *951:83 0.000133721
9 *2698:B1 *2383:B 5.41794e-05
10 *2698:B1 *2426:A 0.000125731
11 *2698:B1 *2440:B 5.52238e-05
12 *2698:B1 *2694:A 0.000178847
13 *2698:B1 *951:6 0.000354105
14 *2698:B1 *951:30 9.71197e-05
15 *2698:B1 *951:38 0.000171787
16 *2694:C *2698:B1 2.0954e-05
17 *2784:D *2695:C 4.75521e-05
18 *2785:D *2698:B1 3.48139e-05
*RES
1 *2694:X *695:4 9.3 
2 *695:4 *2698:B1 29.675 
3 *695:4 *2695:C 25.175 
*END

*D_NET *696 0.0094811
*CONN
*I *2762:B1 I *D sky130_fd_sc_hd__a31o_1
*I *2697:C I *D sky130_fd_sc_hd__or4b_4
*I *2696:Y O *D sky130_fd_sc_hd__nor3_1
*CAP
1 *2762:B1 0.000542288
2 *2697:C 3.60861e-05
3 *2696:Y 0.00149118
4 *696:28 0.000690008
5 *696:20 0.00160281
6 *2762:B1 *2378:A 2.03618e-05
7 *2762:B1 *2389:A 8.6229e-06
8 *2762:B1 *2687:C 0.000310292
9 *2762:B1 *2687:D 0.000186662
10 *2762:B1 *2690:A1 1.38323e-05
11 *2762:B1 *931:34 0.000537831
12 *696:20 *2381:A 1.94945e-05
13 *696:20 *2383:B 0.000166944
14 *696:20 *2426:A 0.000162982
15 *696:20 *2447:A_N 0.000190805
16 *696:20 *2449:B 5.03772e-05
17 *696:20 *2449:C 6.42095e-05
18 *696:20 *2665:B 0.000121411
19 *696:20 *2749:A4 2.45634e-05
20 *696:20 *3359:A 9.17477e-05
21 *696:20 *774:12 0.000301438
22 *696:20 *774:42 0.000219711
23 *696:20 *774:59 0.000219711
24 *696:20 *950:94 7.64269e-05
25 *696:20 *951:59 4.40603e-05
26 *696:20 *952:36 0.000249604
27 *696:20 *953:112 5.41794e-05
28 *696:20 *966:16 4.82919e-05
29 *696:20 *997:20 1.02504e-05
30 *696:28 *2428:B 9.41642e-05
31 *2690:A2 *2762:B1 0.000418811
32 *2690:B1 *696:28 0.000306317
33 *2695:A *696:28 3.87532e-05
34 *2697:A *696:28 9.60939e-05
35 *2697:D_N *2697:C 7.5088e-05
36 *2697:D_N *2762:B1 0.00014466
37 *474:45 *696:20 1.60271e-05
38 *475:38 *2762:B1 5.20298e-05
39 *480:10 *2762:B1 6.05161e-06
40 *502:55 *696:20 0.000139907
41 *504:12 *696:20 6.50253e-05
42 *508:18 *696:20 0.00026546
43 *675:12 *696:20 4.59293e-05
44 *691:20 *2697:C 7.52112e-05
45 *691:20 *2762:B1 8.53839e-05
*RES
1 *2696:Y *696:20 48.3357 
2 *696:20 *696:28 12.4286 
3 *696:28 *2697:C 14.8357 
4 *696:28 *2762:B1 36.1929 
*END

*D_NET *697 0.00067048
*CONN
*I *2699:B1 I *D sky130_fd_sc_hd__a21o_1
*I *2698:X O *D sky130_fd_sc_hd__a31o_1
*CAP
1 *2699:B1 0.000213473
2 *2698:X 0.000213473
3 *2699:B1 *2383:B 0.000184745
4 *2699:B1 *2428:B 0
5 *502:42 *2699:B1 5.87889e-05
*RES
1 *2698:X *2699:B1 31.0107 
*END

*D_NET *698 0.00324897
*CONN
*I *2703:C1 I *D sky130_fd_sc_hd__o211a_4
*I *2728:C1 I *D sky130_fd_sc_hd__o221a_2
*I *2700:X O *D sky130_fd_sc_hd__o2bb2a_4
*CAP
1 *2703:C1 0.000712163
2 *2728:C1 0.000394739
3 *2700:X 0
4 *698:4 0.0011069
5 *2703:C1 *701:6 5.7661e-06
6 *2703:C1 *701:12 2.89016e-05
7 *2703:C1 *701:34 0.000160375
8 *2703:C1 *891:72 6.05161e-06
9 *2703:C1 *982:75 0
10 *2688:B *2703:C1 0.000229619
11 *472:14 *2703:C1 6.87732e-05
12 *472:14 *2728:C1 5.71472e-05
13 *501:17 *2703:C1 1.41029e-05
14 *672:43 *2703:C1 0.000235379
15 *672:53 *2703:C1 0.000129944
16 *679:16 *2703:C1 9.91086e-05
*RES
1 *2700:X *698:4 9.3 
2 *698:4 *2728:C1 16.2107 
3 *698:4 *2703:C1 31.1214 
*END

*D_NET *699 0.00248932
*CONN
*I *2764:A I *D sky130_fd_sc_hd__or4_4
*I *2701:Y O *D sky130_fd_sc_hd__nor2_1
*CAP
1 *2764:A 0.000630783
2 *2701:Y 0.000630783
3 *2764:A *2678:A 4.53515e-05
4 *2764:A *2829:D 0
5 *2764:A *3104:A 0.000523238
6 *2764:A *783:26 3.06406e-05
7 *2764:A *783:37 0.000356035
8 *2764:A *784:14 1.52978e-05
9 *2764:A *804:10 6.8646e-06
10 *2764:A *887:105 6.08789e-05
11 *2829:GATE_N *2764:A 0.000125243
12 *680:10 *2764:A 6.42095e-05
*RES
1 *2701:Y *2764:A 41.7071 
*END

*D_NET *700 0.000979513
*CONN
*I *2703:B1 I *D sky130_fd_sc_hd__o211a_4
*I *2702:X O *D sky130_fd_sc_hd__o32a_1
*CAP
1 *2703:B1 0.00015288
2 *2702:X 0.00015288
3 *2703:B1 *2702:A1 0.000233131
4 *2703:B1 *2723:A2 6.05161e-06
5 *2703:B1 *701:34 2.95726e-05
6 *2703:B1 *891:72 9.71197e-05
7 *676:16 *2703:B1 0.000307878
*RES
1 *2702:X *2703:B1 32.6179 
*END

*D_NET *701 0.00651017
*CONN
*I *2711:S I *D sky130_fd_sc_hd__mux2_1
*I *2719:S I *D sky130_fd_sc_hd__mux2_1
*I *2749:B1 I *D sky130_fd_sc_hd__o41a_4
*I *2720:B1_N I *D sky130_fd_sc_hd__a21bo_1
*I *2706:S I *D sky130_fd_sc_hd__mux2_1
*I *2723:B2 I *D sky130_fd_sc_hd__a22o_1
*I *2703:X O *D sky130_fd_sc_hd__o211a_4
*CAP
1 *2711:S 0.000314857
2 *2719:S 0
3 *2749:B1 0.000207247
4 *2720:B1_N 0
5 *2706:S 9.00623e-05
6 *2723:B2 0
7 *2703:X 2.03441e-05
8 *701:60 0.000479996
9 *701:43 0.000517817
10 *701:34 0.000830539
11 *701:12 0.000322234
12 *701:6 0.000937623
13 *2706:S *2705:B1 0.000148196
14 *2706:S *2723:B1 1.3142e-05
15 *2706:S *956:12 9.15186e-06
16 *2706:S *1012:12 0.000186067
17 *2711:S *2693:D_N 1.08359e-05
18 *2711:S *2711:A1 4.1331e-06
19 *2711:S *2719:A0 0.000234325
20 *2711:S *2719:A1 7.57673e-05
21 *2711:S *787:14 0.000151087
22 *2711:S *956:70 0
23 *2711:S *997:20 8.13643e-05
24 *2711:S *1047:111 0
25 *2711:S *1047:123 9.25014e-06
26 *2749:B1 *2749:A4 1.02504e-05
27 *2749:B1 *997:20 9.22939e-05
28 *701:12 *2675:B 4.49293e-05
29 *701:12 *956:12 7.67315e-05
30 *701:12 *1012:12 0.000177131
31 *701:12 *1048:31 7.6644e-05
32 *701:34 *2723:A2 0.00015687
33 *701:34 *772:43 0.000312222
34 *701:34 *891:72 5.74499e-06
35 *701:43 *772:43 0.000217141
36 *701:60 *2669:A 0
37 *701:60 *2693:D_N 0.000104236
38 *701:60 *956:70 0
39 *701:60 *997:20 0.000107035
40 *2680:C *2749:B1 5.71472e-05
41 *2703:B1 *701:34 2.95726e-05
42 *2703:C1 *701:6 5.7661e-06
43 *2703:C1 *701:12 2.89016e-05
44 *2703:C1 *701:34 0.000160375
45 *2710:B1 *2711:S 0
46 *2720:A1 *2749:B1 1.37292e-05
47 *3278:A *2711:S 1.10856e-05
48 *504:12 *2749:B1 5.52302e-05
49 *674:30 *2749:B1 0
50 *675:10 *2749:B1 0.000123094
*RES
1 *2703:X *701:6 9.72857 
2 *701:6 *701:12 9.41071 
3 *701:12 *2723:B2 13.8 
4 *701:12 *2706:S 17.0143 
5 *701:6 *701:34 9.16071 
6 *701:34 *2720:B1_N 9.3 
7 *701:34 *701:43 6.67857 
8 *701:43 *2749:B1 18.4607 
9 *701:43 *701:60 4.07143 
10 *701:60 *2719:S 13.8 
11 *701:60 *2711:S 22.05 
*END

*D_NET *702 0.00150218
*CONN
*I *2705:B1 I *D sky130_fd_sc_hd__o21ai_1
*I *2704:X O *D sky130_fd_sc_hd__o2bb2a_1
*CAP
1 *2705:B1 0.000394344
2 *2704:X 0.000394344
3 *2705:B1 *2704:B2 0.000269428
4 *2705:B1 *2723:B1 0.000199775
5 *2705:A2 *2705:B1 9.60939e-05
6 *2706:S *2705:B1 0.000148196
*RES
1 *2704:X *2705:B1 34.3143 
*END

*D_NET *703 0.000388491
*CONN
*I *2706:A1 I *D sky130_fd_sc_hd__mux2_1
*I *2705:Y O *D sky130_fd_sc_hd__o21ai_1
*CAP
1 *2706:A1 0.000105335
2 *2705:Y 0.000105335
3 *2705:A2 *2706:A1 0.000177821
*RES
1 *2705:Y *2706:A1 20.3679 
*END

*D_NET *704 0.00733654
*CONN
*I *2710:B2 I *D sky130_fd_sc_hd__a221o_1
*I *2736:B2 I *D sky130_fd_sc_hd__a221o_1
*I *2707:X O *D sky130_fd_sc_hd__xor2_1
*CAP
1 *2710:B2 0.00308237
2 *2736:B2 0.000178578
3 *2707:X 4.059e-05
4 *704:8 0.00330154
5 *2710:B2 *2443:B 2.65052e-05
6 *2710:B2 *2710:A1 2.75651e-06
7 *2710:B2 *2718:A2 0
8 *2710:B2 *882:8 1.38106e-05
9 *2710:B2 *968:24 0.000306402
10 *2710:B2 *1047:123 5.55895e-05
11 *2736:B2 *2731:A1 5.85561e-05
12 *2736:B2 *2736:C1 2.93523e-05
13 *2736:B2 *719:8 0
14 *704:8 *957:16 0
15 rdata[5] *2710:B2 6.26774e-06
16 *2710:B1 *2710:B2 6.91411e-05
17 *2718:B1 *2710:B2 0
18 *3261:A *2710:B2 7.39203e-06
19 *3278:A *2710:B2 0.000142965
20 *481:14 *2736:B2 1.47169e-05
*RES
1 *2707:X *704:8 14.3804 
2 *704:8 *2736:B2 17.0991 
3 *704:8 *2710:B2 30.3909 
*END

*D_NET *705 0.00164844
*CONN
*I *2709:A2 I *D sky130_fd_sc_hd__a21oi_1
*I *2708:Y O *D sky130_fd_sc_hd__nand2_1
*CAP
1 *2709:A2 0.000370951
2 *2708:Y 0.000370951
3 *2709:A2 *2667:A 9.92861e-05
4 *2709:A2 *2667:B 0.00014285
5 *2709:A2 *2718:A1 0
6 *2709:A2 *3235:A 0
7 *2709:A2 *787:34 0.000127078
8 *2709:A2 *868:20 0.000145411
9 *2709:A2 *979:27 0.000219711
10 *2709:A2 *996:16 0.00014699
11 *2709:A2 *1047:111 4.60232e-06
12 *2709:A1 *2709:A2 2.06138e-05
*RES
1 *2708:Y *2709:A2 45.6357 
*END

*D_NET *706 0.00244304
*CONN
*I *2710:C1 I *D sky130_fd_sc_hd__a221o_1
*I *2709:Y O *D sky130_fd_sc_hd__a21oi_1
*CAP
1 *2710:C1 0.000453362
2 *2709:Y 0.000453362
3 *2710:C1 *2709:B1 1.33343e-05
4 *2710:C1 *868:20 1.54142e-05
5 *2710:C1 *882:8 6.87574e-05
6 *2710:C1 *979:10 0.000328389
7 *2710:C1 *981:18 0.000305181
8 *2710:C1 *1047:111 0.00040381
9 rdata[5] *2710:C1 0.000230475
10 *3250:A *2710:C1 3.18676e-05
11 *3277:A *2710:C1 0.000139087
*RES
1 *2709:Y *2710:C1 31.9393 
*END

*D_NET *707 0.00162198
*CONN
*I *2711:A1 I *D sky130_fd_sc_hd__mux2_1
*I *2710:X O *D sky130_fd_sc_hd__a221o_1
*CAP
1 *2711:A1 0.000500938
2 *2710:X 0.000500938
3 *2711:A1 *979:10 0.000615969
4 *2711:A1 *1047:111 0
5 *2711:A1 *1047:123 0
6 *2711:S *2711:A1 4.1331e-06
*RES
1 *2710:X *2711:A1 35.1179 
*END

*D_NET *708 0.000704127
*CONN
*I *2714:A I *D sky130_fd_sc_hd__or2_1
*I *2712:Y O *D sky130_fd_sc_hd__a21oi_1
*CAP
1 *2714:A 0.000145451
2 *2712:Y 0.000145451
3 *2714:A *2712:B1 3.98559e-05
4 *2714:A *2713:A 5.52238e-05
5 *2714:A *2713:B 7.06885e-05
6 *2714:A *2713:C 1.95435e-05
7 *2714:A *2721:B 5.52238e-05
8 *2714:A *2740:A3 0.000102207
9 *2714:A *709:8 5.71472e-05
10 *2714:A *968:40 1.33343e-05
*RES
1 *2712:Y *2714:A 22.7429 
*END

*D_NET *709 0.000960382
*CONN
*I *2721:B I *D sky130_fd_sc_hd__xnor2_1
*I *2714:B I *D sky130_fd_sc_hd__or2_1
*I *2713:X O *D sky130_fd_sc_hd__and3_1
*CAP
1 *2721:B 0.000156435
2 *2714:B 0
3 *2713:X 3.48374e-05
4 *709:8 0.000191272
5 *2721:B *2715:A 1.01075e-05
6 *2721:B *2740:A3 5.40717e-05
7 *2721:B *2740:B1 1.08359e-05
8 *2721:B *3365:A 0.0001399
9 *2721:B *957:54 4.13496e-05
10 *2721:B *968:40 0.000178525
11 *709:8 *2712:B1 1.85392e-05
12 *709:8 *968:40 1.21371e-05
13 *2714:A *2721:B 5.52238e-05
14 *2714:A *709:8 5.71472e-05
*RES
1 *2713:X *709:8 10.2643 
2 *709:8 *2714:B 9.3 
3 *709:8 *2721:B 22.4429 
*END

*D_NET *710 0.00357337
*CONN
*I *2715:A I *D sky130_fd_sc_hd__inv_2
*I *2740:B1 I *D sky130_fd_sc_hd__o32a_1
*I *2714:X O *D sky130_fd_sc_hd__or2_1
*CAP
1 *2715:A 0.000271846
2 *2740:B1 0.000291262
3 *2714:X 4.36033e-05
4 *710:8 0.000606711
5 *2715:A *2740:A3 0.000225609
6 *2715:A *957:77 0.000313241
7 *2715:A *968:24 9.41642e-05
8 *2715:A *968:26 0.000481568
9 *2715:A *968:40 4.13595e-05
10 *2715:A *979:27 8.61656e-05
11 *2715:A *1018:12 7.57946e-05
12 *2740:B1 *2734:B1 1.08359e-05
13 *2740:B1 *2740:A2 0.000105163
14 *2740:B1 *2740:A3 0
15 *2740:B1 *2746:B2 8.47004e-05
16 *2740:B1 *716:10 0.000150625
17 *2740:B1 *968:40 0.000123295
18 *2740:B1 *1018:12 0.000493182
19 *710:8 *968:40 5.33005e-05
20 *2721:B *2715:A 1.01075e-05
21 *2721:B *2740:B1 1.08359e-05
*RES
1 *2714:X *710:8 14.3357 
2 *710:8 *2740:B1 22.0679 
3 *710:8 *2715:A 22.3714 
*END

*D_NET *711 0.00226447
*CONN
*I *2718:B2 I *D sky130_fd_sc_hd__a221o_1
*I *2715:Y O *D sky130_fd_sc_hd__inv_2
*CAP
1 *2718:B2 0.000448312
2 *2715:Y 0.000448312
3 *2718:B2 *2668:C 0.000170654
4 *2718:B2 *2718:C1 7.86416e-05
5 *2718:B2 *2788:RESET_B 2.46427e-05
6 *2718:B2 *868:20 0.000192196
7 *2718:B2 *979:27 0.000522432
8 *2709:A1 *2718:B2 8.97164e-05
9 *2716:B *2718:B2 0.000289564
*RES
1 *2715:Y *2718:B2 39.3143 
*END

*D_NET *712 0.000564981
*CONN
*I *2717:A2 I *D sky130_fd_sc_hd__a21oi_1
*I *2716:Y O *D sky130_fd_sc_hd__nand2_1
*CAP
1 *2717:A2 0.000153989
2 *2716:Y 0.000153989
3 *2717:A2 *788:16 9.83115e-05
4 *2717:A2 *788:42 1.32056e-05
5 *2717:A2 *997:20 0
6 *2710:B1 *2717:A2 6.99087e-05
7 *2717:A1 *2717:A2 7.55769e-05
*RES
1 *2716:Y *2717:A2 30.6 
*END

*D_NET *713 0.00277498
*CONN
*I *2718:C1 I *D sky130_fd_sc_hd__a221o_1
*I *2717:Y O *D sky130_fd_sc_hd__a21oi_1
*CAP
1 *2718:C1 0.00115973
2 *2717:Y 0.00115973
3 *2718:C1 *2718:A2 9.75337e-06
4 *2718:C1 *2719:A1 1.18076e-05
5 *2718:C1 *2750:B 5.30637e-06
6 *2718:C1 *2788:RESET_B 0.000125248
7 *2718:C1 *787:14 0.000224764
8 *2718:B2 *2718:C1 7.86416e-05
*RES
1 *2717:Y *2718:C1 32.6491 
*END

*D_NET *714 0.00142029
*CONN
*I *2719:A1 I *D sky130_fd_sc_hd__mux2_1
*I *2718:X O *D sky130_fd_sc_hd__a221o_1
*CAP
1 *2719:A1 0.000435568
2 *2718:X 0.000435568
3 *2719:A1 *2719:A0 7.57673e-05
4 *2719:A1 *2788:RESET_B 0.000385814
5 *2711:S *2719:A1 7.57673e-05
6 *2718:C1 *2719:A1 1.18076e-05
*RES
1 *2718:X *2719:A1 33.6893 
*END

*D_NET *715 0.00192294
*CONN
*I *2723:A2 I *D sky130_fd_sc_hd__a22o_1
*I *2720:X O *D sky130_fd_sc_hd__a21bo_1
*CAP
1 *2723:A2 0.000391164
2 *2720:X 0.000391164
3 *2723:A2 *2668:C 0.000135028
4 *2723:A2 *2702:A1 5.01117e-05
5 *2723:A2 *2703:A1 5.7661e-06
6 *2723:A2 *2723:A1 0.0001399
7 *2723:A2 *772:43 1.24368e-05
8 *2723:A2 *891:72 4.94726e-05
9 *2723:A2 *891:80 3.14078e-05
10 *2723:A2 *1047:111 0.0001574
11 *2703:B1 *2723:A2 6.05161e-06
12 *2716:B *2723:A2 5.41794e-05
13 *2790:D *2723:A2 1.58163e-05
14 *674:18 *2723:A2 3.34687e-05
15 *676:10 *2723:A2 0.000292708
16 *701:34 *2723:A2 0.00015687
*RES
1 *2720:X *2723:A2 38.4393 
*END

*D_NET *716 0.00155993
*CONN
*I *2722:A2_N I *D sky130_fd_sc_hd__a2bb2o_1
*I *2746:A1_N I *D sky130_fd_sc_hd__a2bb2o_1
*I *2721:Y O *D sky130_fd_sc_hd__xnor2_1
*CAP
1 *2722:A2_N 5.61522e-05
2 *2746:A1_N 0.000100127
3 *2721:Y 5.12676e-05
4 *716:10 0.000207547
5 *2722:A2_N *2734:B1 8.27532e-05
6 *2722:A2_N *2744:A 1.21258e-05
7 *2722:A2_N *981:35 0.00018372
8 *2722:A2_N *1047:27 9.90431e-05
9 *2722:A2_N *1047:29 5.33005e-05
10 *2746:A1_N *2734:B1 5.52302e-05
11 *2746:A1_N *2744:A 1.21258e-05
12 *2746:A1_N *2744:B 0.000186194
13 *2746:A1_N *2746:B1 0.000163246
14 *716:10 *2734:B1 0.000146474
15 *2740:B1 *716:10 0.000150625
*RES
1 *2721:Y *716:10 20.2464 
2 *716:10 *2746:A1_N 12.8714 
3 *716:10 *2722:A2_N 11.4786 
*END

*D_NET *717 0.00180398
*CONN
*I *2723:B1 I *D sky130_fd_sc_hd__a22o_1
*I *2722:X O *D sky130_fd_sc_hd__a2bb2o_1
*CAP
1 *2723:B1 0.000455751
2 *2722:X 0.000455751
3 *2723:B1 *3365:A 0.000354111
4 *2723:B1 *956:10 4.43046e-05
5 *2723:B1 *956:12 5.33978e-05
6 *2723:B1 *1012:12 7.79781e-06
7 *2705:A2 *2723:B1 0.000117809
8 *2705:B1 *2723:B1 0.000199775
9 *2706:S *2723:B1 1.3142e-05
10 *2722:A1_N *2723:B1 6.05161e-06
11 *2787:D *2723:B1 9.60875e-05
*RES
1 *2722:X *2723:B1 36.975 
*END

*D_NET *718 0.00470812
*CONN
*I *2726:B I *D sky130_fd_sc_hd__nand2_1
*I *2730:B1 I *D sky130_fd_sc_hd__o22a_1
*I *2741:A2 I *D sky130_fd_sc_hd__o21ai_1
*I *2728:A2 I *D sky130_fd_sc_hd__o221a_2
*I *2762:A2 I *D sky130_fd_sc_hd__a31o_1
*I *2733:A2 I *D sky130_fd_sc_hd__o21ai_1
*I *2724:Y O *D sky130_fd_sc_hd__nor2_4
*CAP
1 *2726:B 0
2 *2730:B1 2.74518e-05
3 *2741:A2 3.94797e-05
4 *2728:A2 7.82738e-05
5 *2762:A2 0.000321447
6 *2733:A2 0.000344342
7 *2724:Y 0
8 *718:47 0.00014972
9 *718:25 0.000558327
10 *718:21 0.000241395
11 *718:19 0.000238842
12 *718:4 0.000583184
13 *2728:A2 *722:10 2.89114e-05
14 *2730:B1 *2741:B1 0.00012747
15 *2730:B1 *782:53 0.000139907
16 *2733:A2 *2391:C 4.69993e-05
17 *2733:A2 *2747:B2 3.99614e-06
18 *2741:A2 *2741:B1 5.33005e-05
19 *2741:A2 *722:14 5.52238e-05
20 *2741:A2 *737:26 1.38323e-05
21 *2741:A2 *782:53 0.000136951
22 *2762:A2 *2762:A1 0.000331501
23 *2762:A2 *722:10 1.78447e-05
24 *718:19 *2391:A 1.56e-05
25 *718:19 *2391:C 2.89016e-05
26 *718:19 *720:10 1.40306e-05
27 *718:25 *2726:A 5.80706e-06
28 *718:25 *2728:B2 0
29 *718:25 *722:10 0.000105591
30 *718:47 *2390:B 7.6644e-05
31 *718:47 *2726:A 7.38556e-05
32 *718:47 *720:10 0.000144038
33 *718:47 *722:10 3.65015e-05
34 *2728:A1 *2728:A2 9.90431e-05
35 *2733:A1 *2733:A2 0.000349875
36 *2761:B1 *2762:A2 0
37 *471:20 *2762:A2 0
38 *471:20 *718:25 0
39 *482:12 *718:19 1.72894e-05
40 *483:21 *2762:A2 0
41 *672:70 *2762:A2 0.000192998
42 *672:84 *2762:A2 9.54798e-06
*RES
1 *2724:Y *718:4 9.3 
2 *718:4 *2733:A2 14.6929 
3 *718:4 *718:19 3.83929 
4 *718:19 *718:21 4.5 
5 *718:21 *718:25 3.08929 
6 *718:25 *2762:A2 21.2107 
7 *718:25 *2728:A2 15.5679 
8 *718:21 *718:47 7.35714 
9 *718:47 *2741:A2 10.6571 
10 *718:47 *2730:B1 10.6571 
11 *718:19 *2726:B 9.3 
*END

*D_NET *719 0.00182195
*CONN
*I *2736:A2 I *D sky130_fd_sc_hd__a221o_1
*I *2729:A2 I *D sky130_fd_sc_hd__a21bo_1
*I *2743:A2 I *D sky130_fd_sc_hd__a21bo_1
*I *2725:X O *D sky130_fd_sc_hd__or2_1
*CAP
1 *2736:A2 6.40228e-05
2 *2729:A2 3.52744e-05
3 *2743:A2 0.000115383
4 *2725:X 8.66518e-05
5 *719:10 0.00024563
6 *719:8 0.000245647
7 *2729:A2 *2732:A1 9.71197e-05
8 *2729:A2 *782:32 5.33005e-05
9 *2736:A2 *2737:B1 2.89114e-05
10 *2743:A2 *2391:A 3.34295e-05
11 *2743:A2 *722:18 0.000183713
12 *2743:A2 *782:36 0.00015134
13 *2743:A2 *782:53 0.000181796
14 *2743:A2 *801:25 7.04538e-05
15 *2743:A2 *804:14 1.08359e-05
16 *719:8 *801:25 4.65158e-06
17 *719:8 *804:14 5.46303e-05
18 *719:10 *801:25 6.56746e-05
19 *719:10 *804:14 9.34817e-05
20 *2736:B2 *719:8 0
*RES
1 *2725:X *719:8 15.4429 
2 *719:8 *719:10 2.55357 
3 *719:10 *2743:A2 18.1214 
4 *719:10 *2729:A2 14.7464 
5 *719:8 *2736:A2 14.9518 
*END

*D_NET *720 0.00436626
*CONN
*I *2728:B1 I *D sky130_fd_sc_hd__o221a_2
*I *2731:A2 I *D sky130_fd_sc_hd__o21ai_1
*I *2746:A2_N I *D sky130_fd_sc_hd__a2bb2o_1
*I *2740:B2 I *D sky130_fd_sc_hd__o32a_1
*I *2727:A I *D sky130_fd_sc_hd__inv_2
*I *2726:Y O *D sky130_fd_sc_hd__nand2_1
*CAP
1 *2728:B1 0.000294509
2 *2731:A2 9.32662e-05
3 *2746:A2_N 0
4 *2740:B2 8.89766e-05
5 *2727:A 0
6 *2726:Y 0
7 *720:33 0.000317918
8 *720:20 0.000470159
9 *720:10 0.000532083
10 *720:4 0.000492109
11 *2728:B1 *2728:B2 0.000227729
12 *2728:B1 *3347:A 3.17148e-05
13 *2728:B1 *973:8 5.33005e-05
14 *2731:A2 *2443:A 0
15 *2731:A2 *2731:A1 7.25515e-05
16 *2731:A2 *2731:B1 6.16373e-05
17 *2740:B2 *2740:A1 5.66377e-05
18 *2740:B2 *2740:A3 0.00017309
19 *2740:B2 *2744:A 4.46186e-06
20 *2740:B2 *1018:12 0
21 *720:10 *2390:B 1.721e-05
22 *720:10 *2731:B1 7.6644e-05
23 *720:10 *722:10 0.000123288
24 *720:10 *722:75 0.000144038
25 *720:20 *2732:A1 3.03445e-05
26 *720:20 *2736:B1 3.77034e-05
27 *720:20 *2742:B2 0
28 *720:20 *2744:B 1.97695e-05
29 *720:20 *737:26 9.71197e-05
30 *720:33 *2736:B1 1.04232e-05
31 *720:33 *2740:A3 5.58941e-05
32 *720:33 *2744:A 0.000118792
33 *720:33 *2744:B 1.97502e-05
34 *720:33 *2746:B1 0.000224583
35 *720:33 *737:26 1.40034e-05
36 *471:20 *2728:B1 0.000248486
37 *471:20 *2740:B2 0
38 *481:14 *2731:A2 0
39 *718:19 *720:10 1.40306e-05
40 *718:47 *720:10 0.000144038
*RES
1 *2726:Y *720:4 9.3 
2 *720:4 *720:10 8.91071 
3 *720:10 *720:20 8.48214 
4 *720:20 *2727:A 9.3 
5 *720:20 *720:33 9.375 
6 *720:33 *2740:B2 16.3536 
7 *720:33 *2746:A2_N 13.8 
8 *720:10 *2731:A2 15.8 
9 *720:4 *2728:B1 24.1795 
*END

*D_NET *721 0.00154695
*CONN
*I *2736:B1 I *D sky130_fd_sc_hd__a221o_1
*I *2727:Y O *D sky130_fd_sc_hd__inv_2
*CAP
1 *2736:B1 0.000574806
2 *2727:Y 0.000574806
3 *2736:B1 *2443:A 0
4 *2736:B1 *2731:A1 0
5 *2736:B1 *2732:A1 0.00019055
6 *2733:A1 *2736:B1 7.6644e-05
7 *2736:A1 *2736:B1 8.20201e-05
8 *720:20 *2736:B1 3.77034e-05
9 *720:33 *2736:B1 1.04232e-05
*RES
1 *2727:Y *2736:B1 35.85 
*END

*D_NET *722 0.00598001
*CONN
*I *2742:B2 I *D sky130_fd_sc_hd__a22o_1
*I *2729:B1_N I *D sky130_fd_sc_hd__a21bo_1
*I *2743:B1_N I *D sky130_fd_sc_hd__a21bo_1
*I *2737:B2 I *D sky130_fd_sc_hd__a22o_1
*I *2732:S I *D sky130_fd_sc_hd__mux2_1
*I *2733:B1 I *D sky130_fd_sc_hd__o21ai_1
*I *2747:B2 I *D sky130_fd_sc_hd__a22o_1
*I *2728:X O *D sky130_fd_sc_hd__o221a_2
*CAP
1 *2742:B2 3.02958e-05
2 *2729:B1_N 0.000260132
3 *2743:B1_N 0
4 *2737:B2 0.000164617
5 *2732:S 1.645e-05
6 *2733:B1 0
7 *2747:B2 4.79847e-05
8 *2728:X 0.000317933
9 *722:75 0.000429276
10 *722:42 0.000267437
11 *722:26 0.00017841
12 *722:18 0.000365065
13 *722:14 0.000182344
14 *722:10 0.000490855
15 *2729:B1_N *2732:A1 9.73663e-05
16 *2732:S *2732:A1 9.90367e-05
17 *2732:S *782:32 9.90367e-05
18 *2737:B2 *2725:B 1.27784e-05
19 *2737:B2 *2737:A1 6.05161e-06
20 *2737:B2 *2737:A2 0.000128154
21 *2737:B2 *2737:B1 3.4879e-05
22 *2737:B2 *804:14 6.07232e-05
23 *2742:B2 *2731:A1 2.7547e-05
24 *2742:B2 *2732:A1 4.53051e-06
25 *2747:B2 *737:26 2.59355e-05
26 *722:10 *2443:A 6.51281e-05
27 *722:14 *737:26 0.000125547
28 *722:14 *782:53 1.5424e-05
29 *722:18 *2747:A2 0.000268403
30 *722:18 *737:26 0.000281893
31 *722:18 *782:53 3.68997e-05
32 *722:26 *2391:C 5.52302e-05
33 *722:26 *2742:A2 5.33005e-05
34 *722:26 *3240:A 0.00014576
35 *722:26 *784:8 7.48301e-06
36 *722:26 *804:14 6.94775e-05
37 *722:42 *2725:B 7.76647e-05
38 *722:42 *804:14 8.89385e-05
39 *722:75 *2443:A 3.4323e-05
40 *722:75 *2731:A1 9.08261e-06
41 *722:75 *2732:A1 3.36758e-05
42 *2728:A1 *722:10 4.70078e-05
43 *2728:A2 *722:10 2.89114e-05
44 *2733:A2 *2747:B2 3.99614e-06
45 *2741:A2 *722:14 5.52238e-05
46 *2743:A1 *722:14 5.33005e-05
47 *2743:A1 *722:18 0.00018372
48 *2743:A2 *722:18 0.000183713
49 *2762:A2 *722:10 1.78447e-05
50 *461:22 *2737:B2 5.41794e-05
51 *461:22 *722:42 5.41794e-05
52 *482:12 *722:10 5.86416e-05
53 *482:12 *722:75 1.08359e-05
54 *483:21 *722:10 0.000103974
55 *718:25 *722:10 0.000105591
56 *718:47 *722:10 3.65015e-05
57 *720:10 *722:10 0.000123288
58 *720:10 *722:75 0.000144038
59 *720:20 *2742:B2 0
*RES
1 *2728:X *722:10 21.1571 
2 *722:10 *722:14 5.85714 
3 *722:14 *722:18 9.96429 
4 *722:18 *722:26 7.82143 
5 *722:26 *2747:B2 10.2643 
6 *722:26 *2733:B1 9.3 
7 *722:18 *722:42 2.85714 
8 *722:42 *2732:S 14.7464 
9 *722:42 *2737:B2 17.8357 
10 *722:14 *2743:B1_N 9.3 
11 *722:10 *722:75 7.39286 
12 *722:75 *2729:B1_N 12.3 
13 *722:75 *2742:B2 10.0321 
*END

*D_NET *723 0.000485261
*CONN
*I *2737:A2 I *D sky130_fd_sc_hd__a22o_1
*I *2729:X O *D sky130_fd_sc_hd__a21bo_1
*CAP
1 *2737:A2 0.000109382
2 *2729:X 0.000109382
3 *2737:A2 *2725:B 7.53108e-05
4 *2737:A2 *2732:A1 5.52238e-05
5 *2737:A2 *804:14 7.80851e-06
6 *2737:B2 *2737:A2 0.000128154
*RES
1 *2729:X *2737:A2 30.0821 
*END

*D_NET *724 0.000548526
*CONN
*I *2731:B1 I *D sky130_fd_sc_hd__o21ai_1
*I *2730:X O *D sky130_fd_sc_hd__o22a_1
*CAP
1 *2731:B1 0.000112602
2 *2730:X 0.000112602
3 *2731:B1 *2390:B 0.00012401
4 *2731:B1 *3347:A 0
5 *2731:B1 *782:53 5.52238e-05
6 *2731:A2 *2731:B1 6.16373e-05
7 *481:14 *2731:B1 5.80706e-06
8 *720:10 *2731:B1 7.6644e-05
*RES
1 *2730:X *2731:B1 30.0821 
*END

*D_NET *725 0.00187297
*CONN
*I *2732:A1 I *D sky130_fd_sc_hd__mux2_1
*I *2731:Y O *D sky130_fd_sc_hd__o21ai_1
*CAP
1 *2732:A1 0.000441319
2 *2731:Y 0.000441319
3 *2732:A1 *2731:A1 2.21447e-05
4 *2732:A1 *782:25 3.57366e-05
5 *2732:A1 *782:32 7.80417e-05
6 *2729:A2 *2732:A1 9.71197e-05
7 *2729:B1_N *2732:A1 9.73663e-05
8 *2732:S *2732:A1 9.90367e-05
9 *2736:B1 *2732:A1 0.00019055
10 *2737:A2 *2732:A1 5.52238e-05
11 *2742:B2 *2732:A1 4.53051e-06
12 *461:22 *2732:A1 0.000246558
13 *720:20 *2732:A1 3.03445e-05
14 *722:75 *2732:A1 3.36758e-05
*RES
1 *2731:Y *2732:A1 29.725 
*END

*D_NET *726 0.00178289
*CONN
*I *2742:A2 I *D sky130_fd_sc_hd__a22o_1
*I *2733:Y O *D sky130_fd_sc_hd__o21ai_1
*CAP
1 *2742:A2 0.000490102
2 *2733:Y 0.000490102
3 *2742:A2 *2390:B 6.91157e-05
4 *2742:A2 *2391:A 0.000312215
5 *2742:A2 *2391:C 6.13217e-05
6 *2742:A2 *2443:A 4.24671e-05
7 *2742:A2 *2742:A1 0.000100831
8 *2742:A2 *783:37 9.25014e-06
9 *2733:A1 *2742:A2 0.000154188
10 *722:26 *2742:A2 5.33005e-05
*RES
1 *2733:Y *2742:A2 36.3143 
*END

*D_NET *727 0.000133696
*CONN
*I *2735:B1 I *D sky130_fd_sc_hd__a21oi_1
*I *2734:Y O *D sky130_fd_sc_hd__o21ai_1
*CAP
1 *2735:B1 1.1624e-05
2 *2734:Y 1.1624e-05
3 *2735:B1 *2734:A2 5.52238e-05
4 *2735:B1 *957:31 5.52238e-05
*RES
1 *2734:Y *2735:B1 19.1357 
*END

*D_NET *728 0.00100093
*CONN
*I *2736:C1 I *D sky130_fd_sc_hd__a221o_1
*I *2735:Y O *D sky130_fd_sc_hd__a21oi_1
*CAP
1 *2736:C1 0.000212681
2 *2735:Y 0.000212681
3 *2736:C1 *2443:B 2.89016e-05
4 *2736:C1 *2734:A2 4.88637e-05
5 *2736:C1 *2734:B1 5.52238e-05
6 *2736:C1 *3317:A 3.97657e-05
7 *2736:C1 *957:31 1.74352e-05
8 *2736:B2 *2736:C1 2.93523e-05
9 *481:14 *2736:C1 0.000356028
*RES
1 *2735:Y *2736:C1 24.3857 
*END

*D_NET *729 0.000397396
*CONN
*I *2737:B1 I *D sky130_fd_sc_hd__a22o_1
*I *2736:X O *D sky130_fd_sc_hd__a221o_1
*CAP
1 *2737:B1 0.000165261
2 *2736:X 0.000165261
3 *2737:B1 *2737:A1 3.08382e-06
4 *2736:A2 *2737:B1 2.89114e-05
5 *2737:B2 *2737:B1 3.4879e-05
*RES
1 *2736:X *2737:B1 20.7964 
*END

*D_NET *730 0.00346294
*CONN
*I *2745:A2 I *D sky130_fd_sc_hd__o21a_1
*I *2740:A2 I *D sky130_fd_sc_hd__o32a_1
*I *2744:B I *D sky130_fd_sc_hd__nand2_1
*I *2738:X O *D sky130_fd_sc_hd__and3_1
*CAP
1 *2745:A2 0
2 *2740:A2 0.000137058
3 *2744:B 0.000431677
4 *2738:X 0.000184546
5 *730:25 0.000187271
6 *730:6 0.000666435
7 *2740:A2 *2740:A3 5.62995e-05
8 *2740:A2 *2745:A1 1.04232e-05
9 *2740:A2 *2745:B1 2.89114e-05
10 *2740:A2 *883:10 0.000492333
11 *2744:B *2734:B1 0.0001399
12 *2744:B *2744:A 9.80173e-05
13 *2744:B *2746:B1 3.65607e-05
14 *2744:B *737:26 0.000140933
15 *2744:B *1047:27 4.08637e-05
16 *2744:B *1047:29 4.08637e-05
17 *730:6 *1047:27 0.00022459
18 *730:25 *2745:B1 0.000126439
19 *730:25 *891:32 6.74815e-05
20 *2705:A2 *730:6 2.14658e-05
21 *2740:B1 *2740:A2 0.000105163
22 *2746:A1_N *2744:B 0.000186194
23 *720:20 *2744:B 1.97695e-05
24 *720:33 *2744:B 1.97502e-05
*RES
1 *2738:X *730:6 11.8893 
2 *730:6 *2744:B 16.5679 
3 *730:6 *730:25 10.6429 
4 *730:25 *2740:A2 14.675 
5 *730:25 *2745:A2 9.3 
*END

*D_NET *731 0.00214583
*CONN
*I *2740:A3 I *D sky130_fd_sc_hd__o32a_1
*I *2739:Y O *D sky130_fd_sc_hd__a21oi_1
*CAP
1 *2740:A3 0.000616942
2 *2739:Y 0.000616942
3 *2740:A3 *2705:A1 4.26495e-05
4 *2740:A3 *2734:B1 5.66657e-05
5 *2740:A3 *2740:A1 0
6 *2740:A3 *2744:A 6.8646e-06
7 *2740:A3 *2746:B2 5.01117e-05
8 *2740:A3 *968:40 1.02821e-05
9 *2740:A3 *993:12 7.8201e-05
10 *2740:A3 *1018:12 0
11 *2714:A *2740:A3 0.000102207
12 *2715:A *2740:A3 0.000225609
13 *2721:B *2740:A3 5.40717e-05
14 *2740:A2 *2740:A3 5.62995e-05
15 *2740:B1 *2740:A3 0
16 *2740:B2 *2740:A3 0.00017309
17 *471:20 *2740:A3 0
18 *720:33 *2740:A3 5.58941e-05
*RES
1 *2739:Y *2740:A3 40.4929 
*END

*D_NET *732 0.000852115
*CONN
*I *2741:B1 I *D sky130_fd_sc_hd__o21ai_1
*I *2740:X O *D sky130_fd_sc_hd__o32a_1
*CAP
1 *2741:B1 0.000154042
2 *2740:X 0.000154042
3 *2741:B1 *2726:A 4.58976e-05
4 *2741:B1 *2730:B2 2.14658e-05
5 *2741:B1 *737:26 0.00022266
6 *2741:B1 *883:10 7.3237e-05
7 *2730:B1 *2741:B1 0.00012747
8 *2741:A2 *2741:B1 5.33005e-05
*RES
1 *2740:X *2741:B1 22.8321 
*END

*D_NET *733 0.000826261
*CONN
*I *2742:B1 I *D sky130_fd_sc_hd__a22o_1
*I *2741:Y O *D sky130_fd_sc_hd__o21ai_1
*CAP
1 *2742:B1 0.000200008
2 *2741:Y 0.000200008
3 *2742:B1 *2443:A 0.000100831
4 *2742:B1 *2742:A1 0.000100831
5 *2742:B1 *782:53 0.000224583
*RES
1 *2741:Y *2742:B1 31.1179 
*END

*D_NET *734 0.00159112
*CONN
*I *2747:A2 I *D sky130_fd_sc_hd__a22o_1
*I *2743:X O *D sky130_fd_sc_hd__a21bo_1
*CAP
1 *2747:A2 0.000248617
2 *2743:X 0.000248617
3 *2747:A2 *2725:B 0
4 *2747:A2 *2747:A1 0.000295695
5 *2747:A2 *737:26 0.00035013
6 *2747:A2 *783:12 0.000179656
7 *722:18 *2747:A2 0.000268403
*RES
1 *2743:X *2747:A2 35.3143 
*END

*D_NET *735 0.000804412
*CONN
*I *2746:B1 I *D sky130_fd_sc_hd__a2bb2o_1
*I *2744:Y O *D sky130_fd_sc_hd__nand2_1
*CAP
1 *2746:B1 9.76464e-05
2 *2744:Y 9.76464e-05
3 *2746:B1 *2744:A 0.000184729
4 *2744:B *2746:B1 3.65607e-05
5 *2746:A1_N *2746:B1 0.000163246
6 *720:33 *2746:B1 0.000224583
*RES
1 *2744:Y *2746:B1 22.4214 
*END

*D_NET *736 0.000387369
*CONN
*I *2746:B2 I *D sky130_fd_sc_hd__a2bb2o_1
*I *2745:X O *D sky130_fd_sc_hd__o21a_1
*CAP
1 *2746:B2 0.000121153
2 *2745:X 0.000121153
3 *2746:B2 *2734:B1 1.02504e-05
4 *2740:A3 *2746:B2 5.01117e-05
5 *2740:B1 *2746:B2 8.47004e-05
*RES
1 *2745:X *2746:B2 29.8857 
*END

*D_NET *737 0.00436205
*CONN
*I *2747:B1 I *D sky130_fd_sc_hd__a22o_1
*I *2746:X O *D sky130_fd_sc_hd__a2bb2o_1
*CAP
1 *2747:B1 0
2 *2746:X 0.000983001
3 *737:26 0.000983001
4 *737:26 *2390:A 7.83587e-05
5 *737:26 *2390:B 0.000372716
6 *737:26 *2725:B 0.000173804
7 *737:26 *2726:A 9.90431e-05
8 *737:26 *3240:A 0.000114759
9 *737:26 *3347:A 8.68665e-05
10 *737:26 *784:8 0.00014183
11 *737:26 *784:32 5.66157e-05
12 *2741:A2 *737:26 1.38323e-05
13 *2741:B1 *737:26 0.00022266
14 *2744:B *737:26 0.000140933
15 *2747:A2 *737:26 0.00035013
16 *2747:B2 *737:26 2.59355e-05
17 *720:20 *737:26 9.71197e-05
18 *720:33 *737:26 1.40034e-05
19 *722:14 *737:26 0.000125547
20 *722:18 *737:26 0.000281893
*RES
1 *2746:X *737:26 46.6929 
2 *737:26 *2747:B1 9.3 
*END

*D_NET *738 0.0111121
*CONN
*I *2749:A4 I *D sky130_fd_sc_hd__o41a_4
*I *2763:A2 I *D sky130_fd_sc_hd__a21oi_1
*I *2748:X O *D sky130_fd_sc_hd__and2b_1
*CAP
1 *2749:A4 0.000885113
2 *2763:A2 0.00292899
3 *2748:X 0.00100701
4 *738:12 0.00482111
5 *2749:A4 *795:26 0.000257751
6 *2749:A4 *887:99 4.79453e-05
7 *2749:A4 *950:94 0.000146053
8 *2749:A4 *997:20 1.18451e-05
9 *2763:A2 *2764:D 1.21859e-05
10 *2763:A2 *881:31 2.06112e-05
11 *2763:A2 *1019:12 0
12 *738:12 *2674:A 0.000360816
13 *738:12 *885:26 0
14 *738:12 *982:27 4.32957e-05
15 *738:12 *1050:10 0.000158055
16 *2516:A *738:12 6.74911e-05
17 *2676:B *738:12 0
18 *2749:B1 *2749:A4 1.02504e-05
19 *3180:A *738:12 0
20 *503:16 *2749:A4 4.88232e-05
21 *675:10 *2749:A4 1.02504e-05
22 *675:12 *2749:A4 0.00024993
23 *675:37 *2763:A2 0
24 *696:20 *2749:A4 2.45634e-05
*RES
1 *2748:X *738:12 25.5456 
2 *738:12 *2763:A2 22.6866 
3 *738:12 *2749:A4 28.964 
*END

*D_NET *739 0.00795952
*CONN
*I *2754:A I *D sky130_fd_sc_hd__nand2_1
*I *2760:B2 I *D sky130_fd_sc_hd__a22o_1
*I *2752:S I *D sky130_fd_sc_hd__mux2_1
*I *2755:A1_N I *D sky130_fd_sc_hd__o2bb2a_2
*I *2757:A2 I *D sky130_fd_sc_hd__o22a_1
*I *2749:X O *D sky130_fd_sc_hd__o41a_4
*CAP
1 *2754:A 5.06925e-05
2 *2760:B2 0.000364603
3 *2752:S 0
4 *2755:A1_N 9.5897e-05
5 *2757:A2 0.000200436
6 *2749:X 0.000370651
7 *739:44 0.000550945
8 *739:22 0.000429957
9 *739:16 0.000952073
10 *739:10 0.00105345
11 *2754:A *2754:B 1.02504e-05
12 *2754:A *891:110 0.000117189
13 *2754:A *1050:37 3.84385e-05
14 *2757:A2 *2659:A0 2.27416e-05
15 *2757:A2 *2757:B1 0.00022266
16 *2757:A2 *2757:B2 1.98839e-05
17 *2757:A2 *988:14 0.000196269
18 *2760:B2 *2759:A1 5.7704e-05
19 *2760:B2 *2759:A2 7.30018e-05
20 *2760:B2 *2760:A1 3.14048e-05
21 *2760:B2 *2760:A2 0.000309273
22 *2760:B2 *989:18 1.24368e-05
23 *739:10 *2756:A 1.56e-05
24 *739:10 *2757:B2 4.46186e-06
25 *739:10 *891:84 0
26 *739:10 *891:110 0.000105696
27 *739:10 *982:52 8.07397e-06
28 *739:10 *1050:37 0.000111478
29 *739:16 *3091:RESET_B 0.00017411
30 *739:16 *772:43 5.52302e-05
31 *739:16 *772:56 0.0001399
32 *739:22 *988:14 0.000168224
33 *739:44 *2751:B2 0.000334016
34 *739:44 *2759:A2 1.31516e-05
35 *2444:A *2760:B2 2.31791e-05
36 *2444:A *739:22 0.000203087
37 *2444:A *739:44 0.000509563
38 *2445:A *2757:A2 0.00018372
39 *2680:C *739:10 0.000106811
40 *2756:B *2755:A1_N 0.000195128
41 *2756:B *739:10 3.69047e-06
42 *2758:B *2757:A2 0.000103275
43 *2758:B *739:22 2.90164e-05
44 *3091:D *739:16 0.000151482
45 *3091:D *739:22 7.79781e-06
46 *3092:D *2760:B2 5.33005e-05
47 *116:38 *739:22 2.19684e-05
48 *116:38 *739:44 4.57445e-05
49 *116:57 *739:44 1.18554e-05
50 *672:43 *739:10 0
*RES
1 *2749:X *739:10 20.05 
2 *739:10 *739:16 16.9286 
3 *739:16 *739:22 4.125 
4 *739:22 *2757:A2 19.7643 
5 *739:22 *2755:A1_N 15.7018 
6 *739:16 *739:44 6.80357 
7 *739:44 *2752:S 13.8 
8 *739:44 *2760:B2 21.1214 
9 *739:10 *2754:A 15.4429 
*END

*D_NET *740 0.000259302
*CONN
*I *2751:C1 I *D sky130_fd_sc_hd__a221o_1
*I *2750:Y O *D sky130_fd_sc_hd__nor2_1
*CAP
1 *2751:C1 0.000109617
2 *2750:Y 0.000109617
3 *2751:C1 *2750:B 0
4 *2751:C1 *2751:B2 0
5 *2751:C1 *882:25 4.00679e-05
*RES
1 *2750:Y *2751:C1 20.3857 
*END

*D_NET *741 0.000577466
*CONN
*I *2752:A1 I *D sky130_fd_sc_hd__mux2_1
*I *2751:X O *D sky130_fd_sc_hd__a221o_1
*CAP
1 *2752:A1 0.000159532
2 *2751:X 0.000159532
3 *2752:A1 *2751:B2 0.000258402
4 *2444:A *2752:A1 0
*RES
1 *2751:X *2752:A1 21.6179 
*END

*D_NET *742 0.00293478
*CONN
*I *2755:A2_N I *D sky130_fd_sc_hd__o2bb2a_2
*I *2754:B I *D sky130_fd_sc_hd__nand2_1
*I *2753:X O *D sky130_fd_sc_hd__a21o_1
*CAP
1 *2755:A2_N 0.000396794
2 *2754:B 0.000269873
3 *2753:X 0
4 *742:4 0.000666667
5 *2754:B *2753:B1 1.00073e-05
6 *2754:B *2760:A2 1.92905e-05
7 *2754:B *891:110 7.80929e-05
8 *2754:B *956:70 3.18676e-05
9 *2754:B *1050:37 7.6021e-05
10 *2755:A2_N *2760:A2 7.6644e-05
11 *2755:A2_N *3322:A 0.000575888
12 *2755:A2_N *882:44 0.000226554
13 *2755:A2_N *882:52 0.000105682
14 *2750:A *2754:B 0.000223142
15 *2750:A *2755:A2_N 5.52238e-05
16 *2753:A2 *2755:A2_N 1.21258e-05
17 *2754:A *2754:B 1.02504e-05
18 *2758:A_N *2755:A2_N 6.05161e-06
19 *115:26 *2755:A2_N 7.48301e-06
20 *115:34 *2755:A2_N 8.71191e-05
*RES
1 *2753:X *742:4 9.3 
2 *742:4 *2754:B 23.3714 
3 *742:4 *2755:A2_N 28.3 
*END

*D_NET *743 0.00304177
*CONN
*I *2760:A2 I *D sky130_fd_sc_hd__a22o_1
*I *2754:Y O *D sky130_fd_sc_hd__nand2_1
*CAP
1 *2760:A2 0.00100855
2 *2754:Y 0.00100855
3 *2760:A2 *2751:A1 0
4 *2760:A2 *3092:RESET_B 5.81448e-05
5 *2760:A2 *3322:A 0.000295792
6 *2760:A2 *882:44 0.00013021
7 *2760:A2 *956:70 9.9471e-06
8 *2754:B *2760:A2 1.92905e-05
9 *2755:A2_N *2760:A2 7.6644e-05
10 *2760:B2 *2760:A2 0.000309273
11 *3090:D *2760:A2 0.000125369
12 *3251:A *2760:A2 0
*RES
1 *2754:Y *2760:A2 45.2964 
*END

*D_NET *744 0.00113112
*CONN
*I *2757:B1 I *D sky130_fd_sc_hd__o22a_1
*I *2755:X O *D sky130_fd_sc_hd__o2bb2a_2
*CAP
1 *2757:B1 0.000132866
2 *2755:X 0.000132866
3 *2757:B1 *2757:B2 0.000348207
4 *2757:B1 *3322:A 7.83659e-05
5 *2757:B1 *882:52 2.16719e-05
6 *2445:A *2757:B1 6.87574e-05
7 *2757:A2 *2757:B1 0.00022266
8 *2758:B *2757:B1 0.000125731
*RES
1 *2755:X *2757:B1 32.6536 
*END

*D_NET *745 0.00221286
*CONN
*I *2757:B2 I *D sky130_fd_sc_hd__o22a_1
*I *2756:X O *D sky130_fd_sc_hd__and2_1
*CAP
1 *2757:B2 0.000484682
2 *2756:X 0.000484682
3 *2757:B2 *2448:A 5.52302e-05
4 *2757:B2 *2448:B 5.33005e-05
5 *2757:B2 *2672:A 2.54632e-05
6 *2757:B2 *3322:A 0.000393949
7 *2757:B2 *1050:37 0.000103267
8 *2445:A *2757:B2 3.98462e-05
9 *2445:B *2757:B2 0.000103788
10 *2757:A2 *2757:B2 1.98839e-05
11 *2757:B1 *2757:B2 0.000348207
12 *3178:A *2757:B2 9.60939e-05
13 *672:43 *2757:B2 0
14 *739:10 *2757:B2 4.46186e-06
*RES
1 *2756:X *2757:B2 38.5286 
*END

*D_NET *746 0.000340918
*CONN
*I *2759:C1 I *D sky130_fd_sc_hd__a221o_1
*I *2758:X O *D sky130_fd_sc_hd__and4b_1
*CAP
1 *2759:C1 7.28276e-05
2 *2758:X 7.28276e-05
3 *2759:C1 *2751:B2 7.83659e-05
4 *2759:C1 *2759:A1 5.33005e-05
5 *2759:C1 *2759:B2 1.02504e-05
6 *2759:C1 *1024:12 4.98055e-06
7 *116:57 *2759:C1 4.8365e-05
*RES
1 *2758:X *2759:C1 29.1714 
*END

*D_NET *747 0.000805429
*CONN
*I *2760:B1 I *D sky130_fd_sc_hd__a22o_1
*I *2759:X O *D sky130_fd_sc_hd__a221o_1
*CAP
1 *2760:B1 0.000145214
2 *2759:X 0.000145214
3 *2760:B1 *2760:A1 0.000341175
4 *2760:B1 *3327:A 0.000129868
5 *2760:B1 *1024:12 0
6 *3092:D *2760:B1 4.39581e-05
*RES
1 *2759:X *2760:B1 31.975 
*END

*D_NET *748 0.00149042
*CONN
*I *2764:C I *D sky130_fd_sc_hd__or4_4
*I *2761:X O *D sky130_fd_sc_hd__a32o_1
*CAP
1 *2764:C 0.000277578
2 *2761:X 0.000277578
3 *2764:C *2443:A 0.000362822
4 *2764:C *2701:A 8.27184e-06
5 *2764:C *2764:B 0.00051393
6 *2764:C *2764:D 4.59164e-05
7 *2764:C *783:37 3.69047e-06
8 *483:8 *2764:C 6.33771e-07
*RES
1 *2761:X *2764:C 35.0598 
*END

*D_NET *749 0.0014572
*CONN
*I *2764:B I *D sky130_fd_sc_hd__or4_4
*I *2762:X O *D sky130_fd_sc_hd__a31o_1
*CAP
1 *2764:B 0.000346782
2 *2762:X 0.000346782
3 *2764:B *2701:A 1.96967e-05
4 *2764:B *2761:B2 2.89114e-05
5 *2764:B *2764:D 5.28368e-06
6 *2764:B *801:14 0.000172488
7 *2761:A3 *2764:B 5.14195e-06
8 *2761:B1 *2764:B 1.81887e-05
9 *2764:C *2764:B 0.00051393
*RES
1 *2762:X *2764:B 36.3857 
*END

*D_NET *750 0.00304279
*CONN
*I *2764:D I *D sky130_fd_sc_hd__or4_4
*I *2763:Y O *D sky130_fd_sc_hd__a21oi_1
*CAP
1 *2764:D 0.000464595
2 *2763:Y 0.000464595
3 *2764:D *2443:A 0.000439226
4 *2764:D *2666:A0 5.71472e-05
5 *2764:D *801:14 0
6 *2764:D *868:70 2.11419e-05
7 *2764:D *881:31 2.30846e-05
8 *2764:D *889:62 0
9 *2764:D *889:75 0
10 *2761:A2 *2764:D 1.43455e-05
11 *2761:A3 *2764:D 1.2114e-06
12 *2763:A1 *2764:D 0.00101598
13 *2763:A2 *2764:D 1.21859e-05
14 *2763:B1 *2764:D 5.52238e-05
15 *2764:B *2764:D 5.28368e-06
16 *2764:C *2764:D 4.59164e-05
17 *3175:A *2764:D 0.000339453
18 *483:21 *2764:D 4.23086e-05
19 *510:38 *2764:D 4.10989e-05
*RES
1 *2763:Y *2764:D 43.4393 
*END

*D_NET *751 0.00469288
*CONN
*I *2766:A1 I *D sky130_fd_sc_hd__mux2_4
*I *3370:A I *D sky130_fd_sc_hd__buf_1
*I *2765:A_N I *D sky130_fd_sc_hd__and2b_1
*I *2764:X O *D sky130_fd_sc_hd__or4_4
*CAP
1 *2766:A1 0
2 *3370:A 0
3 *2765:A_N 9.32845e-05
4 *2764:X 0.00071283
5 *751:22 0.00023915
6 *751:16 0.000858696
7 *2765:A_N *2766:A0 8.84883e-05
8 *2765:A_N *3227:A 9.41642e-05
9 *751:16 *2766:S 5.33433e-05
10 *751:16 *2767:B 2.88424e-05
11 *751:16 *2783:CLK 0.000143522
12 *751:16 *3104:A 3.26628e-05
13 *751:16 *771:28 0
14 *751:16 *801:14 0.000557191
15 *751:16 *885:115 2.09826e-05
16 *751:16 *889:75 7.57518e-05
17 *751:22 *2766:A0 0.000512033
18 *751:22 *2767:B 5.9483e-05
19 *2697:A *751:16 8.47192e-05
20 *2765:B *2765:A_N 0.000264421
21 *2765:B *751:22 0.000219887
22 *3175:A *751:16 0
23 *510:38 *751:16 0
24 *680:10 *751:16 0.000553423
*RES
1 *2764:X *751:16 39.2286 
2 *751:16 *751:22 10.5714 
3 *751:22 *2765:A_N 12.3179 
4 *751:22 *3370:A 9.3 
5 *751:16 *2766:A1 13.8 
*END

*D_NET *752 0.00461685
*CONN
*I *2766:A0 I *D sky130_fd_sc_hd__mux2_4
*I *2772:B1 I *D sky130_fd_sc_hd__a22o_1
*I *2782:B1 I *D sky130_fd_sc_hd__a22o_1
*I *2778:B1 I *D sky130_fd_sc_hd__a22o_1
*I *2765:X O *D sky130_fd_sc_hd__and2b_1
*CAP
1 *2766:A0 0.000415856
2 *2772:B1 0.000164451
3 *2782:B1 0.000122502
4 *2778:B1 0
5 *2765:X 0
6 *752:19 0.000403399
7 *752:10 0.000352304
8 *752:4 0.000651714
9 *2766:A0 *3227:A 9.41642e-05
10 *2766:A0 *771:28 0
11 *2766:A0 *948:10 2.77289e-05
12 *2766:A0 *955:59 0
13 *2766:A0 *965:10 0.000299424
14 *2772:B1 *2769:A 1.32552e-05
15 *2772:B1 *2772:A2 4.70092e-05
16 *2772:B1 *2772:B2 5.04841e-06
17 *2772:B1 *945:25 5.52238e-05
18 *2782:B1 *2782:A1 2.44318e-05
19 *2782:B1 *2782:A2 0.000186662
20 *2782:B1 *3218:A 1.32552e-05
21 *752:10 *939:23 0.000177227
22 *752:10 *942:12 0.000277726
23 *752:10 *942:59 9.3111e-05
24 *752:10 *948:10 6.05161e-06
25 *752:10 *965:10 0.000163757
26 *752:19 *2772:A2 1.08359e-05
27 *752:19 *939:23 0.000210021
28 *752:19 *942:12 1.02504e-05
29 *752:19 *965:10 1.41029e-05
30 *752:19 *965:19 0.000103525
31 *2765:A_N *2766:A0 8.84883e-05
32 *2765:B *2766:A0 7.32955e-05
33 *3093:D *2766:A0 0
34 *751:22 *2766:A0 0.000512033
*RES
1 *2765:X *752:4 9.3 
2 *752:4 *752:10 11.8036 
3 *752:10 *2778:B1 13.8 
4 *752:10 *752:19 3.46429 
5 *752:19 *2782:B1 16.3893 
6 *752:19 *2772:B1 16.5143 
7 *752:4 *2766:A0 29.1571 
*END

*D_NET *753 0.00726285
*CONN
*I *2774:B I *D sky130_fd_sc_hd__nand2_1
*I *2780:B I *D sky130_fd_sc_hd__xnor2_1
*I *2775:B I *D sky130_fd_sc_hd__or2_1
*I *2767:Y O *D sky130_fd_sc_hd__nand2_1
*CAP
1 *2774:B 0
2 *2780:B 0
3 *2775:B 0.000201994
4 *2767:Y 0.00183718
5 *753:18 0.000452081
6 *753:12 0.00208727
7 *2775:B *2776:B 0
8 *2775:B *2779:B1_N 0
9 *2775:B *2780:A 5.71472e-05
10 *2775:B *938:8 0
11 *753:12 *2402:C 0.000228558
12 *753:12 *2776:A 0
13 *753:12 *2777:A 0
14 *753:12 *2777:B 0
15 *753:12 *870:18 2.6554e-05
16 *753:12 *939:23 0.00061109
17 *753:12 *955:59 0.00105704
18 *753:18 *2774:A 5.7661e-06
19 *753:18 *2775:A 0.000129595
20 *753:18 *2777:B 2.89114e-05
21 *753:18 *2781:B 2.57379e-05
22 *753:18 *759:8 0.000358971
23 *753:18 *942:20 5.94421e-05
24 *3165:A *753:12 4.13595e-05
25 *3305:A *753:12 5.41494e-05
*RES
1 *2767:Y *753:12 44.675 
2 *753:12 *753:18 6.625 
3 *753:18 *2775:B 21.8 
4 *753:18 *2780:B 9.3 
5 *753:12 *2774:B 9.3 
*END

*D_NET *754 0.000977235
*CONN
*I *2773:B1 I *D sky130_fd_sc_hd__a21o_1
*I *2770:A_N I *D sky130_fd_sc_hd__nand2b_1
*I *2768:X O *D sky130_fd_sc_hd__o21a_1
*CAP
1 *2773:B1 0
2 *2770:A_N 8.48463e-05
3 *2768:X 0.000277805
4 *754:12 0.000362651
5 *2770:A_N *2770:B 5.1523e-05
6 *2770:A_N *2773:A1 0.00010096
7 *2770:A_N *2773:A2 1.44193e-05
8 *2770:A_N *755:10 6.28006e-05
9 *754:12 *2771:A 1.02504e-05
10 *754:12 *2771:B 0
11 *3099:A *754:12 1.1979e-05
*RES
1 *2768:X *754:12 22.0143 
2 *754:12 *2770:A_N 12.0813 
3 *754:12 *2773:B1 9.3 
*END

*D_NET *755 0.00117916
*CONN
*I *2773:A2 I *D sky130_fd_sc_hd__a21o_1
*I *2770:B I *D sky130_fd_sc_hd__nand2b_1
*I *2769:X O *D sky130_fd_sc_hd__or3_1
*CAP
1 *2773:A2 8.08098e-06
2 *2770:B 3.93888e-05
3 *2769:X 0.000196424
4 *755:10 0.000243894
5 *2770:B *2771:B 5.6489e-05
6 *755:10 *2771:A 0.000102207
7 *755:10 *2771:B 0.000373712
8 *755:10 *2772:B2 2.27416e-05
9 *755:10 *2773:A1 7.48301e-06
10 *2770:A_N *2770:B 5.1523e-05
11 *2770:A_N *2773:A2 1.44193e-05
12 *2770:A_N *755:10 6.28006e-05
*RES
1 *2769:X *755:10 15.3179 
2 *755:10 *2770:B 10.8045 
3 *755:10 *2773:A2 9.72857 
*END

*D_NET *756 0.00122977
*CONN
*I *2771:B I *D sky130_fd_sc_hd__xnor2_1
*I *2770:Y O *D sky130_fd_sc_hd__nand2b_1
*CAP
1 *2771:B 0.000399782
2 *2770:Y 0.000399782
3 *2768:A2 *2771:B 0
4 *2770:B *2771:B 5.6489e-05
5 *754:12 *2771:B 0
6 *755:10 *2771:B 0.000373712
*RES
1 *2770:Y *2771:B 33.3857 
*END

*D_NET *757 0.000446198
*CONN
*I *2772:B2 I *D sky130_fd_sc_hd__a22o_1
*I *2771:Y O *D sky130_fd_sc_hd__xnor2_1
*CAP
1 *2772:B2 0.000191765
2 *2771:Y 0.000191765
3 *2772:B2 *2769:A 3.4879e-05
4 *2772:B1 *2772:B2 5.04841e-06
5 *755:10 *2772:B2 2.27416e-05
*RES
1 *2771:Y *2772:B2 22.0464 
*END

*D_NET *758 0.000990179
*CONN
*I *2779:A1 I *D sky130_fd_sc_hd__a21bo_1
*I *2777:A I *D sky130_fd_sc_hd__xnor2_1
*I *2773:X O *D sky130_fd_sc_hd__a21o_1
*CAP
1 *2779:A1 5.2122e-05
2 *2777:A 0.000181014
3 *2773:X 8.62575e-05
4 *758:8 0.000319394
5 *2777:A *2775:A 8.33208e-05
6 *2777:A *2777:B 1.9998e-05
7 *2777:A *2779:B1_N 8.8857e-05
8 *2779:A1 *2775:A 4.43256e-05
9 *2779:A1 *2779:A2 3.89847e-05
10 *2779:A1 *2779:B1_N 1.24368e-05
11 *2779:A1 *3218:A 1.39726e-05
12 *758:8 *2773:A1 9.25014e-06
13 *758:8 *2775:A 2.94103e-05
14 *758:8 *2779:B1_N 1.08359e-05
15 *753:12 *2777:A 0
*RES
1 *2773:X *758:8 15.4429 
2 *758:8 *2777:A 17.3179 
3 *758:8 *2779:A1 15.175 
*END

*D_NET *759 0.00224963
*CONN
*I *2779:B1_N I *D sky130_fd_sc_hd__a21bo_1
*I *2776:A I *D sky130_fd_sc_hd__nand2_1
*I *2774:Y O *D sky130_fd_sc_hd__nand2_1
*CAP
1 *2779:B1_N 0.000198677
2 *2776:A 8.20008e-05
3 *2774:Y 0.000233046
4 *759:8 0.000513724
5 *2776:A *2776:B 0.000129868
6 *2776:A *2777:B 7.83587e-05
7 *2779:B1_N *2775:A 0.000186662
8 *2779:B1_N *2776:B 0.000209123
9 *2779:B1_N *2777:B 8.07951e-05
10 *2779:B1_N *2779:A2 1.21258e-05
11 *2779:B1_N *760:6 5.41494e-05
12 *2775:B *2779:B1_N 0
13 *2777:A *2779:B1_N 8.8857e-05
14 *2779:A1 *2779:B1_N 1.24368e-05
15 *753:12 *2776:A 0
16 *753:18 *759:8 0.000358971
17 *758:8 *2779:B1_N 1.08359e-05
*RES
1 *2774:Y *759:8 17.2107 
2 *759:8 *2776:A 15.9786 
3 *759:8 *2779:B1_N 19.3357 
*END

*D_NET *760 0.0015755
*CONN
*I *2779:A2 I *D sky130_fd_sc_hd__a21bo_1
*I *2776:B I *D sky130_fd_sc_hd__nand2_1
*I *2775:X O *D sky130_fd_sc_hd__or2_1
*CAP
1 *2779:A2 5.0812e-05
2 *2776:B 0.00018774
3 *2775:X 8.83687e-05
4 *760:6 0.000326921
5 *2776:B *938:8 0
6 *2776:B *938:14 0
7 *2779:A2 *3218:A 8.36572e-05
8 *760:6 *2775:A 3.47797e-05
9 *760:6 *3218:A 0.000358971
10 *2775:B *2776:B 0
11 *2776:A *2776:B 0.000129868
12 *2779:A1 *2779:A2 3.89847e-05
13 *2779:B1_N *2776:B 0.000209123
14 *2779:B1_N *2779:A2 1.21258e-05
15 *2779:B1_N *760:6 5.41494e-05
*RES
1 *2775:X *760:6 12.7107 
2 *760:6 *2776:B 22.675 
3 *760:6 *2779:A2 10.675 
*END

*D_NET *761 0.000433895
*CONN
*I *2777:B I *D sky130_fd_sc_hd__xnor2_1
*I *2776:Y O *D sky130_fd_sc_hd__nand2_1
*CAP
1 *2777:B 9.84603e-05
2 *2776:Y 9.84603e-05
3 *2777:B *2781:B 2.89114e-05
4 *2776:A *2777:B 7.83587e-05
5 *2777:A *2777:B 1.9998e-05
6 *2779:B1_N *2777:B 8.07951e-05
7 *753:12 *2777:B 0
8 *753:18 *2777:B 2.89114e-05
*RES
1 *2776:Y *2777:B 30.0821 
*END

*D_NET *762 0.000841534
*CONN
*I *2778:B2 I *D sky130_fd_sc_hd__a22o_1
*I *2777:Y O *D sky130_fd_sc_hd__xnor2_1
*CAP
1 *2778:B2 0.000208468
2 *2777:Y 0.000208468
3 *2778:B2 *2775:A 5.71472e-05
4 *2778:B2 *942:20 0.000362145
5 *3096:D *2778:B2 5.30637e-06
*RES
1 *2777:Y *2778:B2 23.6893 
*END

*D_NET *763 0.000200875
*CONN
*I *2781:A I *D sky130_fd_sc_hd__xnor2_1
*I *2779:X O *D sky130_fd_sc_hd__a21bo_1
*CAP
1 *2781:A 6.24843e-05
2 *2779:X 6.24843e-05
3 *2781:A *2775:A 2.89016e-05
4 *2781:A *3218:A 4.70048e-05
*RES
1 *2779:X *2781:A 19.9571 
*END

*D_NET *764 0.000835568
*CONN
*I *2781:B I *D sky130_fd_sc_hd__xnor2_1
*I *2780:Y O *D sky130_fd_sc_hd__xnor2_1
*CAP
1 *2781:B 0.000289225
2 *2780:Y 0.000289225
3 *2781:B *2775:A 0.00020247
4 *2777:B *2781:B 2.89114e-05
5 *753:18 *2781:B 2.57379e-05
*RES
1 *2780:Y *2781:B 31.8321 
*END

*D_NET *765 0.000173208
*CONN
*I *2782:B2 I *D sky130_fd_sc_hd__a22o_1
*I *2781:Y O *D sky130_fd_sc_hd__xnor2_1
*CAP
1 *2782:B2 5.19585e-05
2 *2781:Y 5.19585e-05
3 *2782:B2 *2782:A1 1.21436e-05
4 *2782:B2 *3218:A 5.71472e-05
*RES
1 *2781:Y *2782:B2 19.8679 
*END

*D_NET *766 0.00393388
*CONN
*I *2434:B1 I *D sky130_fd_sc_hd__a211oi_2
*I *2436:A_N I *D sky130_fd_sc_hd__and3b_1
*I *2435:C I *D sky130_fd_sc_hd__and3b_1
*I *2437:C I *D sky130_fd_sc_hd__and3_1
*I *2827:Q O *D sky130_fd_sc_hd__dlxtn_1
*CAP
1 *2434:B1 0
2 *2436:A_N 0.00010071
3 *2435:C 0.000249708
4 *2437:C 1.47801e-05
5 *2827:Q 0.000248459
6 *766:31 0.000448286
7 *766:27 0.000348167
8 *766:10 0.000513539
9 *2435:C *2435:A_N 9.60939e-05
10 *2435:C *970:12 0.000128154
11 *2435:C *982:8 6.25848e-05
12 *2436:A_N *970:12 0.00019187
13 *2436:A_N *1024:12 9.24299e-05
14 *2437:C *2437:B 3.94968e-06
15 *766:10 *2437:B 7.61504e-05
16 *766:10 *3328:A 0.000138816
17 *766:10 *935:12 0.000362818
18 *766:27 *2437:B 1.0945e-05
19 *766:27 *767:27 0.000210579
20 *766:27 *767:42 0.00015134
21 *766:27 *935:12 0.000100474
22 *766:27 *989:18 0.000111787
23 *766:31 *2434:C1 7.32173e-05
24 *2437:A *766:27 0
25 *478:36 *766:31 1.39841e-05
26 *507:24 *2435:C 4.71257e-05
27 *507:24 *2436:A_N 7.80714e-06
28 *507:24 *766:27 0.000130103
*RES
1 *2827:Q *766:10 19.8357 
2 *766:10 *2437:C 13.9964 
3 *766:10 *766:27 11.9643 
4 *766:27 *766:31 6.26786 
5 *766:31 *2435:C 18.0321 
6 *766:31 *2436:A_N 16.8893 
7 *766:27 *2434:B1 9.3 
*END

*D_NET *767 0.00311774
*CONN
*I *2436:C I *D sky130_fd_sc_hd__and3b_1
*I *2434:C1 I *D sky130_fd_sc_hd__a211oi_2
*I *2435:A_N I *D sky130_fd_sc_hd__and3b_1
*I *2437:B I *D sky130_fd_sc_hd__and3_1
*I *2828:Q O *D sky130_fd_sc_hd__dlxtn_1
*CAP
1 *2436:C 8.60021e-05
2 *2434:C1 8.01613e-05
3 *2435:A_N 0.000124647
4 *2437:B 0.000120639
5 *2828:Q 5.2299e-05
6 *767:42 0.000294529
7 *767:27 0.000412181
8 *767:8 0.000332106
9 *2435:A_N *982:8 0.000114577
10 *2436:C *989:18 9.74237e-05
11 *2436:C *1024:12 1.09232e-05
12 *2437:B *3328:A 1.02504e-05
13 *2437:B *3345:A 3.91289e-05
14 *767:27 *3345:A 4.66203e-05
15 *767:42 *982:8 3.97677e-05
16 *767:42 *989:18 0.000107503
17 PADDR[2] *2436:C 3.75452e-05
18 PSEL2 *2437:B 4.38243e-05
19 PSEL2 *767:27 9.22948e-05
20 *2435:C *2435:A_N 9.60939e-05
21 *2437:C *2437:B 3.94968e-06
22 *478:36 *2434:C1 0.00018077
23 *507:24 *2436:C 4.33438e-05
24 *507:24 *767:27 0.000103981
25 *507:24 *767:42 2.49484e-05
26 *766:10 *2437:B 7.61504e-05
27 *766:27 *2437:B 1.0945e-05
28 *766:27 *767:27 0.000210579
29 *766:27 *767:42 0.00015134
30 *766:31 *2434:C1 7.32173e-05
*RES
1 *2828:Q *767:8 14.3357 
2 *767:8 *2437:B 16.6393 
3 *767:8 *767:27 9.17857 
4 *767:27 *2435:A_N 11.9071 
5 *767:27 *767:42 8 
6 *767:42 *2434:C1 15.9964 
7 *767:42 *2436:C 16.3536 
*END

*D_NET *768 0.0010182
*CONN
*I *2748:B I *D sky130_fd_sc_hd__and2b_1
*I *2825:Q O *D sky130_fd_sc_hd__dlxtn_1
*CAP
1 *2748:B 0.000136492
2 *2825:Q 0.000136492
3 *2748:B *2748:A_N 1.58163e-05
4 *2748:B *885:26 0.000362001
5 *2516:A *2748:B 0.000367396
*RES
1 *2825:Q *2748:B 32.8143 
*END

*D_NET *769 0.000525401
*CONN
*I *2748:A_N I *D sky130_fd_sc_hd__and2b_1
*I *2826:Q O *D sky130_fd_sc_hd__dlxtn_1
*CAP
1 *2748:A_N 0.000200271
2 *2826:Q 0.000200271
3 *2748:A_N *1056:26 5.7836e-06
4 *2516:A *2748:A_N 0.00010326
5 *2748:B *2748:A_N 1.58163e-05
*RES
1 *2826:Q *2748:A_N 30.7071 
*END

*D_NET *770 0.00282626
*CONN
*I *3101:A I *D sky130_fd_sc_hd__clkbuf_16
*I *3100:A I *D sky130_fd_sc_hd__clkbuf_16
*I *3099:X O *D sky130_fd_sc_hd__clkbuf_16
*CAP
1 *3101:A 0.00019757
2 *3100:A 0.000212154
3 *3099:X 5.30024e-05
4 *770:10 0.000462726
5 *3100:A *2762:A1 0.000706531
6 *3100:A *891:6 0.000269428
7 *3101:A *891:6 8.46829e-05
8 *770:10 *2378:A 5.01117e-05
9 *770:10 *891:72 3.92757e-05
10 *2680:A *3101:A 5.52238e-05
11 *2680:C *3101:A 4.48176e-05
12 *2685:A *3100:A 0.000331204
13 *2685:A *3101:A 5.91336e-05
14 *3183:A *3101:A 0.000253533
15 *501:8 *770:10 6.8646e-06
*RES
1 *3099:X *770:10 19.6393 
2 *770:10 *3100:A 18.4607 
3 *770:10 *3101:A 14.0857 
*END

*D_NET *771 0.00959761
*CONN
*I *3102:A I *D sky130_fd_sc_hd__clkbuf_4
*I *3087:CLK I *D sky130_fd_sc_hd__dfrtp_1
*I *3086:CLK I *D sky130_fd_sc_hd__dfrtp_1
*I *3089:CLK I *D sky130_fd_sc_hd__dfrtp_1
*I *3088:CLK I *D sky130_fd_sc_hd__dfrtp_1
*I *3094:CLK I *D sky130_fd_sc_hd__dfrtp_1
*I *3093:CLK I *D sky130_fd_sc_hd__dfrtp_1
*I *3095:CLK I *D sky130_fd_sc_hd__dfrtp_1
*I *3096:CLK I *D sky130_fd_sc_hd__dfrtp_1
*I *2783:CLK I *D sky130_fd_sc_hd__dfrtp_1
*I *3100:X O *D sky130_fd_sc_hd__clkbuf_16
*CAP
1 *3102:A 0
2 *3087:CLK 0.000367339
3 *3086:CLK 0
4 *3089:CLK 0
5 *3088:CLK 6.17105e-05
6 *3094:CLK 0
7 *3093:CLK 0
8 *3095:CLK 0
9 *3096:CLK 0
10 *2783:CLK 0.000365414
11 *3100:X 0.000169085
12 *771:89 0.000506859
13 *771:78 0.00026046
14 *771:67 0.000492048
15 *771:28 0.000455911
16 *771:22 0.00101907
17 *771:14 0.00109488
18 *771:12 0.000281015
19 *771:10 0.00144539
20 *771:6 0.00119038
21 *2783:CLK *2766:S 0.000204228
22 *3087:CLK *3098:A 0.000136039
23 *771:10 *783:26 9.18348e-05
24 *771:12 *972:10 0
25 *771:14 *2769:B 0
26 *771:14 *945:10 0
27 *771:14 *945:14 0
28 *771:22 *2772:A2 0.000119767
29 *771:22 *3095:RESET_B 8.79458e-05
30 *771:22 *3218:A 2.51343e-06
31 *771:22 *3222:A 7.07155e-06
32 *771:22 *945:14 0
33 *771:22 *945:25 2.64165e-05
34 *771:28 *2766:S 0.000106264
35 *771:67 *972:10 0
36 *2766:A0 *771:28 0
37 *3086:D *3087:CLK 8.86129e-06
38 *3089:D *771:78 4.79842e-05
39 *3093:D *2783:CLK 0.000583616
40 *3093:D *771:28 0.000120366
41 *3094:D *771:14 4.25716e-05
42 *383:8 *3087:CLK 9.71197e-05
43 *383:10 *3087:CLK 6.19181e-05
44 *383:10 *771:12 0
45 *383:10 *771:14 0
46 *383:10 *771:22 0
47 *383:10 *771:67 0
48 *383:10 *771:78 0
49 *383:10 *771:89 0
50 *751:16 *2783:CLK 0.000143522
51 *751:16 *771:28 0
*RES
1 *3100:X *771:6 11.4786 
2 *771:6 *771:10 19.8214 
3 *771:10 *771:12 1.94643 
4 *771:12 *771:14 2.55357 
5 *771:14 *771:22 15.9286 
6 *771:22 *771:28 11.8571 
7 *771:28 *2783:CLK 19.8536 
8 *771:28 *3096:CLK 9.3 
9 *771:22 *3095:CLK 9.3 
10 *771:14 *3093:CLK 13.8 
11 *771:12 *3094:CLK 13.8 
12 *771:10 *771:67 5.58929 
13 *771:67 *3088:CLK 14.7464 
14 *771:67 *771:78 2.55357 
15 *771:78 *3089:CLK 13.8 
16 *771:78 *771:89 7.05357 
17 *771:89 *3086:CLK 9.3 
18 *771:89 *3087:CLK 25.4429 
19 *771:6 *3102:A 9.3 
*END

*D_NET *772 0.0157205
*CONN
*I *2789:CLK I *D sky130_fd_sc_hd__dfrtp_1
*I *2787:CLK I *D sky130_fd_sc_hd__dfrtp_1
*I *2788:CLK I *D sky130_fd_sc_hd__dfrtp_1
*I *2790:CLK I *D sky130_fd_sc_hd__dfrtp_1
*I *3090:CLK I *D sky130_fd_sc_hd__dfrtp_1
*I *3092:CLK I *D sky130_fd_sc_hd__dfrtp_1
*I *3091:CLK I *D sky130_fd_sc_hd__dfrtp_1
*I *2784:CLK I *D sky130_fd_sc_hd__dfrtp_1
*I *2785:CLK I *D sky130_fd_sc_hd__dfrtp_1
*I *2786:CLK I *D sky130_fd_sc_hd__dfrtp_1
*I *3101:X O *D sky130_fd_sc_hd__clkbuf_16
*CAP
1 *2789:CLK 9.28758e-05
2 *2787:CLK 0.000811567
3 *2788:CLK 0
4 *2790:CLK 0.000261859
5 *3090:CLK 0.000224956
6 *3092:CLK 0
7 *3091:CLK 2.23854e-05
8 *2784:CLK 0.00030477
9 *2785:CLK 0
10 *2786:CLK 0.000272508
11 *3101:X 0
12 *772:96 0.000978918
13 *772:85 0.00027026
14 *772:74 0.000552598
15 *772:56 0.000328747
16 *772:43 0.000500183
17 *772:39 0.00065932
18 *772:12 0.000670018
19 *772:10 0.00122865
20 *772:6 0.000716727
21 *2784:CLK *2447:A_N 3.18676e-05
22 *2786:CLK *2784:RESET_B 0.000101169
23 *2786:CLK *3058:D 4.46186e-06
24 *2787:CLK *2668:B 9.60875e-05
25 *2787:CLK *2705:A1 2.55568e-05
26 *2787:CLK *2708:A 4.08637e-05
27 *2787:CLK *2721:A 2.55587e-05
28 *2787:CLK *786:10 0.000336289
29 *2787:CLK *786:32 0.000250068
30 *2787:CLK *786:39 8.57023e-05
31 *2789:CLK *2668:B 8.46829e-05
32 *2789:CLK *2708:A 1.64329e-05
33 *2790:CLK *2790:RESET_B 8.9403e-05
34 *2790:CLK *996:16 9.6087e-05
35 *2790:CLK *1047:82 7.94787e-05
36 *3090:CLK *1050:37 0.000565302
37 *772:10 *3103:A 0.000307286
38 *772:10 *3362:A 1.08032e-05
39 *772:10 *774:16 7.17168e-05
40 *772:10 *950:94 5.80706e-06
41 *772:10 *954:8 4.49722e-05
42 *772:12 *2784:RESET_B 0.000484418
43 *772:12 *956:26 0.000141985
44 *772:39 *950:94 2.84398e-05
45 *772:43 *2669:A 0.000142856
46 *772:43 *891:80 2.07491e-05
47 *772:43 *891:110 3.14078e-05
48 *772:56 *3091:RESET_B 9.91086e-05
49 *772:56 *1050:37 0.000148189
50 *772:85 *2693:A 1.77672e-05
51 *772:85 *786:47 0.000165197
52 *772:85 *787:38 0.000110377
53 *772:96 *786:47 0.000159418
54 *772:96 *787:36 1.08359e-05
55 *772:96 *787:38 7.24753e-05
56 *2694:C *2790:CLK 5.06983e-05
57 *2694:C *772:10 5.58577e-05
58 *2694:C *772:39 8.96729e-05
59 *2694:C *772:74 2.74584e-05
60 *2717:A1 *772:43 0.000486622
61 *2720:A1 *772:10 0
62 *2720:A1 *772:39 0
63 *2720:A1 *772:43 4.88637e-05
64 *2723:A2 *772:43 1.24368e-05
65 *2784:D *2784:CLK 0.000130741
66 *2784:D *772:10 0.000133522
67 *2786:D *2786:CLK 0
68 *3090:D *3090:CLK 0
69 *3091:D *772:56 7.43578e-06
70 *3251:A *3090:CLK 0.000254261
71 *474:25 *772:10 0.000647719
72 *474:45 *772:10 0.000101545
73 *474:45 *772:12 0.000445577
74 *485:12 *2786:CLK 0
75 *505:38 *3090:CLK 0.00010964
76 *505:38 *772:56 2.72545e-05
77 *674:18 *2787:CLK 0.000137983
78 *674:18 *2790:CLK 7.77652e-05
79 *674:18 *772:39 1.08359e-05
80 *674:18 *772:74 8.68569e-05
81 *674:18 *772:85 7.15404e-05
82 *674:30 *772:39 3.17067e-05
83 *674:30 *772:43 5.08739e-05
84 *676:10 *772:74 0
85 *676:10 *772:85 0
86 *701:34 *772:43 0.000312222
87 *701:43 *772:43 0.000217141
88 *739:16 *772:43 5.52302e-05
89 *739:16 *772:56 0.0001399
*RES
1 *3101:X *772:6 13.8 
2 *772:6 *772:10 18.2857 
3 *772:10 *772:12 11.625 
4 *772:12 *2786:CLK 23.4429 
5 *772:12 *2785:CLK 9.3 
6 *772:10 *2784:CLK 15.175 
7 *772:6 *772:39 3.76786 
8 *772:39 *772:43 14.8929 
9 *772:43 *3091:CLK 9.72857 
10 *772:43 *772:56 7.80357 
11 *772:56 *3092:CLK 13.8 
12 *772:56 *3090:CLK 21.2107 
13 *772:39 *772:74 2.25 
14 *772:74 *2790:CLK 19.675 
15 *772:74 *772:85 4.67857 
16 *772:85 *2788:CLK 13.8 
17 *772:85 *772:96 6.75 
18 *772:96 *2787:CLK 22.2107 
19 *772:96 *2789:CLK 11.0857 
*END

*D_NET *773 0.00595113
*CONN
*I *3233:A I *D sky130_fd_sc_hd__buf_1
*I *3232:A I *D sky130_fd_sc_hd__clkbuf_2
*I *2783:Q O *D sky130_fd_sc_hd__dfrtp_1
*CAP
1 *3233:A 0.000517395
2 *3232:A 0
3 *2783:Q 0.000644581
4 *773:20 0.00116198
5 *3233:A *2378:A 0.000237688
6 *3233:A *2428:B 9.21418e-06
7 *3233:A *2702:A1 5.33005e-05
8 *3233:A *2702:A3 1.21258e-05
9 *3233:A *2702:B2 5.33005e-05
10 *3233:A *891:72 0.000682951
11 *3233:A *969:63 0.000132249
12 *773:20 *2383:B 2.53003e-05
13 *773:20 *2428:A 5.71472e-05
14 *773:20 *2428:B 0.000424133
15 *773:20 *2699:A1 4.17014e-05
16 *773:20 *2783:RESET_B 7.52982e-05
17 *2681:C *3233:A 0.000139907
18 *2702:A2 *3233:A 9.40271e-05
19 *2785:D *773:20 0.000328411
20 *485:12 *773:20 0.000123673
21 *501:8 *3233:A 0
22 *502:10 *773:20 9.90431e-05
23 *502:42 *773:20 0.00014285
24 *508:10 *773:20 0.000208839
25 *508:46 *773:20 7.40526e-05
26 *510:32 *773:20 0.000459692
27 *672:53 *3233:A 0.000119125
28 *676:16 *3233:A 7.43578e-06
29 *691:20 *773:20 2.57157e-05
*RES
1 *2783:Q *773:20 41.1571 
2 *773:20 *3232:A 13.8 
3 *773:20 *3233:A 27.0857 
*END

*D_NET *774 0.00583033
*CONN
*I *2387:C_N I *D sky130_fd_sc_hd__or3b_1
*I *3231:A I *D sky130_fd_sc_hd__buf_6
*I *3369:A I *D sky130_fd_sc_hd__dlymetal6s2s_1
*I *3362:A I *D sky130_fd_sc_hd__dlygate4sd1_1
*I *3367:A I *D sky130_fd_sc_hd__dlygate4sd1_1
*I *2784:Q O *D sky130_fd_sc_hd__dfrtp_1
*CAP
1 *2387:C_N 0.000125997
2 *3231:A 0
3 *3369:A 3.93254e-05
4 *3362:A 0.000196115
5 *3367:A 1.69531e-05
6 *2784:Q 0.000272162
7 *774:59 0.000261896
8 *774:42 0.000224959
9 *774:16 0.000368814
10 *774:12 0.000477642
11 *2387:C_N *2387:A 9.87617e-05
12 *2387:C_N *2430:B 6.26276e-05
13 *2387:C_N *2441:B 0.000135028
14 *2387:C_N *969:12 2.59355e-05
15 *3362:A *2382:B 2.20608e-05
16 *3362:A *3103:A 0.000128086
17 *3362:A *954:38 0.000142856
18 *3367:A *3366:A 5.33005e-05
19 *3367:A *953:65 5.33005e-05
20 *3369:A *3360:A 5.922e-05
21 *3369:A *3368:A 1.38323e-05
22 *3369:A *951:59 2.286e-05
23 *774:12 *2449:C 0.000135028
24 *774:12 *2450:B 0.000123288
25 *774:12 *2450:D 0.000348807
26 *774:12 *950:35 6.74474e-05
27 *774:12 *950:46 4.49293e-05
28 *774:12 *966:16 0.000150189
29 *774:16 *2382:B 0.000116202
30 *774:16 *3103:A 0.000171375
31 *774:42 *3360:A 1.69961e-05
32 *774:42 *966:16 8.27532e-05
33 *774:59 *2447:A_N 0.000165904
34 *774:59 *951:59 0.000194333
35 *2671:A3 *774:59 8.64475e-05
36 *2694:C *774:12 3.25078e-05
37 *2695:B *3362:A 3.27456e-05
38 *2695:D_N *2387:C_N 0.000108535
39 *2702:A2 *3362:A 0.000142856
40 *2784:D *774:16 9.80415e-05
41 *503:62 *3362:A 0
42 *675:12 *774:59 8.6836e-05
43 *696:20 *774:12 0.000301438
44 *696:20 *774:42 0.000219711
45 *696:20 *774:59 0.000219711
46 *772:10 *3362:A 1.08032e-05
47 *772:10 *774:16 7.17168e-05
*RES
1 *2784:Q *774:12 25.9786 
2 *774:12 *774:16 8.875 
3 *774:16 *3367:A 14.3357 
4 *774:16 *3362:A 18.3714 
5 *774:12 *774:42 2.17857 
6 *774:42 *3369:A 10.675 
7 *774:42 *774:59 13.4286 
8 *774:59 *3231:A 9.3 
9 *774:59 *2387:C_N 12.7107 
*END

*D_NET *775 0.00126995
*CONN
*I *2664:D I *D sky130_fd_sc_hd__and4bb_1
*I *3230:A I *D sky130_fd_sc_hd__buf_6
*I *2785:Q O *D sky130_fd_sc_hd__dfrtp_1
*CAP
1 *2664:D 0.000176274
2 *3230:A 1.16062e-05
3 *2785:Q 8.17672e-05
4 *775:8 0.000269647
5 *2664:D *2449:A_N 1.59782e-05
6 *2664:D *2449:B 7.39312e-05
7 *2664:D *2694:A 0.000334817
8 *2664:D *956:26 0
9 *2664:D *1048:10 8.6229e-06
10 *3230:A *2694:A 5.52302e-05
11 *3230:A *951:38 5.52302e-05
12 *775:8 *2450:D 2.28335e-05
13 *474:45 *2664:D 6.57499e-06
14 *474:45 *775:8 7.20343e-05
15 *510:12 *2664:D 5.01138e-05
16 *510:12 *775:8 3.52899e-05
*RES
1 *2785:Q *775:8 15.7464 
2 *775:8 *3230:A 14.3357 
3 *775:8 *2664:D 18.4786 
*END

*D_NET *776 0.00156474
*CONN
*I *3359:A I *D sky130_fd_sc_hd__dlygate4sd1_1
*I *3229:A I *D sky130_fd_sc_hd__buf_6
*I *2786:Q O *D sky130_fd_sc_hd__dfrtp_1
*CAP
1 *3359:A 0.000148469
2 *3229:A 1.99379e-05
3 *2786:Q 0.000210311
4 *776:8 0.000378718
5 *3229:A *950:10 5.33334e-05
6 *3229:A *951:6 9.90367e-05
7 *3359:A *2648:A0 0
8 *3359:A *956:26 0.000166352
9 *776:8 *2450:A_N 6.66939e-05
10 *776:8 *2648:A0 0
11 *776:8 *956:26 0.000145399
12 *474:45 *3359:A 0.000184745
13 *696:20 *3359:A 9.17477e-05
*RES
1 *2786:Q *776:8 18.175 
2 *776:8 *3229:A 14.7464 
3 *776:8 *3359:A 17.8179 
*END

*D_NET *777 0.000190409
*CONN
*I *3228:A I *D sky130_fd_sc_hd__clkbuf_2
*I *3093:Q O *D sky130_fd_sc_hd__dfrtp_1
*CAP
1 *3228:A 7.5661e-05
2 *3093:Q 7.5661e-05
3 *3228:A *885:115 3.30352e-05
4 *3093:D *3228:A 6.05161e-06
*RES
1 *3093:Q *3228:A 19.975 
*END

*D_NET *778 0.00164501
*CONN
*I *3225:A I *D sky130_fd_sc_hd__buf_1
*I *3094:Q O *D sky130_fd_sc_hd__dfrtp_1
*CAP
1 *3225:A 0.000765471
2 *3094:Q 0.000765471
3 *3225:A *2768:B1 2.34059e-05
4 *3099:A *3225:A 9.06662e-05
*RES
1 *3094:Q *3225:A 27.975 
*END

*D_NET *779 0.0010188
*CONN
*I *3222:A I *D sky130_fd_sc_hd__buf_1
*I *3095:Q O *D sky130_fd_sc_hd__dfrtp_1
*CAP
1 *3222:A 0.000190699
2 *3095:Q 0.000190699
3 *3222:A *945:25 0.000315165
4 *383:10 *3222:A 0.000315165
5 *771:22 *3222:A 7.07155e-06
*RES
1 *3095:Q *3222:A 32.6179 
*END

*D_NET *780 0.00361936
*CONN
*I *3219:A I *D sky130_fd_sc_hd__clkbuf_2
*I *3218:A I *D sky130_fd_sc_hd__clkbuf_2
*I *3096:Q O *D sky130_fd_sc_hd__dfrtp_1
*CAP
1 *3219:A 1.71129e-05
2 *3218:A 0.00113409
3 *3096:Q 0.000117234
4 *780:10 0.00126844
5 *3218:A *2775:A 2.88018e-06
6 *3218:A *2782:A1 0.0001479
7 *3218:A *2782:A2 2.14658e-05
8 *3218:A *939:6 8.36572e-05
9 *3218:A *965:19 1.94945e-05
10 *3219:A *2772:A2 9.25014e-06
11 *3219:A *945:25 1.25579e-05
12 *3219:A *965:19 3.42764e-05
13 *780:10 *945:25 0.0001354
14 *780:10 *965:19 3.90796e-05
15 *2779:A1 *3218:A 1.39726e-05
16 *2779:A2 *3218:A 8.36572e-05
17 *2781:A *3218:A 4.70048e-05
18 *2782:B1 *3218:A 1.32552e-05
19 *2782:B2 *3218:A 5.71472e-05
20 *760:6 *3218:A 0.000358971
21 *771:22 *3218:A 2.51343e-06
*RES
1 *3096:Q *780:10 16.5411 
2 *780:10 *3218:A 29.7554 
3 *780:10 *3219:A 14.3804 
*END

*D_NET *781 0.00272784
*CONN
*I *2443:A I *D sky130_fd_sc_hd__and2_1
*I *2829:Q O *D sky130_fd_sc_hd__dlxtn_1
*CAP
1 *2443:A 0.000600514
2 *2829:Q 0.000600514
3 *2443:A *2390:B 3.92757e-05
4 *2443:A *2731:A1 0.000113151
5 *2443:A *783:37 0.000157986
6 *2443:A *801:14 0
7 *2443:A *804:10 1.58163e-05
8 *2731:A2 *2443:A 0
9 *2733:A1 *2443:A 0
10 *2736:B1 *2443:A 0
11 *2742:A2 *2443:A 4.24671e-05
12 *2742:B1 *2443:A 0.000100831
13 *2764:C *2443:A 0.000362822
14 *2764:D *2443:A 0.000439226
15 *482:12 *2443:A 0.000145753
16 *483:21 *2443:A 1.00375e-05
17 *722:10 *2443:A 6.51281e-05
18 *722:75 *2443:A 3.4323e-05
*RES
1 *2829:Q *2443:A 43.7964 
*END

*D_NET *782 0.00715793
*CONN
*I *2729:A1 I *D sky130_fd_sc_hd__a21bo_1
*I *2730:B2 I *D sky130_fd_sc_hd__o22a_1
*I *2390:A I *D sky130_fd_sc_hd__nor2_1
*I *2391:A I *D sky130_fd_sc_hd__or3_1
*I *2732:A0 I *D sky130_fd_sc_hd__mux2_1
*I *2392:A I *D sky130_fd_sc_hd__nor4_1
*I *3086:Q O *D sky130_fd_sc_hd__dfrtp_1
*CAP
1 *2729:A1 0
2 *2730:B2 4.90058e-05
3 *2390:A 8.95458e-05
4 *2391:A 0.000232588
5 *2732:A0 0
6 *2392:A 0.000261458
7 *3086:Q 5.09379e-05
8 *782:53 0.000380924
9 *782:36 0.000516294
10 *782:32 0.000153601
11 *782:25 0.000222392
12 *782:6 0.00042252
13 *2390:A *2390:B 6.42242e-05
14 *2390:A *3347:A 1.59782e-05
15 *2391:A *2391:C 0.000366445
16 *2391:A *801:25 0
17 *2391:A *804:14 0.000194833
18 *2392:A *3104:A 5.52238e-05
19 *2392:A *783:12 0.000604196
20 *2392:A *785:14 0.000340781
21 *2392:A *972:36 5.71472e-05
22 *782:6 *3086:RESET_B 9.90367e-05
23 *782:36 *804:14 0.000142797
24 *782:53 *2742:A1 0.000267377
25 *2729:A2 *782:32 5.33005e-05
26 *2730:B1 *782:53 0.000139907
27 *2731:B1 *782:53 5.52238e-05
28 *2732:A1 *782:25 3.57366e-05
29 *2732:A1 *782:32 7.80417e-05
30 *2732:S *782:32 9.90367e-05
31 *2741:A2 *782:53 0.000136951
32 *2741:B1 *2730:B2 2.14658e-05
33 *2742:A2 *2391:A 0.000312215
34 *2742:B1 *782:53 0.000224583
35 *2743:A1 *782:53 0.000224583
36 *2743:A2 *2391:A 3.34295e-05
37 *2743:A2 *782:36 0.00015134
38 *2743:A2 *782:53 0.000181796
39 *3086:D *782:6 0.000273269
40 *3086:D *782:25 1.33343e-05
41 *380:10 *2392:A 0
42 *461:22 *2392:A 0
43 *461:22 *782:6 6.4443e-05
44 *461:22 *782:25 5.72899e-05
45 *461:22 *782:32 0.000268396
46 *718:19 *2391:A 1.56e-05
47 *722:14 *782:53 1.5424e-05
48 *722:18 *782:53 3.68997e-05
49 *737:26 *2390:A 7.83587e-05
*RES
1 *3086:Q *782:6 11.8893 
2 *782:6 *2392:A 26.9786 
3 *782:6 *782:25 2.5 
4 *782:25 *2732:A0 9.3 
5 *782:25 *782:32 3.41071 
6 *782:32 *782:36 6.44643 
7 *782:36 *2391:A 20.6036 
8 *782:36 *782:53 12.0179 
9 *782:53 *2390:A 20.3714 
10 *782:53 *2730:B2 10.2643 
11 *782:32 *2729:A1 9.3 
*END

*D_NET *783 0.00672411
*CONN
*I *2737:A1 I *D sky130_fd_sc_hd__a22o_1
*I *2392:B I *D sky130_fd_sc_hd__nor4_1
*I *2390:B I *D sky130_fd_sc_hd__nor2_1
*I *2391:B I *D sky130_fd_sc_hd__or3_1
*I *2677:A1 I *D sky130_fd_sc_hd__o31a_1
*I *3087:Q O *D sky130_fd_sc_hd__dfrtp_1
*CAP
1 *2737:A1 0.000196041
2 *2392:B 0
3 *2390:B 0.00041164
4 *2391:B 0
5 *2677:A1 0
6 *3087:Q 0
7 *783:37 0.000712088
8 *783:26 0.000689288
9 *783:12 0.000968778
10 *783:4 0.000775979
11 *2390:B *2726:A 9.25014e-06
12 *783:12 *2725:B 0
13 *783:12 *3086:RESET_B 0
14 *783:26 *2725:B 1.02504e-05
15 *783:26 *2829:D 3.69697e-05
16 *783:26 *3104:A 5.33005e-05
17 *783:26 *784:14 5.41794e-05
18 *783:26 *972:49 3.34783e-05
19 *783:37 *3104:A 5.82076e-05
20 *783:37 *801:14 0
21 *2390:A *2390:B 6.42242e-05
22 *2392:A *783:12 0.000604196
23 *2443:A *2390:B 3.92757e-05
24 *2443:A *783:37 0.000157986
25 *2731:B1 *2390:B 0.00012401
26 *2733:A1 *783:37 3.06406e-05
27 *2737:B1 *2737:A1 3.08382e-06
28 *2737:B2 *2737:A1 6.05161e-06
29 *2742:A2 *2390:B 6.91157e-05
30 *2742:A2 *783:37 9.25014e-06
31 *2747:A2 *783:12 0.000179656
32 *2764:A *783:26 3.06406e-05
33 *2764:A *783:37 0.000356035
34 *2764:C *783:37 3.69047e-06
35 *3087:D *2737:A1 6.46382e-05
36 *3087:D *783:12 0.000102207
37 *380:10 *783:12 0
38 *380:10 *783:26 0
39 *483:8 *783:26 2.59355e-05
40 *483:8 *783:37 0.000285619
41 *718:47 *2390:B 7.6644e-05
42 *720:10 *2390:B 1.721e-05
43 *737:26 *2390:B 0.000372716
44 *771:10 *783:26 9.18348e-05
*RES
1 *3087:Q *783:4 9.3 
2 *783:4 *783:12 16.6429 
3 *783:12 *783:26 20.0179 
4 *783:26 *2677:A1 9.3 
5 *783:26 *783:37 12.7143 
6 *783:37 *2391:B 13.8 
7 *783:37 *2390:B 30.4071 
8 *783:12 *2392:B 13.8 
9 *783:4 *2737:A1 12.5321 
*END

*D_NET *784 0.00372985
*CONN
*I *3240:A I *D sky130_fd_sc_hd__dlygate4sd3_1
*I *2391:C I *D sky130_fd_sc_hd__or3_1
*I *2677:A2 I *D sky130_fd_sc_hd__o31a_1
*I *2392:C I *D sky130_fd_sc_hd__nor4_1
*I *3088:Q O *D sky130_fd_sc_hd__dfrtp_1
*CAP
1 *3240:A 6.82236e-05
2 *2391:C 0.000142952
3 *2677:A2 0
4 *2392:C 9.68706e-05
5 *3088:Q 0.000421259
6 *784:32 0.000273575
7 *784:14 0.000237653
8 *784:8 0.000624442
9 *2392:C *3104:A 0.000266369
10 *2392:C *972:36 0.000157095
11 *3240:A *2725:B 2.39876e-05
12 *3240:A *804:14 6.8646e-06
13 *784:14 *2725:B 5.51406e-05
14 *784:14 *3104:A 5.33005e-05
15 *784:14 *804:10 0
16 *784:32 *2725:B 6.37408e-06
17 *784:32 *804:10 0
18 *784:32 *804:14 1.19309e-05
19 *2391:A *2391:C 0.000366445
20 *2733:A1 *2391:C 0.000166407
21 *2733:A2 *2391:C 4.69993e-05
22 *2742:A2 *2391:C 6.13217e-05
23 *2764:A *784:14 1.52978e-05
24 *3089:D *784:8 1.72752e-05
25 *461:22 *784:8 5.30637e-06
26 *718:19 *2391:C 2.89016e-05
27 *722:26 *2391:C 5.52302e-05
28 *722:26 *3240:A 0.00014576
29 *722:26 *784:8 7.48301e-06
30 *737:26 *3240:A 0.000114759
31 *737:26 *784:8 0.00014183
32 *737:26 *784:32 5.66157e-05
33 *783:26 *784:14 5.41794e-05
*RES
1 *3088:Q *784:8 18.8536 
2 *784:8 *784:14 7.28571 
3 *784:14 *2392:C 12.4429 
4 *784:14 *2677:A2 9.3 
5 *784:8 *784:32 1.03571 
6 *784:32 *2391:C 19.2821 
7 *784:32 *3240:A 16.05 
*END

*D_NET *785 0.00172397
*CONN
*I *3237:A I *D sky130_fd_sc_hd__dlygate4sd3_1
*I *2677:A3 I *D sky130_fd_sc_hd__o31a_1
*I *2392:D I *D sky130_fd_sc_hd__nor4_1
*I *3089:Q O *D sky130_fd_sc_hd__dfrtp_1
*CAP
1 *3237:A 0
2 *2677:A3 4.83366e-05
3 *2392:D 0
4 *3089:Q 0.000143326
5 *785:14 0.000279763
6 *785:6 0.000374753
7 *2677:A3 *3104:A 9.39045e-05
8 *785:14 *3104:A 0.000182694
9 *2392:A *785:14 0.000340781
10 *380:10 *785:14 0
11 *461:22 *785:14 6.04162e-05
12 *483:8 *2677:A3 0.00014285
13 *483:8 *785:14 5.71472e-05
*RES
1 *3089:Q *785:6 11.4786 
2 *785:6 *785:14 15.1429 
3 *785:14 *2392:D 9.3 
4 *785:14 *2677:A3 11.0857 
5 *785:6 *3237:A 9.3 
*END

*D_NET *786 0.00671642
*CONN
*I *2708:A I *D sky130_fd_sc_hd__nand2_1
*I *2667:A I *D sky130_fd_sc_hd__or2_1
*I *2693:D_N I *D sky130_fd_sc_hd__or4b_1
*I *2670:A I *D sky130_fd_sc_hd__or4_1
*I *2668:A I *D sky130_fd_sc_hd__or3_1
*I *2706:A0 I *D sky130_fd_sc_hd__mux2_1
*I *2704:B2 I *D sky130_fd_sc_hd__o2bb2a_1
*I *2787:Q O *D sky130_fd_sc_hd__dfrtp_1
*CAP
1 *2708:A 4.64893e-05
2 *2667:A 0.000195624
3 *2693:D_N 0.000282234
4 *2670:A 0
5 *2668:A 0
6 *2706:A0 0
7 *2704:B2 0.000239949
8 *2787:Q 0
9 *786:47 0.00050921
10 *786:41 0.0004226
11 *786:39 7.15064e-05
12 *786:32 0.000100862
13 *786:10 0.000466956
14 *786:4 0.000302851
15 *2667:A *2667:B 5.52238e-05
16 *2667:A *2718:A1 4.75428e-05
17 *2667:A *787:34 5.90443e-06
18 *2667:A *787:36 1.19402e-05
19 *2693:D_N *2668:C 8.66063e-05
20 *2693:D_N *2693:B 1.92905e-05
21 *2693:D_N *3238:A 0.000140933
22 *2693:D_N *788:42 0.000268403
23 *2693:D_N *956:70 0.000190305
24 *2704:B2 *2704:A1_N 7.09393e-05
25 *2704:B2 *2704:A2_N 5.52302e-05
26 *2704:B2 *2745:A1 3.31038e-05
27 *2704:B2 *883:6 3.67257e-05
28 *2704:B2 *883:10 8.65057e-05
29 *2704:B2 *883:32 6.42242e-05
30 *2704:B2 *1012:12 0.000125724
31 *786:10 *2705:A1 0.000127267
32 *786:10 *3364:A 8.91726e-05
33 *786:10 *883:32 2.26327e-05
34 *786:10 *1012:12 0.000220455
35 *786:32 *2668:C 0.000221641
36 *786:39 *2668:C 5.71472e-05
37 *786:47 *2668:C 0.000139907
38 *786:47 *2718:A1 1.37292e-05
39 *786:47 *2718:A2 4.38265e-05
40 *786:47 *3238:A 0.000137983
41 *786:47 *787:36 6.8646e-06
42 *2705:B1 *2704:B2 0.000269428
43 *2709:A2 *2667:A 9.92861e-05
44 *2711:S *2693:D_N 1.08359e-05
45 *2787:CLK *2708:A 4.08637e-05
46 *2787:CLK *786:10 0.000336289
47 *2787:CLK *786:32 0.000250068
48 *2787:CLK *786:39 8.57023e-05
49 *2789:CLK *2708:A 1.64329e-05
50 *3358:A *2704:B2 2.89016e-05
51 *674:18 *786:47 0.000132248
52 *701:60 *2693:D_N 0.000104236
53 *772:85 *786:47 0.000165197
54 *772:96 *786:47 0.000159418
*RES
1 *2787:Q *786:4 9.3 
2 *786:4 *786:10 11.5893 
3 *786:10 *2704:B2 20.925 
4 *786:10 *2706:A0 13.8 
5 *786:4 *786:32 2.58929 
6 *786:32 *2668:A 9.3 
7 *786:32 *786:39 0.946429 
8 *786:39 *786:41 4.5 
9 *786:41 *786:47 10.5357 
10 *786:47 *2670:A 9.3 
11 *786:47 *2693:D_N 25.925 
12 *786:41 *2667:A 17.5321 
13 *786:39 *2708:A 10.2554 
*END

*D_NET *787 0.00497535
*CONN
*I *2708:B I *D sky130_fd_sc_hd__nand2_1
*I *2668:B I *D sky130_fd_sc_hd__or3_1
*I *2693:A I *D sky130_fd_sc_hd__or4b_1
*I *2670:B I *D sky130_fd_sc_hd__or4_1
*I *2667:B I *D sky130_fd_sc_hd__or2_1
*I *2711:A0 I *D sky130_fd_sc_hd__mux2_1
*I *2788:Q O *D sky130_fd_sc_hd__dfrtp_1
*CAP
1 *2708:B 0
2 *2668:B 0.000132812
3 *2693:A 0.000211727
4 *2670:B 0
5 *2667:B 8.60339e-05
6 *2711:A0 0
7 *2788:Q 0.000393076
8 *787:38 0.000419354
9 *787:36 0.000378673
10 *787:34 8.26617e-05
11 *787:23 0.000311184
12 *787:14 0.000573799
13 *2693:A *2693:C 0.000141355
14 *2693:A *789:8 3.17163e-05
15 *2693:A *789:38 3.57844e-05
16 *787:14 *2719:A0 0.000181803
17 *787:14 *997:20 0.000289915
18 *787:34 *1047:111 1.01075e-05
19 *787:38 *789:38 2.83916e-05
20 *787:38 *1047:111 6.36324e-05
21 *2667:A *2667:B 5.52238e-05
22 *2667:A *787:34 5.90443e-06
23 *2667:A *787:36 1.19402e-05
24 *2694:C *2693:A 4.02852e-05
25 *2709:A2 *2667:B 0.00014285
26 *2709:A2 *787:34 0.000127078
27 *2711:S *787:14 0.000151087
28 *2718:C1 *787:14 0.000224764
29 *2787:CLK *2668:B 9.60875e-05
30 *2788:D *787:23 5.33005e-05
31 *2788:D *787:34 0.000129868
32 *2788:D *787:36 8.07951e-05
33 *2788:D *787:38 0.000122812
34 *2789:CLK *2668:B 8.46829e-05
35 *674:18 *2693:A 5.83233e-05
36 *772:85 *2693:A 1.77672e-05
37 *772:85 *787:38 0.000110377
38 *772:96 *787:36 1.08359e-05
39 *772:96 *787:38 7.24753e-05
40 *786:47 *787:36 6.8646e-06
*RES
1 *2788:Q *787:14 26.8357 
2 *787:14 *2711:A0 9.3 
3 *787:14 *787:23 3.01786 
4 *787:23 *2667:B 11.0679 
5 *787:23 *787:34 6.44643 
6 *787:34 *787:36 1.03571 
7 *787:36 *787:38 4.98214 
8 *787:38 *2670:B 13.8 
9 *787:38 *2693:A 18.5857 
10 *787:36 *2668:B 15.5679 
11 *787:34 *2708:B 13.8 
*END

*D_NET *788 0.00619555
*CONN
*I *3239:A I *D sky130_fd_sc_hd__dlygate4sd3_1
*I *2670:C I *D sky130_fd_sc_hd__or4_1
*I *2668:C I *D sky130_fd_sc_hd__or3_1
*I *2716:A I *D sky130_fd_sc_hd__nand2_1
*I *2693:B I *D sky130_fd_sc_hd__or4b_1
*I *2789:Q O *D sky130_fd_sc_hd__dfrtp_1
*CAP
1 *3239:A 6.99906e-05
2 *2670:C 0
3 *2668:C 0.000445526
4 *2716:A 0
5 *2693:B 0.000276465
6 *2789:Q 4.09299e-05
7 *788:42 0.000714892
8 *788:16 0.000877699
9 *788:8 0.000442789
10 *2668:C *3238:A 2.44318e-05
11 *2668:C *868:20 0.000411611
12 *2668:C *1047:111 0.000120661
13 *2693:B *956:70 1.80413e-05
14 *2693:B *997:20 7.83366e-05
15 *3239:A *882:19 6.74911e-05
16 *788:8 *3090:RESET_B 5.52302e-05
17 *788:16 *882:19 7.51095e-05
18 *788:16 *882:25 2.12859e-05
19 *788:16 *891:110 3.34366e-05
20 *788:16 *891:127 0.000116332
21 *2693:D_N *2668:C 8.66063e-05
22 *2693:D_N *2693:B 1.92905e-05
23 *2693:D_N *788:42 0.000268403
24 *2710:B1 *3239:A 0
25 *2710:B1 *788:16 9.00664e-05
26 *2716:B *2668:C 0.000517633
27 *2716:B *788:42 0.000362028
28 *2717:A1 *2693:B 0
29 *2717:A1 *788:16 0.000125372
30 *2717:A2 *788:16 9.83115e-05
31 *2717:A2 *788:42 1.32056e-05
32 *2718:B2 *2668:C 0.000170654
33 *2723:A2 *2668:C 0.000135028
34 *786:32 *2668:C 0.000221641
35 *786:39 *2668:C 5.71472e-05
36 *786:47 *2668:C 0.000139907
*RES
1 *2789:Q *788:8 14.3357 
2 *788:8 *788:16 12.8036 
3 *788:16 *2693:B 22.425 
4 *788:16 *2716:A 9.3 
5 *788:16 *788:42 6.75 
6 *788:42 *2668:C 31.2286 
7 *788:42 *2670:C 9.3 
8 *788:8 *3239:A 15.4429 
*END

*D_NET *789 0.00231036
*CONN
*I *2670:D I *D sky130_fd_sc_hd__or4_1
*I *3238:A I *D sky130_fd_sc_hd__dlygate4sd3_1
*I *2693:C I *D sky130_fd_sc_hd__or4b_1
*I *2669:A I *D sky130_fd_sc_hd__nor2_1
*I *2790:Q O *D sky130_fd_sc_hd__dfrtp_1
*CAP
1 *2670:D 0
2 *3238:A 0.000101901
3 *2693:C 8.96899e-05
4 *2669:A 0.000155173
5 *2790:Q 0
6 *789:38 0.000194019
7 *789:8 0.000273401
8 *789:6 0.000120656
9 *2669:A *956:70 1.87955e-05
10 *2693:C *956:70 5.52302e-05
11 *3238:A *1047:111 0.000267377
12 *789:8 *956:70 2.88424e-05
13 *789:38 *956:70 5.63007e-05
14 *2668:C *3238:A 2.44318e-05
15 *2693:A *2693:C 0.000141355
16 *2693:A *789:8 3.17163e-05
17 *2693:A *789:38 3.57844e-05
18 *2693:D_N *3238:A 0.000140933
19 *2694:C *2693:C 6.56534e-05
20 *2720:A1 *2669:A 0.00010096
21 *674:18 *2669:A 5.85405e-05
22 *674:18 *789:8 5.90443e-06
23 *674:30 *2669:A 3.44635e-05
24 *701:60 *2669:A 0
25 *772:43 *2669:A 0.000142856
26 *786:47 *3238:A 0.000137983
27 *787:38 *789:38 2.83916e-05
*RES
1 *2790:Q *789:6 13.8 
2 *789:6 *789:8 1.03571 
3 *789:8 *2669:A 17.4071 
4 *789:8 *2693:C 16.55 
5 *789:6 *789:38 6.75 
6 *789:38 *3238:A 12.7286 
7 *789:38 *2670:D 9.3 
*END

*D_NET *790 0.00533678
*CONN
*I *2643:A1 I *D sky130_fd_sc_hd__mux2_1
*I *3242:X O *D sky130_fd_sc_hd__clkbuf_1
*CAP
1 *2643:A1 0
2 *3242:X 0.00106
3 *790:8 0.00106
4 *790:8 *2645:A1 3.18676e-05
5 *790:8 *2646:A0 0.000363837
6 *790:8 *2650:A0 0.000320024
7 *790:8 *2650:A1 7.43578e-06
8 *790:8 *2653:A0 3.18676e-05
9 *790:8 *2654:A1 0.000171023
10 *790:8 *2657:A0 0.000451463
11 *790:8 *3353:A 0.000943534
12 rdata[12] *790:8 3.67257e-05
13 *3247:A *790:8 0.000186669
14 *3253:A *790:8 5.52302e-05
15 *3264:A *790:8 5.52302e-05
16 *3282:A *790:8 0.000142856
17 *3283:A *790:8 5.52302e-05
18 *3287:A *790:8 5.52302e-05
19 *3290:A *790:8 5.52302e-05
20 *3291:A *790:8 5.52302e-05
21 *3295:A *790:8 5.52302e-05
22 *3303:A *790:8 0.000142856
*RES
1 *3242:X *790:8 41.8893 
2 *790:8 *2643:A1 9.3 
*END

*D_NET *791 0.00931888
*CONN
*I *2646:A1 I *D sky130_fd_sc_hd__mux2_1
*I *3243:X O *D sky130_fd_sc_hd__buf_1
*CAP
1 *2646:A1 0.00216111
2 *3243:X 0.0012618
3 *791:14 0.00342291
4 *2646:A1 *2475:A2 0
5 *2646:A1 *2646:A0 0
6 *2646:A1 *2650:A0 0
7 *2646:A1 *884:44 0.000103775
8 *791:14 *2651:A1 0.000931512
9 *791:14 *2802:GATE_N 5.33334e-05
10 *791:14 *3309:A 5.71472e-05
11 *791:14 *1054:28 6.53244e-05
12 rdata[15] *791:14 9.90431e-05
13 rdata[2] *791:14 9.90431e-05
14 rdata[6] *791:14 0.000142856
15 rdata[7] *791:14 9.90431e-05
16 rdata[8] *791:14 0.000142856
17 rdata[9] *791:14 9.90431e-05
18 *2476:C1 *2646:A1 7.83659e-05
19 *3247:A *2646:A1 0
20 *3248:A *791:14 0.00014285
21 *3288:A *791:14 0.000183726
22 *3294:A *791:14 5.10822e-05
23 *3295:A *2646:A1 6.42242e-05
24 *376:10 *2646:A1 5.98396e-05
*RES
1 *3243:X *791:14 46.4786 
2 *791:14 *2646:A1 45.675 
*END

*D_NET *792 0.000824069
*CONN
*I *3309:A I *D sky130_fd_sc_hd__buf_2
*I *2793:Q O *D sky130_fd_sc_hd__dlxtn_1
*CAP
1 *3309:A 0.000278067
2 *2793:Q 0.000278067
3 *3309:A *2651:A1 5.52302e-05
4 *3309:A *3356:A 0
5 *3309:A *884:16 9.87983e-06
6 *3309:A *884:24 7.86262e-05
7 *521:18 *3309:A 6.70515e-05
8 *791:14 *3309:A 5.71472e-05
*RES
1 *2793:Q *3309:A 32.2607 
*END

*D_NET *793 0.00300581
*CONN
*I *3310:A I *D sky130_fd_sc_hd__buf_2
*I *2794:Q O *D sky130_fd_sc_hd__dlxtn_1
*CAP
1 *3310:A 0.000908356
2 *2794:Q 0.000908356
3 *3310:A *3330:A 5.33882e-05
4 *3310:A *3331:A 0.000150618
5 *3310:A *3337:A 6.07328e-05
6 *3310:A *3344:A 7.80579e-05
7 *3310:A *3350:A 8.91742e-05
8 *3310:A *3351:A 0
9 *3310:A *987:10 0.000168782
10 *3310:A *1057:14 0
11 PWDATA[10] *3310:A 0
12 PWDATA[11] *3310:A 2.21972e-05
13 rdata[14] *3310:A 0.000359752
14 rdata[3] *3310:A 3.18676e-05
15 *3268:A *3310:A 4.04012e-05
16 *3297:A *3310:A 0.000114843
17 *77:20 *3310:A 1.92789e-05
*RES
1 *2794:Q *3310:A 48.7786 
*END

*D_NET *794 0.00715046
*CONN
*I *3311:A I *D sky130_fd_sc_hd__buf_2
*I *2795:Q O *D sky130_fd_sc_hd__dlxtn_1
*CAP
1 *3311:A 0.000493057
2 *2795:Q 0.00135187
3 *794:12 0.00184493
4 *3311:A *3321:A 0.000287542
5 *3311:A *989:18 0.000300389
6 *794:12 *2660:A1 1.8441e-05
7 *794:12 *2661:A1 1.40306e-05
8 *794:12 *2663:A0 0.00063062
9 *794:12 *935:12 0
10 *794:12 *989:18 0
11 *794:12 *990:12 0.000311095
12 PADDR[0] *3311:A 0
13 PADDR[0] *794:12 0.00015862
14 PENABLE *794:12 0.000133344
15 PSEL1 *3311:A 5.33005e-05
16 PSEL3 *3311:A 0.000338346
17 PWRITE *794:12 6.27272e-06
18 rdata[4] *3311:A 3.18676e-05
19 *2433:A *794:12 0.000113402
20 *2434:A1 *794:12 0
21 *2434:A2 *794:12 2.19684e-05
22 *2437:A *794:12 0
23 *3252:A *3311:A 0.000126736
24 *3255:A *794:12 0.000328976
25 *3256:A *794:12 5.83304e-05
26 *3265:A *3311:A 5.01876e-06
27 *3266:A *794:12 0.000190051
28 *3269:A *794:12 0.000332254
*RES
1 *2795:Q *794:12 49.2018 
2 *794:12 *3311:A 27.4339 
*END

*D_NET *795 0.00769551
*CONN
*I *3312:A I *D sky130_fd_sc_hd__buf_2
*I *2796:Q O *D sky130_fd_sc_hd__dlxtn_1
*CAP
1 *3312:A 0
2 *2796:Q 0.0032796
3 *795:26 0.0032796
4 *795:26 *3348:A 0.000136758
5 *795:26 *889:56 2.09057e-05
6 *795:26 *968:14 0.000167156
7 *795:26 *968:24 4.5958e-05
8 *795:26 *1056:26 0
9 *2749:A4 *795:26 0.000257751
10 *3278:A *795:26 0.000507783
11 *509:8 *795:26 0
*RES
1 *2796:Q *795:26 41.4092 
2 *795:26 *3312:A 9.3 
*END

*D_NET *796 0.000859237
*CONN
*I *3313:A I *D sky130_fd_sc_hd__buf_2
*I *2797:Q O *D sky130_fd_sc_hd__dlxtn_1
*CAP
1 *3313:A 0.000300218
2 *2797:Q 0.000300218
3 *3313:A *3314:A 0
4 *3313:A *3315:A 0
5 *3313:A *880:38 9.20464e-06
6 *3313:A *880:54 9.71197e-05
7 *3313:A *880:62 0
8 *3313:A *1013:12 3.29037e-05
9 *3248:A *3313:A 0
10 *427:10 *3313:A 0.000119574
*RES
1 *2797:Q *3313:A 32.9214 
*END

*D_NET *797 0.000435878
*CONN
*I *3314:A I *D sky130_fd_sc_hd__buf_2
*I *2798:Q O *D sky130_fd_sc_hd__dlxtn_1
*CAP
1 *3314:A 0.00011661
2 *2798:Q 0.00011661
3 *3314:A *2802:GATE_N 0.000128146
4 *3314:A *880:62 5.52238e-05
5 rdata[3] *3314:A 1.00375e-05
6 *3248:A *3314:A 9.25014e-06
7 *3313:A *3314:A 0
*RES
1 *2798:Q *3314:A 30.0821 
*END

*D_NET *798 0.001588
*CONN
*I *3315:A I *D sky130_fd_sc_hd__buf_2
*I *2799:Q O *D sky130_fd_sc_hd__dlxtn_1
*CAP
1 *3315:A 0.000510458
2 *2799:Q 0.000510458
3 *3315:A *2658:A0 0.000444335
4 *3315:A *880:38 0
5 *3315:A *888:86 4.13496e-05
6 *3315:A *1013:12 0
7 *2474:C1 *3315:A 5.71472e-05
8 *2642:B *3315:A 2.42516e-05
9 *3313:A *3315:A 0
*RES
1 *2799:Q *3315:A 36.5821 
*END

*D_NET *799 0.000844716
*CONN
*I *3316:A I *D sky130_fd_sc_hd__buf_2
*I *2800:Q O *D sky130_fd_sc_hd__dlxtn_1
*CAP
1 *3316:A 0.000368212
2 *2800:Q 0.000368212
3 *3316:A *3356:A 0
4 *3316:A *874:20 9.25014e-06
5 *3316:A *880:23 9.90431e-05
6 *390:12 *3316:A 0
*RES
1 *2800:Q *3316:A 32.9214 
*END

*D_NET *800 0.00109017
*CONN
*I *3317:A I *D sky130_fd_sc_hd__buf_2
*I *2443:X O *D sky130_fd_sc_hd__and2_1
*CAP
1 *3317:A 0.000274011
2 *2443:X 0.000274011
3 *3317:A *3347:A 0.000112555
4 *3317:A *957:16 0.000334602
5 *3317:A *957:31 5.52302e-05
6 *2736:C1 *3317:A 3.97657e-05
*RES
1 *2443:X *3317:A 33.7429 
*END

*D_NET *801 0.010789
*CONN
*I *2761:B2 I *D sky130_fd_sc_hd__a32o_1
*I *2443:B I *D sky130_fd_sc_hd__and2_1
*I *3318:A I *D sky130_fd_sc_hd__buf_2
*I *3098:A I *D sky130_fd_sc_hd__clkbuf_1
*I *2724:B I *D sky130_fd_sc_hd__nor2_4
*I *2442:Y O *D sky130_fd_sc_hd__inv_12
*CAP
1 *2761:B2 0.000383867
2 *2443:B 0.000332445
3 *3318:A 0.000178519
4 *3098:A 0.00135681
5 *2724:B 0
6 *2442:Y 0
7 *801:31 0.00197921
8 *801:25 0.00109386
9 *801:14 0.000850103
10 *801:4 0.000916437
11 *2443:B *2731:A1 1.94945e-05
12 *2761:B2 *931:34 2.79421e-05
13 *3098:A *2644:A0 9.80173e-05
14 *3318:A *2379:A 0.000148189
15 *3318:A *2725:B 7.83659e-05
16 *3318:A *3234:A 0.000193118
17 *3318:A *3320:A 0
18 *3318:A *804:14 0
19 *801:14 *2678:A 4.59075e-05
20 *801:14 *804:10 7.72595e-05
21 *801:14 *885:115 1.94879e-05
22 *801:25 *804:14 0
23 *801:31 *2725:B 4.38243e-05
24 *801:31 *3086:RESET_B 0
25 *801:31 *955:10 0
26 *2391:A *801:25 0
27 *2443:A *801:14 0
28 *2710:B2 *2443:B 2.65052e-05
29 *2733:A1 *801:14 3.34366e-05
30 *2733:A1 *801:25 0.00051421
31 *2736:A1 *801:25 7.34773e-05
32 *2736:C1 *2443:B 2.89016e-05
33 *2743:A2 *801:25 7.04538e-05
34 *2761:A3 *2761:B2 0.000163629
35 *2761:A3 *801:14 0.000118461
36 *2761:B1 *2761:B2 4.75736e-05
37 *2764:B *2761:B2 2.89114e-05
38 *2764:B *801:14 0.000172488
39 *2764:D *801:14 0
40 *3087:CLK *3098:A 0.000136039
41 *3087:D *3098:A 0.000300915
42 *3280:A *3318:A 0
43 *383:8 *3098:A 3.80277e-05
44 *475:38 *2761:B2 6.90134e-05
45 *510:38 *2761:B2 0.000344232
46 *510:38 *801:14 7.80714e-06
47 *672:84 *2761:B2 0.000144554
48 *719:8 *801:25 4.65158e-06
49 *719:10 *801:25 6.56746e-05
50 *751:16 *801:14 0.000557191
51 *783:37 *801:14 0
*RES
1 *2442:Y *801:4 9.3 
2 *801:4 *801:14 18.4821 
3 *801:14 *2724:B 13.8 
4 *801:14 *801:25 11.2761 
5 *801:25 *801:31 4.83009 
6 *801:31 *3098:A 35.8536 
7 *801:31 *3318:A 18.175 
8 *801:25 *2443:B 18.574 
9 *801:4 *2761:B2 26.7107 
*END

*D_NET *802 0.00330422
*CONN
*I *2647:A1 I *D sky130_fd_sc_hd__mux2_1
*I *3244:X O *D sky130_fd_sc_hd__clkbuf_1
*CAP
1 *2647:A1 0.000990942
2 *3244:X 0.000990942
3 *2647:A1 *2647:S 5.71472e-05
4 *2647:A1 *992:16 0.000153466
5 *2647:A1 *1005:16 0.00105543
6 *3279:A *2647:A1 5.62995e-05
*RES
1 *3244:X *2647:A1 48.1714 
*END

*D_NET *803 0.000782125
*CONN
*I *3319:A I *D sky130_fd_sc_hd__buf_2
*I *3098:X O *D sky130_fd_sc_hd__clkbuf_1
*CAP
1 *3319:A 0.000257938
2 *3098:X 0.000257938
3 *3319:A *1005:16 0.00014285
4 *74:9 *3319:A 0.0001234
*RES
1 *3098:X *3319:A 33.3321 
*END

*D_NET *804 0.00662818
*CONN
*I *2724:A I *D sky130_fd_sc_hd__nor2_4
*I *3320:A I *D sky130_fd_sc_hd__buf_2
*I *2725:A I *D sky130_fd_sc_hd__or2_1
*I *2384:Y O *D sky130_fd_sc_hd__inv_2
*CAP
1 *2724:A 0
2 *3320:A 0.000748054
3 *2725:A 0
4 *2384:Y 0.000548093
5 *804:14 0.00121312
6 *804:10 0.00101316
7 *3320:A *2379:A 0
8 *3320:A *2656:A0 0
9 *3320:A *3235:A 0.000143557
10 *3320:A *998:10 0.000592967
11 *3320:A *1005:16 0.00014285
12 *804:10 *3104:A 0.000163989
13 *804:10 *931:10 1.40306e-05
14 *804:14 *2725:B 0
15 *2391:A *804:14 0.000194833
16 *2443:A *804:10 1.58163e-05
17 *2737:A2 *804:14 7.80851e-06
18 *2737:B2 *804:14 6.07232e-05
19 *2743:A2 *804:14 1.08359e-05
20 *2764:A *804:10 6.8646e-06
21 *3099:A *804:10 0.000681014
22 *3240:A *804:14 6.8646e-06
23 *3292:A *3320:A 3.34295e-05
24 *3307:A *804:10 5.33005e-05
25 *3318:A *3320:A 0
26 *3318:A *804:14 0
27 *461:22 *804:14 0.000101545
28 *672:70 *804:10 4.58194e-05
29 *680:10 *804:10 0.000290986
30 *719:8 *804:14 5.46303e-05
31 *719:10 *804:14 9.34817e-05
32 *722:26 *804:14 6.94775e-05
33 *722:42 *804:14 8.89385e-05
34 *782:36 *804:14 0.000142797
35 *784:14 *804:10 0
36 *784:32 *804:10 0
37 *784:32 *804:14 1.19309e-05
38 *801:14 *804:10 7.72595e-05
39 *801:25 *804:14 0
*RES
1 *2384:Y *804:10 27.3 
2 *804:10 *804:14 10.4821 
3 *804:14 *2725:A 13.8 
4 *804:14 *3320:A 29.2821 
5 *804:10 *2724:A 13.8 
*END

*D_NET *805 0.0286352
*CONN
*I *3072:GATE_N I *D sky130_fd_sc_hd__dlxtn_1
*I *3079:GATE_N I *D sky130_fd_sc_hd__dlxtn_1
*I *3082:GATE_N I *D sky130_fd_sc_hd__dlxtn_1
*I *3073:GATE_N I *D sky130_fd_sc_hd__dlxtn_1
*I *3078:GATE_N I *D sky130_fd_sc_hd__dlxtn_1
*I *3080:GATE_N I *D sky130_fd_sc_hd__dlxtn_1
*I *3081:GATE_N I *D sky130_fd_sc_hd__dlxtn_1
*I *3070:GATE_N I *D sky130_fd_sc_hd__dlxtn_1
*I *3077:GATE_N I *D sky130_fd_sc_hd__dlxtn_1
*I *3071:GATE_N I *D sky130_fd_sc_hd__dlxtn_1
*I *3106:X O *D sky130_fd_sc_hd__buf_2
*CAP
1 *3072:GATE_N 4.17241e-05
2 *3079:GATE_N 0.000347001
3 *3082:GATE_N 3.82418e-05
4 *3073:GATE_N 0
5 *3078:GATE_N 0.000283088
6 *3080:GATE_N 2.37855e-05
7 *3081:GATE_N 0
8 *3070:GATE_N 0.000799859
9 *3077:GATE_N 0
10 *3071:GATE_N 0
11 *3106:X 0
12 *805:148 0.00162851
13 *805:127 0.00166707
14 *805:78 0.00118789
15 *805:72 0.000694706
16 *805:54 0.0012153
17 *805:42 0.0015641
18 *805:34 0.00142319
19 *805:18 0.00145252
20 *805:12 0.000899147
21 *805:4 0.000910259
22 *3070:GATE_N *2555:A2 0.000742008
23 *3070:GATE_N *2555:B1 4.28365e-05
24 *3070:GATE_N *2556:A2 4.15161e-05
25 *3070:GATE_N *2556:B1 6.82179e-05
26 *3070:GATE_N *2645:A0 0.000150625
27 *3070:GATE_N *2910:GATE_N 0
28 *3070:GATE_N *3081:D 9.11365e-06
29 *3070:GATE_N *811:60 0
30 *3070:GATE_N *873:44 0.000151628
31 *3070:GATE_N *877:38 0.000399841
32 *3070:GATE_N *906:26 0
33 *3072:GATE_N *3063:GATE_N 7.3237e-05
34 *3078:GATE_N *807:22 0.000159174
35 *3079:GATE_N *2473:B1 5.52238e-05
36 *3079:GATE_N *2800:GATE_N 6.63909e-06
37 *3079:GATE_N *3031:GATE_N 0
38 *3079:GATE_N *838:105 0
39 *3079:GATE_N *874:20 1.36875e-05
40 *805:12 *2486:B1 0.000146992
41 *805:12 *3050:GATE_N 0.000171289
42 *805:12 *809:20 0.000177815
43 *805:12 *872:12 5.52302e-05
44 *805:12 *916:95 0.000498444
45 *805:18 *807:22 4.25622e-05
46 *805:18 *871:10 0.000224409
47 *805:18 *871:118 2.77258e-05
48 *805:34 *2531:B1 0.000165248
49 *805:34 *811:97 4.08637e-05
50 *805:34 *892:39 4.38567e-05
51 *805:34 *916:15 0.000114655
52 *805:42 *2489:B1 0.000170519
53 *805:42 *3034:GATE_N 9.71197e-05
54 *805:42 *811:97 5.33005e-05
55 *805:42 *921:26 0.000172226
56 *805:42 *923:26 0.000139907
57 *805:54 *2623:C1 0.000375104
58 *805:54 *2972:D 0
59 *805:54 *3007:D 4.16204e-05
60 *805:54 *3007:GATE_N 1.49665e-05
61 *805:54 *847:25 0
62 *805:54 *847:36 0
63 *805:54 *847:51 0.000220185
64 *805:54 *847:88 9.87983e-06
65 *805:54 *862:25 0.000117543
66 *805:54 *906:20 0.00132607
67 *805:54 *906:22 0.000708012
68 *805:54 *908:12 0.000128146
69 *805:72 *2917:GATE_N 0.000434527
70 *805:72 *3029:D 1.08359e-05
71 *805:72 *811:97 0.000618694
72 *805:78 *2490:A2 0
73 *805:78 *3081:D 4.1331e-06
74 *805:78 *811:54 0
75 *805:78 *811:60 0
76 *805:78 *811:97 0
77 *805:78 *906:26 0
78 *805:127 *3050:GATE_N 9.90367e-05
79 *805:127 *3082:D 8.3722e-05
80 *805:127 *811:143 1.01075e-05
81 *805:127 *822:49 3.41101e-05
82 *805:127 *851:20 4.70078e-05
83 *805:148 *2550:A2 0.000428013
84 *805:148 *2562:A2 0.000695773
85 *805:148 *2842:D 0
86 *805:148 *3082:D 4.40153e-05
87 *805:148 *822:117 0.000229984
88 *805:148 *827:52 0.000101545
89 *805:148 *827:62 0.000309266
90 *805:148 *838:105 0
91 *805:148 *892:105 2.90655e-05
92 *805:148 *892:121 0
93 *805:148 *898:118 0.000426414
94 *805:148 *932:49 0
95 *2469:C1 *805:54 0.000164046
96 *2484:B2 *805:12 4.56089e-05
97 *2485:C1 *805:12 9.60939e-05
98 *2490:A1 *805:78 0
99 *2491:B1 *805:78 3.18703e-05
100 *2492:A *805:72 1.40306e-05
101 *2492:A *805:78 5.70551e-05
102 *2492:B *805:72 0
103 *2492:C *805:78 9.90431e-05
104 *2493:B2 *805:72 4.38128e-05
105 *2493:B2 *805:78 5.71472e-05
106 *2530:A1 *805:34 5.52302e-05
107 *2531:B2 *805:34 5.47092e-05
108 *2555:B2 *3070:GATE_N 7.06861e-05
109 *2555:C1 *3070:GATE_N 0
110 *2556:A1 *3070:GATE_N 0.000144042
111 *2557:A1 *3070:GATE_N 7.40526e-05
112 *2557:B1 *3070:GATE_N 0
113 *2559:B2 *3079:GATE_N 0.000182758
114 *2560:B *3072:GATE_N 7.3237e-05
115 *2560:B *3079:GATE_N 0.000114045
116 *2573:C1 *805:148 0.00031688
117 *2584:C1 *805:148 3.2006e-05
118 *2586:A1 *3078:GATE_N 5.92338e-05
119 *2591:A *805:54 0
120 *2609:B2 *805:54 7.83366e-05
121 *2636:B *3079:GATE_N 0.000194949
122 *3157:A *3079:GATE_N 2.27786e-05
123 *3157:A *805:148 0.000133491
124 *3166:A *805:18 5.03772e-05
125 *3202:A *3078:GATE_N 0.000382601
126 *3204:A *3078:GATE_N 9.60337e-06
127 *381:18 *3078:GATE_N 7.04971e-05
128 *381:18 *805:18 4.03318e-05
129 *390:12 *3079:GATE_N 0.000138171
130 *496:16 *805:54 0
131 *585:24 *805:34 5.52238e-05
132 *585:24 *805:42 0.00011674
133 *590:24 *805:18 0.000469152
134 *590:24 *805:127 0.000107267
*RES
1 *3106:X *805:4 9.3 
2 *805:4 *805:12 20.1071 
3 *805:12 *805:18 14.8929 
4 *805:18 *805:34 17.875 
5 *805:34 *805:42 16.7143 
6 *805:42 *805:54 40.8036 
7 *805:54 *3071:GATE_N 9.3 
8 *805:42 *3077:GATE_N 9.3 
9 *805:34 *805:72 17.8571 
10 *805:72 *805:78 12.1786 
11 *805:78 *3070:GATE_N 34.4429 
12 *805:78 *3081:GATE_N 13.8 
13 *805:72 *3080:GATE_N 9.72857 
14 *805:18 *3078:GATE_N 21.8179 
15 *805:12 *3073:GATE_N 9.3 
16 *805:4 *805:127 15.1071 
17 *805:127 *3082:GATE_N 10.0321 
18 *805:127 *805:148 42.1786 
19 *805:148 *3079:GATE_N 22.1036 
20 *805:148 *3072:GATE_N 15.1571 
*END

*D_NET *806 0.0232679
*CONN
*I *3075:GATE_N I *D sky130_fd_sc_hd__dlxtn_1
*I *3085:GATE_N I *D sky130_fd_sc_hd__dlxtn_1
*I *3076:GATE_N I *D sky130_fd_sc_hd__dlxtn_1
*I *3084:GATE_N I *D sky130_fd_sc_hd__dlxtn_1
*I *3074:GATE_N I *D sky130_fd_sc_hd__dlxtn_1
*I *3083:GATE_N I *D sky130_fd_sc_hd__dlxtn_1
*I *3107:X O *D sky130_fd_sc_hd__clkbuf_2
*CAP
1 *3075:GATE_N 0.000535666
2 *3085:GATE_N 0
3 *3076:GATE_N 0.000627298
4 *3084:GATE_N 0.000246639
5 *3074:GATE_N 5.18441e-05
6 *3083:GATE_N 0.00177377
7 *3107:X 1.0656e-05
8 *806:50 0.00109581
9 *806:48 0.000751181
10 *806:14 0.0022243
11 *806:12 0.00111152
12 *806:10 0.000729841
13 *3074:GATE_N *2496:A2 6.24939e-05
14 *3075:GATE_N *2648:A0 0
15 *3075:GATE_N *808:54 1.04376e-05
16 *3075:GATE_N *838:18 6.03387e-05
17 *3075:GATE_N *867:10 6.39808e-05
18 *3076:GATE_N *2606:B1 0.000161693
19 *3076:GATE_N *3044:GATE_N 0.000150611
20 *3076:GATE_N *898:161 0
21 *3083:GATE_N *2598:A2 5.33005e-05
22 *3083:GATE_N *2599:A2 2.82057e-05
23 *3083:GATE_N *2911:GATE_N 0.000201015
24 *3083:GATE_N *3083:D 5.33005e-05
25 *3083:GATE_N *840:29 0.00301774
26 *3083:GATE_N *849:87 0.000780797
27 *3083:GATE_N *893:12 0.000258131
28 *3083:GATE_N *893:37 0.00126351
29 *3083:GATE_N *905:10 3.454e-05
30 *3083:GATE_N *909:26 6.3824e-05
31 *3083:GATE_N *929:83 0.000570123
32 *3084:GATE_N *2605:A2 0.000364484
33 *3084:GATE_N *2614:A2 0
34 *3084:GATE_N *811:20 0
35 *3084:GATE_N *830:71 9.54798e-06
36 *3084:GATE_N *830:90 0.000323245
37 *806:10 *808:20 2.06112e-05
38 *806:10 *917:73 5.7836e-06
39 *806:12 *2405:B 0.000451599
40 *806:12 *808:54 4.01642e-05
41 *806:14 *2405:B 0.000381658
42 *806:14 *808:54 1.08779e-05
43 *806:14 *840:29 0.000544883
44 *806:14 *893:59 2.72228e-05
45 *806:48 *2409:B 4.97821e-05
46 *806:48 *893:63 1.94054e-05
47 *806:48 *893:97 0.000214002
48 *806:48 *895:63 0.000167781
49 *806:48 *895:71 5.20298e-05
50 *806:50 *2619:B1 5.83304e-05
51 *806:50 *830:90 7.44918e-05
52 *806:50 *893:97 0.000321779
53 *2514:A *3083:GATE_N 1.57617e-05
54 *2514:A *806:14 2.84241e-06
55 *3106:A *806:48 2.22043e-05
56 *3109:A *806:48 4.33463e-05
57 *3127:A *806:14 4.65519e-05
58 *3195:A *3083:GATE_N 0.000240477
59 *435:12 *3083:GATE_N 0.000179241
60 *445:8 *3083:GATE_N 5.33005e-05
61 *449:24 *806:48 0.000192763
62 *449:24 *806:50 0
63 *496:16 *3083:GATE_N 0.000345716
64 *561:14 *3075:GATE_N 0.000470297
65 *561:14 *806:12 0.000344892
66 *561:14 *806:14 0.000274163
67 *570:18 *3075:GATE_N 0
68 *580:20 *3076:GATE_N 0.000654487
69 *651:26 *3083:GATE_N 0.000683891
70 *651:26 *806:14 0.000567738
*RES
1 *3107:X *806:10 17.4868 
2 *806:10 *806:12 0.983867 
3 *806:12 *806:14 1.7766 
4 *806:14 *3083:GATE_N 32.2532 
5 *806:14 *3074:GATE_N 18.0939 
6 *806:12 *806:48 14.8475 
7 *806:48 *806:50 5.58929 
8 *806:50 *3084:GATE_N 20.8357 
9 *806:50 *3076:GATE_N 33.1571 
10 *806:48 *3085:GATE_N 13.8 
11 *806:10 *3075:GATE_N 20.6531 
*END

*D_NET *807 0.0285554
*CONN
*I *3068:GATE_N I *D sky130_fd_sc_hd__dlxtn_1
*I *3062:GATE_N I *D sky130_fd_sc_hd__dlxtn_1
*I *3061:GATE_N I *D sky130_fd_sc_hd__dlxtn_1
*I *3064:GATE_N I *D sky130_fd_sc_hd__dlxtn_1
*I *3063:GATE_N I *D sky130_fd_sc_hd__dlxtn_1
*I *3066:GATE_N I *D sky130_fd_sc_hd__dlxtn_1
*I *3057:GATE_N I *D sky130_fd_sc_hd__dlxtn_1
*I *3065:GATE_N I *D sky130_fd_sc_hd__dlxtn_1
*I *3054:GATE_N I *D sky130_fd_sc_hd__dlxtn_1
*I *3056:GATE_N I *D sky130_fd_sc_hd__dlxtn_1
*I *3108:X O *D sky130_fd_sc_hd__buf_2
*CAP
1 *3068:GATE_N 0
2 *3062:GATE_N 0.000376054
3 *3061:GATE_N 0
4 *3064:GATE_N 2.76349e-05
5 *3063:GATE_N 0.000536465
6 *3066:GATE_N 0.000470365
7 *3057:GATE_N 0
8 *3065:GATE_N 0.000359998
9 *3054:GATE_N 0.000728904
10 *3056:GATE_N 8.68255e-05
11 *3108:X 0
12 *807:121 0.000994733
13 *807:119 0.000659766
14 *807:115 0.00164614
15 *807:99 0.00116458
16 *807:26 0.000920562
17 *807:24 0.000633461
18 *807:22 0.000940746
19 *807:18 0.00263952
20 *807:4 0.00152066
21 *3054:GATE_N *2928:D 0.0001399
22 *3054:GATE_N *825:43 3.0305e-05
23 *3054:GATE_N *858:15 0.000817351
24 *3054:GATE_N *894:69 6.09889e-05
25 *3054:GATE_N *916:50 0.000247038
26 *3056:GATE_N *858:19 5.52302e-05
27 *3062:GATE_N *2918:D 3.69047e-06
28 *3062:GATE_N *2918:GATE_N 0.000178527
29 *3062:GATE_N *2950:GATE_N 0.000123126
30 *3062:GATE_N *861:79 3.87124e-05
31 *3063:GATE_N *2474:A2 0
32 *3063:GATE_N *2944:GATE_N 6.35123e-05
33 *3063:GATE_N *858:6 5.52302e-05
34 *3064:GATE_N *3064:D 2.89114e-05
35 *3065:GATE_N *2921:D 0.000212314
36 *3065:GATE_N *3065:D 5.33005e-05
37 *3065:GATE_N *827:64 7.02968e-05
38 *3065:GATE_N *827:70 2.65105e-05
39 *3065:GATE_N *853:27 9.90367e-05
40 *3065:GATE_N *854:6 2.59355e-05
41 *3066:GATE_N *2886:GATE_N 4.10274e-05
42 *3066:GATE_N *829:41 9.99644e-06
43 *3066:GATE_N *851:20 2.04825e-05
44 *3066:GATE_N *851:33 9.60875e-05
45 *3066:GATE_N *892:33 0.00011586
46 *807:18 *2519:A2 6.57914e-05
47 *807:18 *2540:A2 0.000825521
48 *807:18 *2541:A2 7.83659e-05
49 *807:18 *848:8 9.60875e-05
50 *807:18 *881:57 7.6644e-05
51 *807:18 *898:10 5.6467e-05
52 *807:18 *914:118 5.91336e-05
53 *807:18 *918:124 5.20359e-06
54 *807:18 *918:147 2.01696e-05
55 *807:22 *2901:GATE_N 0.000125717
56 *807:22 *2938:D 0
57 *807:22 *3057:D 7.85465e-05
58 *807:22 *852:16 0
59 *807:22 *872:24 0.000116657
60 *807:22 *892:43 0
61 *807:22 *898:50 7.98206e-05
62 *807:99 *2608:A2 5.41794e-05
63 *807:99 *3068:D 4.58194e-05
64 *807:99 *822:39 2.61337e-05
65 *807:99 *848:8 0.000225616
66 *807:99 *919:55 9.25014e-06
67 *807:115 *2844:GATE_N 0.000826517
68 *807:115 *2918:GATE_N 0.000112944
69 *807:115 *822:39 0.000137061
70 *807:115 *822:49 2.26973e-05
71 *807:115 *825:18 0.000325503
72 *807:115 *848:10 6.69189e-05
73 *807:115 *848:16 1.8791e-05
74 *807:115 *898:161 0.00184832
75 *807:115 *914:151 2.98576e-05
76 *807:115 *918:147 0.000214906
77 *807:119 *3046:GATE_N 5.62577e-05
78 *807:119 *914:157 0.000524486
79 *807:121 *2474:A2 0
80 *807:121 *3046:GATE_N 6.85617e-05
81 *807:121 *809:111 3.92854e-05
82 *807:121 *809:115 5.75896e-05
83 *2476:A1 *3054:GATE_N 4.62969e-05
84 *2476:B2 *3054:GATE_N 7.28102e-05
85 *2541:A1 *807:18 3.32631e-05
86 *2574:B2 *3065:GATE_N 0.000390987
87 *2575:C1 *3054:GATE_N 5.33433e-05
88 *2575:C1 *807:24 5.01213e-05
89 *2575:C1 *807:26 0.000125908
90 *2585:A1 *807:18 0
91 *2586:A1 *807:18 0.00032301
92 *2586:A1 *807:22 9.25014e-06
93 *2586:B2 *807:18 2.96948e-05
94 *2586:C1 *807:18 3.75248e-05
95 *2606:A1 *807:115 3.06878e-06
96 *2614:B2 *807:99 3.98547e-05
97 *3072:GATE_N *3063:GATE_N 7.3237e-05
98 *3078:GATE_N *807:22 0.000159174
99 *3151:A *3054:GATE_N 4.61329e-05
100 *3154:A *3063:GATE_N 0.000151015
101 *3157:A *3063:GATE_N 0.000555781
102 *3157:A *807:119 0.000679131
103 *3157:A *807:121 0.000934391
104 *3202:A *807:18 0
105 *3204:A *807:22 2.22043e-05
106 *377:12 *3056:GATE_N 0.000124655
107 *377:12 *807:24 0.000349137
108 *377:12 *807:26 0.00028245
109 *381:16 *3056:GATE_N 3.64793e-05
110 *381:16 *807:22 0
111 *381:16 *807:24 7.31647e-05
112 *381:16 *807:26 1.69115e-05
113 *381:18 *807:22 0
114 *448:28 *807:99 2.59355e-05
115 *448:28 *807:115 5.66157e-05
116 *449:24 *807:99 9.90431e-05
117 *499:38 *807:18 5.33072e-05
118 *551:22 *807:121 7.83449e-05
119 *635:20 *3066:GATE_N 0.00048746
120 *635:20 *807:18 0.000246778
121 *635:20 *807:22 3.17148e-05
122 *805:18 *807:22 4.25622e-05
*RES
1 *3108:X *807:4 9.3 
2 *807:4 *807:18 36.1607 
3 *807:18 *807:22 15.8393 
4 *807:22 *807:24 4.67857 
5 *807:24 *807:26 3.76786 
6 *807:26 *3056:GATE_N 15.9786 
7 *807:26 *3054:GATE_N 37.9607 
8 *807:24 *3065:GATE_N 22.5679 
9 *807:22 *3057:GATE_N 13.8 
10 *807:18 *3066:GATE_N 30.4429 
11 *807:4 *807:99 12.7321 
12 *807:99 *807:115 26.2318 
13 *807:115 *807:119 13.4286 
14 *807:119 *807:121 12.2679 
15 *807:121 *3063:GATE_N 25.5857 
16 *807:121 *3064:GATE_N 14.3357 
17 *807:119 *3061:GATE_N 13.8 
18 *807:115 *3062:GATE_N 24.8714 
19 *807:99 *3068:GATE_N 9.3 
*END

*D_NET *808 0.0167046
*CONN
*I *3059:GATE_N I *D sky130_fd_sc_hd__dlxtn_1
*I *3058:GATE_N I *D sky130_fd_sc_hd__dlxtn_1
*I *3067:GATE_N I *D sky130_fd_sc_hd__dlxtn_1
*I *3055:GATE_N I *D sky130_fd_sc_hd__dlxtn_1
*I *3069:GATE_N I *D sky130_fd_sc_hd__dlxtn_1
*I *3060:GATE_N I *D sky130_fd_sc_hd__dlxtn_1
*I *3109:X O *D sky130_fd_sc_hd__dlymetal6s2s_1
*CAP
1 *3059:GATE_N 6.5303e-05
2 *3058:GATE_N 0
3 *3067:GATE_N 0
4 *3055:GATE_N 0.000194924
5 *3069:GATE_N 6.60448e-05
6 *3060:GATE_N 0.00027976
7 *3109:X 0.000760675
8 *808:80 0.00023541
9 *808:78 0.00208022
10 *808:54 0.00259289
11 *808:22 0.000880809
12 *808:20 0.00146147
13 *808:14 0.00119928
14 *3055:GATE_N *2948:GATE_N 1.95251e-05
15 *3055:GATE_N *875:10 0.000102071
16 *3055:GATE_N *925:72 1.76039e-05
17 *3059:GATE_N *2507:B1 5.52302e-05
18 *3060:GATE_N *2606:B1 0.000220441
19 *3060:GATE_N *3044:GATE_N 0
20 *3069:GATE_N *2517:A2 5.41494e-05
21 *808:14 *2507:B1 0.000171459
22 *808:14 *3059:D 1.58163e-05
23 *808:14 *838:18 7.62128e-05
24 *808:14 *867:6 2.27416e-05
25 *808:14 *898:161 2.87302e-05
26 *808:20 *2506:B1 0.00027174
27 *808:20 *2507:B1 8.25843e-06
28 *808:20 *810:16 2.14378e-05
29 *808:20 *810:22 5.92038e-05
30 *808:20 *917:73 0
31 *808:20 *917:79 0
32 *808:22 *3044:GATE_N 2.94278e-05
33 *808:22 *810:22 0.000145845
34 *808:22 *828:70 0.000359032
35 *808:22 *917:79 0
36 *808:54 *2405:B 0.000124035
37 *808:54 *2423:A 0.000136596
38 *808:54 *2648:A0 0.000419487
39 *808:54 *893:59 0.00024888
40 *808:54 *895:63 1.8366e-05
41 *808:78 *2464:A2 0.000614026
42 *808:78 *2499:A2 6.84339e-05
43 *808:78 *2600:A2 1.81774e-05
44 *808:78 *2600:B1 7.48301e-06
45 *808:78 *2831:GATE_N 0.000214822
46 *808:78 *3058:D 0.00022459
47 *808:78 *3067:D 3.14048e-05
48 *808:78 *3074:D 5.49544e-05
49 *808:78 *823:20 0.000349849
50 *808:78 *829:20 0.000213297
51 *808:78 *840:29 0.000101601
52 *808:78 *869:35 0.000411462
53 *808:78 *895:40 1.76096e-05
54 *808:78 *895:63 0.000101791
55 *808:78 *912:27 9.58593e-05
56 *808:78 *922:16 0.000179619
57 *808:80 *2948:GATE_N 2.15154e-05
58 *2496:A1 *808:78 0.00017947
59 *2507:A1 *808:14 9.60939e-05
60 *2507:B2 *808:14 0
61 *2514:A *808:54 3.05874e-05
62 *2600:A1 *808:78 3.14163e-05
63 *2600:B2 *808:78 1.92789e-05
64 *2601:C1 *808:78 0.000390572
65 *3075:GATE_N *808:54 1.04376e-05
66 *3106:A *808:54 4.98422e-05
67 *3112:A *3059:GATE_N 9.26675e-07
68 *3126:A *808:54 6.53083e-05
69 *3127:A *808:54 8.79924e-05
70 *3138:A *808:54 5.33005e-05
71 *3138:A *808:78 5.52238e-05
72 *3171:A *3055:GATE_N 0.000172484
73 *3171:A *808:80 7.98104e-05
74 *3209:A *808:78 3.60653e-05
75 *441:31 *3060:GATE_N 0
76 *441:31 *808:22 0
77 *570:18 *808:14 0
78 *570:18 *808:54 0.0001046
79 *806:10 *808:20 2.06112e-05
80 *806:12 *808:54 4.01642e-05
81 *806:14 *808:54 1.08779e-05
*RES
1 *3109:X *808:14 28.4071 
2 *808:14 *808:20 10.7768 
3 *808:20 *808:22 10.5982 
4 *808:22 *3060:GATE_N 19.3179 
5 *808:22 *3069:GATE_N 15.1571 
6 *808:20 *808:54 15.499 
7 *808:54 *808:78 49.8929 
8 *808:78 *808:80 1.03571 
9 *808:80 *3055:GATE_N 18.4786 
10 *808:80 *3067:GATE_N 13.8 
11 *808:54 *3058:GATE_N 9.3 
12 *808:14 *3059:GATE_N 10.8714 
*END

*D_NET *809 0.0228426
*CONN
*I *3052:GATE_N I *D sky130_fd_sc_hd__dlxtn_1
*I *3050:GATE_N I *D sky130_fd_sc_hd__dlxtn_1
*I *3040:GATE_N I *D sky130_fd_sc_hd__dlxtn_1
*I *3046:GATE_N I *D sky130_fd_sc_hd__dlxtn_1
*I *3045:GATE_N I *D sky130_fd_sc_hd__dlxtn_1
*I *3041:GATE_N I *D sky130_fd_sc_hd__dlxtn_1
*I *3048:GATE_N I *D sky130_fd_sc_hd__dlxtn_1
*I *3049:GATE_N I *D sky130_fd_sc_hd__dlxtn_1
*I *3038:GATE_N I *D sky130_fd_sc_hd__dlxtn_1
*I *3047:GATE_N I *D sky130_fd_sc_hd__dlxtn_1
*I *3110:X O *D sky130_fd_sc_hd__buf_2
*CAP
1 *3052:GATE_N 2.91227e-05
2 *3050:GATE_N 7.63136e-05
3 *3040:GATE_N 0.000738714
4 *3046:GATE_N 0.000519629
5 *3045:GATE_N 2.04425e-05
6 *3041:GATE_N 3.82418e-05
7 *3048:GATE_N 0.00101492
8 *3049:GATE_N 1.55603e-05
9 *3038:GATE_N 3.82418e-05
10 *3047:GATE_N 0.000848094
11 *3110:X 0.000157977
12 *809:115 0.000610105
13 *809:111 0.00155459
14 *809:90 0.00105303
15 *809:44 0.00189645
16 *809:38 0.00125927
17 *809:32 0.0012846
18 *809:28 0.000608048
19 *809:20 0.00104068
20 *809:14 0.000848449
21 *3038:GATE_N *878:10 0
22 *3040:GATE_N *2474:A2 0.000374065
23 *3040:GATE_N *2547:A2 5.33005e-05
24 *3040:GATE_N *2562:A2 0
25 *3040:GATE_N *2562:B1 0.000145724
26 *3040:GATE_N *2912:D 0.000172674
27 *3040:GATE_N *2944:GATE_N 0
28 *3040:GATE_N *2949:D 0.000167436
29 *3040:GATE_N *2952:GATE_N 0.000332458
30 *3040:GATE_N *3040:D 8.76257e-05
31 *3040:GATE_N *838:44 0
32 *3040:GATE_N *874:44 0
33 *3040:GATE_N *874:53 5.52302e-05
34 *3040:GATE_N *916:111 3.17148e-05
35 *3040:GATE_N *916:115 3.45894e-05
36 *3045:GATE_N *3045:D 5.33005e-05
37 *3046:GATE_N *2561:B1 0.000355352
38 *3046:GATE_N *860:16 6.14317e-05
39 *3046:GATE_N *860:34 8.37335e-05
40 *3046:GATE_N *894:142 4.43698e-05
41 *3046:GATE_N *914:157 7.50697e-05
42 *3047:GATE_N *874:10 3.06878e-06
43 *3047:GATE_N *884:57 4.47762e-05
44 *3047:GATE_N *914:22 0
45 *3048:GATE_N *2904:GATE_N 4.43256e-05
46 *3048:GATE_N *3048:D 1.92789e-05
47 *3048:GATE_N *829:88 9.41642e-05
48 *3048:GATE_N *856:21 0.000240213
49 *3048:GATE_N *856:60 1.58163e-05
50 *3049:GATE_N *822:176 1.92905e-05
51 *3049:GATE_N *854:42 5.52302e-05
52 *3050:GATE_N *916:95 0.000167998
53 *3052:GATE_N *2608:A2 3.32631e-05
54 *3052:GATE_N *918:147 9.71197e-05
55 *809:14 *822:39 0.000104665
56 *809:14 *848:8 5.52302e-05
57 *809:14 *848:10 0.000102554
58 *809:14 *848:16 8.6229e-06
59 *809:20 *2539:B1 0.000350588
60 *809:20 *822:39 3.54356e-05
61 *809:20 *822:49 6.01582e-05
62 *809:20 *848:16 0.000134271
63 *809:20 *851:20 4.18471e-05
64 *809:20 *892:88 7.80096e-05
65 *809:20 *898:93 0
66 *809:20 *898:95 0
67 *809:20 *898:118 0
68 *809:20 *916:95 8.55871e-05
69 *809:28 *2833:GATE_N 2.40379e-05
70 *809:28 *822:49 0.000138769
71 *809:28 *829:69 7.91281e-05
72 *809:28 *829:73 4.23086e-05
73 *809:28 *851:20 0.00019367
74 *809:32 *822:49 7.6644e-05
75 *809:38 *2905:GATE_N 9.30603e-06
76 *809:38 *822:49 0.000323751
77 *809:38 *822:55 4.35131e-05
78 *809:38 *829:88 0.00010826
79 *809:38 *829:100 0.000153811
80 *809:44 *2942:GATE_N 0
81 *809:44 *3054:D 0
82 *809:44 *822:55 0.000106533
83 *809:44 *822:59 0
84 *809:44 *829:100 0
85 *809:44 *878:10 0.000141973
86 *809:44 *878:38 0
87 *809:44 *878:59 0
88 *809:90 *2833:GATE_N 9.18485e-05
89 *809:111 *2561:B1 3.25078e-05
90 *809:111 *2833:GATE_N 6.20656e-05
91 *809:111 *2949:D 5.52302e-05
92 *809:111 *822:117 0.000647985
93 *809:111 *822:134 0.000167436
94 *809:111 *838:105 0.000144762
95 *809:115 *2561:B1 0.000171375
96 *2451:A1 *809:44 4.46764e-05
97 *2452:A1 *809:44 0
98 *2452:B2 *809:44 0
99 *2452:C1 *809:44 0
100 *2460:B1 *809:44 3.48023e-05
101 *2485:A1 *809:28 1.02504e-05
102 *2485:A1 *809:32 1.87097e-05
103 *2485:A1 *809:38 6.8646e-06
104 *2493:B2 *3048:GATE_N 5.55288e-05
105 *2528:A1 *3045:GATE_N 2.59355e-05
106 *2537:B2 *3050:GATE_N 6.05161e-06
107 *2540:C1 *809:20 0.000159408
108 *2545:A *809:20 0
109 *2547:B2 *3046:GATE_N 0
110 *2548:B1 *809:20 2.95746e-06
111 *2552:A1 *3047:GATE_N 0
112 *2560:B *3040:GATE_N 0.000144773
113 *2562:B2 *3040:GATE_N 8.5048e-05
114 *3151:A *3047:GATE_N 7.34678e-05
115 *3169:A *3047:GATE_N 0.000204612
116 *3173:A *3047:GATE_N 2.19307e-05
117 *3173:A *809:44 1.11428e-05
118 *551:22 *3048:GATE_N 6.05161e-06
119 *551:22 *809:111 0.000773525
120 *805:12 *3050:GATE_N 0.000171289
121 *805:12 *809:20 0.000177815
122 *805:127 *3050:GATE_N 9.90367e-05
123 *807:119 *3046:GATE_N 5.62577e-05
124 *807:121 *3046:GATE_N 6.85617e-05
125 *807:121 *809:111 3.92854e-05
126 *807:121 *809:115 5.75896e-05
*RES
1 *3110:X *809:14 16.9429 
2 *809:14 *809:20 18.5357 
3 *809:20 *809:28 15.5357 
4 *809:28 *809:32 5.53571 
5 *809:32 *809:38 6.55357 
6 *809:38 *809:44 20.0893 
7 *809:44 *3047:GATE_N 29.2464 
8 *809:44 *3038:GATE_N 10.0321 
9 *809:38 *3049:GATE_N 14.3357 
10 *809:32 *3048:GATE_N 26.5679 
11 *809:28 *809:90 3.41071 
12 *809:90 *3041:GATE_N 10.0321 
13 *809:90 *809:111 25.625 
14 *809:111 *809:115 6.75 
15 *809:115 *3045:GATE_N 14.3357 
16 *809:115 *3046:GATE_N 24.6929 
17 *809:111 *3040:GATE_N 37.55 
18 *809:20 *3050:GATE_N 12.3 
19 *809:14 *3052:GATE_N 14.7464 
*END

*D_NET *810 0.0177823
*CONN
*I *3042:GATE_N I *D sky130_fd_sc_hd__dlxtn_1
*I *3051:GATE_N I *D sky130_fd_sc_hd__dlxtn_1
*I *3043:GATE_N I *D sky130_fd_sc_hd__dlxtn_1
*I *3053:GATE_N I *D sky130_fd_sc_hd__dlxtn_1
*I *3039:GATE_N I *D sky130_fd_sc_hd__dlxtn_1
*I *3044:GATE_N I *D sky130_fd_sc_hd__dlxtn_1
*I *3111:X O *D sky130_fd_sc_hd__clkbuf_2
*CAP
1 *3042:GATE_N 1.18799e-05
2 *3051:GATE_N 0
3 *3043:GATE_N 0
4 *3053:GATE_N 0
5 *3039:GATE_N 0.00114077
6 *3044:GATE_N 0.000382521
7 *3111:X 0.000261412
8 *810:106 0.000726257
9 *810:84 0.00158576
10 *810:41 0.00199539
11 *810:22 0.00171348
12 *810:16 0.000536276
13 *810:14 0.00116898
14 *3039:GATE_N *2792:GATE_N 3.67257e-05
15 *3039:GATE_N *3053:D 4.51611e-05
16 *3039:GATE_N *826:26 9.52769e-05
17 *3039:GATE_N *830:31 5.51598e-05
18 *3039:GATE_N *911:25 3.65078e-05
19 *3044:GATE_N *2606:B1 3.38136e-05
20 *3044:GATE_N *2916:GATE_N 0.000305979
21 *3044:GATE_N *865:47 0.000358971
22 *3044:GATE_N *898:161 0
23 *3044:GATE_N *933:39 0.000132577
24 *810:14 *2506:B1 0.00030574
25 *810:14 *3059:D 0.000161068
26 *810:14 *866:19 2.20608e-05
27 *810:16 *2506:B1 9.82592e-05
28 *810:16 *866:8 1.99099e-05
29 *810:16 *866:19 5.63396e-05
30 *810:22 *2506:A2 0
31 *810:22 *2916:GATE_N 7.93635e-05
32 *810:22 *828:70 0.000349551
33 *810:22 *839:75 0
34 *810:22 *866:8 6.74911e-05
35 *810:22 *867:28 7.60944e-05
36 *810:22 *895:81 0
37 *810:22 *962:10 3.92854e-05
38 *810:41 *2916:GATE_N 1.39726e-05
39 *810:41 *3053:D 0.000253042
40 *810:41 *828:70 2.27416e-05
41 *810:41 *845:31 0.000123577
42 *810:41 *845:33 2.77258e-05
43 *810:84 *3042:D 0.00012186
44 *810:84 *839:75 0.000650928
45 *810:84 *866:35 0.000114561
46 *810:84 *893:59 8.17274e-05
47 *810:106 *2496:A2 5.33005e-05
48 *810:106 *2504:A2 5.52238e-05
49 *810:106 *2843:D 5.52302e-05
50 *810:106 *829:20 7.2754e-05
51 *810:106 *839:16 7.02611e-05
52 *810:106 *839:50 5.01338e-05
53 *810:106 *866:35 0.000429338
54 *810:106 *869:33 0.000213865
55 *810:106 *893:59 0.000367241
56 *2503:C *810:106 6.57032e-05
57 *2503:D *810:106 0.00116594
58 *2504:B1 *810:106 5.52302e-05
59 *2504:B2 *810:106 5.33005e-05
60 *2506:B2 *810:14 6.9253e-05
61 *2602:A *810:106 7.50601e-05
62 *2603:B2 *810:106 0.000199391
63 *2616:B2 *810:22 0.000125724
64 *2618:B2 *3039:GATE_N 9.90367e-05
65 *2619:B2 *810:41 6.57032e-05
66 *3060:GATE_N *3044:GATE_N 0
67 *3076:GATE_N *3044:GATE_N 0.000150611
68 *3111:A *810:14 1.00375e-05
69 *3129:A *810:106 0.000212151
70 *3205:A *810:106 3.32631e-05
71 *498:16 *810:106 9.71197e-05
72 *531:18 *3039:GATE_N 0.000273016
73 *531:18 *810:41 0.000100305
74 *808:20 *810:16 2.14378e-05
75 *808:20 *810:22 5.92038e-05
76 *808:22 *3044:GATE_N 2.94278e-05
77 *808:22 *810:22 0.000145845
*RES
1 *3111:X *810:14 20.2821 
2 *810:14 *810:16 1.94643 
3 *810:16 *810:22 11.1071 
4 *810:22 *3044:GATE_N 24.0143 
5 *810:22 *810:41 16.9821 
6 *810:41 *3039:GATE_N 35.4607 
7 *810:41 *3053:GATE_N 9.3 
8 *810:16 *3043:GATE_N 13.8 
9 *810:14 *810:84 16.6786 
10 *810:84 *810:106 42.1071 
11 *810:106 *3051:GATE_N 9.3 
12 *810:84 *3042:GATE_N 9.72857 
*END

*D_NET *811 0.0321646
*CONN
*I *3027:GATE_N I *D sky130_fd_sc_hd__dlxtn_1
*I *3031:GATE_N I *D sky130_fd_sc_hd__dlxtn_1
*I *3033:GATE_N I *D sky130_fd_sc_hd__dlxtn_1
*I *3030:GATE_N I *D sky130_fd_sc_hd__dlxtn_1
*I *3025:GATE_N I *D sky130_fd_sc_hd__dlxtn_1
*I *3029:GATE_N I *D sky130_fd_sc_hd__dlxtn_1
*I *3034:GATE_N I *D sky130_fd_sc_hd__dlxtn_1
*I *3032:GATE_N I *D sky130_fd_sc_hd__dlxtn_1
*I *3022:GATE_N I *D sky130_fd_sc_hd__dlxtn_1
*I *3024:GATE_N I *D sky130_fd_sc_hd__dlxtn_1
*I *3112:X O *D sky130_fd_sc_hd__buf_2
*CAP
1 *3027:GATE_N 0
2 *3031:GATE_N 0.00114831
3 *3033:GATE_N 3.95283e-05
4 *3030:GATE_N 0.000195
5 *3025:GATE_N 4.90597e-05
6 *3029:GATE_N 0
7 *3034:GATE_N 0.000432987
8 *3032:GATE_N 7.64703e-05
9 *3022:GATE_N 0
10 *3024:GATE_N 0.000474729
11 *3112:X 0.000254924
12 *811:143 0.00205559
13 *811:97 0.000873549
14 *811:60 0.00142755
15 *811:54 0.00106491
16 *811:52 0.00146297
17 *811:36 0.00122363
18 *811:32 0.00154529
19 *811:26 0.00236388
20 *811:20 0.00195603
21 *811:10 0.00187735
22 *3024:GATE_N *2645:A1 0
23 *3024:GATE_N *873:44 0.000231391
24 *3024:GATE_N *877:18 0.000166528
25 *3024:GATE_N *877:38 2.37575e-05
26 *3024:GATE_N *1016:22 9.0145e-05
27 *3025:GATE_N *872:55 4.27438e-05
28 *3030:GATE_N *2486:B1 0
29 *3030:GATE_N *852:16 1.92905e-05
30 *3030:GATE_N *894:29 0
31 *3030:GATE_N *916:19 1.94879e-05
32 *3030:GATE_N *918:25 0
33 *3031:GATE_N *3031:D 0.000145398
34 *3031:GATE_N *3064:D 1.58163e-05
35 *3031:GATE_N *3174:A 0.000167862
36 *3031:GATE_N *827:62 3.69697e-05
37 *3031:GATE_N *838:105 0.000808564
38 *3031:GATE_N *854:79 1.02976e-05
39 *3031:GATE_N *855:113 8.15095e-05
40 *3031:GATE_N *859:67 0.000532447
41 *3031:GATE_N *859:69 0.000247771
42 *3031:GATE_N *896:50 2.56219e-05
43 *3032:GATE_N *855:10 0.000129515
44 *3032:GATE_N *855:20 5.52302e-05
45 *3034:GATE_N *2917:GATE_N 8.46895e-05
46 *3034:GATE_N *3158:A 0
47 *3034:GATE_N *831:28 0
48 *3034:GATE_N *851:53 1.19416e-05
49 *3034:GATE_N *862:8 0
50 *3034:GATE_N *910:10 0
51 *3034:GATE_N *923:26 0
52 *811:10 *2507:B1 2.00038e-05
53 *811:10 *915:48 3.00454e-05
54 *811:10 *917:73 2.79421e-05
55 *811:20 *2529:A2 0.000135157
56 *811:20 *2529:B1 0.000184745
57 *811:20 *2614:A2 9.27685e-05
58 *811:20 *2619:B1 0
59 *811:20 *2899:GATE_N 9.26373e-05
60 *811:20 *825:130 0.000519279
61 *811:20 *845:29 1.90936e-05
62 *811:20 *860:34 0.000146474
63 *811:20 *863:38 0.000425463
64 *811:20 *893:97 0
65 *811:20 *894:127 0.000109139
66 *811:20 *896:44 0
67 *811:20 *896:48 0
68 *811:20 *915:48 0.000401448
69 *811:26 *2529:A2 3.48705e-05
70 *811:26 *2922:D 4.78938e-05
71 *811:26 *2922:GATE_N 2.89016e-05
72 *811:26 *822:49 0
73 *811:26 *852:6 1.56e-05
74 *811:26 *852:16 5.06983e-05
75 *811:26 *852:40 4.33437e-05
76 *811:26 *863:38 0.0007411
77 *811:36 *872:12 0.000102893
78 *811:36 *894:29 0
79 *811:36 *916:19 0.000390003
80 *811:52 *855:8 0.000446597
81 *811:52 *855:10 0.000271352
82 *811:52 *855:20 5.33005e-05
83 *811:52 *855:113 7.49387e-06
84 *811:52 *871:10 1.31516e-05
85 *811:52 *872:18 0.000218685
86 *811:52 *872:55 0.000123617
87 *811:52 *914:16 0.000285271
88 *811:54 *3080:D 3.17148e-05
89 *811:60 *2555:A2 0
90 *811:60 *2645:S 5.06983e-05
91 *811:60 *2910:D 0
92 *811:60 *2910:GATE_N 0.000211765
93 *811:60 *2937:GATE_N 0
94 *811:60 *3065:D 2.19684e-05
95 *811:60 *3081:D 0
96 *811:60 *827:70 4.25622e-05
97 *811:60 *827:100 0
98 *811:60 *853:12 3.28804e-05
99 *811:97 *3029:D 9.25014e-06
100 *811:97 *3080:D 0.000147715
101 *811:97 *827:100 0
102 *811:97 *831:28 0
103 *811:143 *2905:D 0.000150618
104 *811:143 *3041:D 0.000145753
105 *811:143 *822:49 0
106 *811:143 *854:51 1.40306e-05
107 *811:143 *854:79 7.94155e-05
108 *811:143 *911:72 0
109 *2453:A1 *811:60 0
110 *2454:B2 *3024:GATE_N 0.000226513
111 *2486:A1 *811:52 0.000315144
112 *2487:C1 *811:36 5.59013e-05
113 *2493:A1 *811:143 0
114 *2558:C *811:60 0.00014955
115 *2564:A1 *811:52 0.000144773
116 *2564:B2 *811:97 0
117 *2572:A1 *3031:GATE_N 0.000177815
118 *2572:B2 *3031:GATE_N 9.20635e-06
119 *2592:B2 *811:32 0.00038773
120 *2606:C1 *811:20 2.4165e-05
121 *2611:B2 *3034:GATE_N 6.42242e-05
122 *2639:B *3031:GATE_N 0.000190053
123 *3070:GATE_N *811:60 0
124 *3079:GATE_N *3031:GATE_N 0
125 *3084:GATE_N *811:20 0
126 *3106:A *811:26 2.06112e-05
127 *3106:A *811:32 7.46146e-05
128 *3112:A *811:10 1.61917e-05
129 *3149:A *811:26 5.52302e-05
130 *3149:A *811:143 0
131 *3152:A *811:52 7.01963e-05
132 *3153:A *811:52 0.000319381
133 *3159:A *3030:GATE_N 5.52302e-05
134 *3167:A *3030:GATE_N 0
135 *379:10 *811:143 0
136 *381:16 *3024:GATE_N 0.000188586
137 *384:14 *811:60 2.26973e-05
138 *390:12 *3031:GATE_N 0
139 *441:31 *811:10 0.000120072
140 *441:31 *811:20 0.0010177
141 *585:24 *3034:GATE_N 2.89016e-05
142 *590:24 *811:143 0.00012401
143 *605:18 *811:60 0
144 *805:34 *811:97 4.08637e-05
145 *805:42 *3034:GATE_N 9.71197e-05
146 *805:42 *811:97 5.33005e-05
147 *805:72 *811:97 0.000618694
148 *805:78 *811:54 0
149 *805:78 *811:60 0
150 *805:78 *811:97 0
151 *805:127 *811:143 1.01075e-05
*RES
1 *3112:X *811:10 17.6214 
2 *811:10 *811:20 44.125 
3 *811:20 *811:26 14.0089 
4 *811:26 *811:32 9.31727 
5 *811:32 *811:36 9.63393 
6 *811:36 *811:52 33.2679 
7 *811:52 *811:54 0.732143 
8 *811:54 *811:60 22.9821 
9 *811:60 *3024:GATE_N 29.9607 
10 *811:60 *3022:GATE_N 9.3 
11 *811:54 *3032:GATE_N 15.5679 
12 *811:52 *811:97 14.9821 
13 *811:97 *3034:GATE_N 26.6571 
14 *811:97 *3029:GATE_N 9.3 
15 *811:36 *3025:GATE_N 10.2643 
16 *811:32 *3030:GATE_N 17.0411 
17 *811:26 *811:143 19.2411 
18 *811:143 *3033:GATE_N 10.0321 
19 *811:143 *3031:GATE_N 44.05 
20 *811:10 *3027:GATE_N 13.8 
*END

*D_NET *812 0.0236239
*CONN
*I *3026:GATE_N I *D sky130_fd_sc_hd__dlxtn_1
*I *3037:GATE_N I *D sky130_fd_sc_hd__dlxtn_1
*I *3035:GATE_N I *D sky130_fd_sc_hd__dlxtn_1
*I *3023:GATE_N I *D sky130_fd_sc_hd__dlxtn_1
*I *3028:GATE_N I *D sky130_fd_sc_hd__dlxtn_1
*I *3036:GATE_N I *D sky130_fd_sc_hd__dlxtn_1
*I *3113:X O *D sky130_fd_sc_hd__clkbuf_2
*CAP
1 *3026:GATE_N 0
2 *3037:GATE_N 0.000247128
3 *3035:GATE_N 0.000853757
4 *3023:GATE_N 0.000144461
5 *3028:GATE_N 0
6 *3036:GATE_N 0.000452972
7 *3113:X 0.000637391
8 *812:76 0.00216608
9 *812:55 0.00248547
10 *812:36 0.00228507
11 *812:28 0.00223632
12 *812:10 0.00211209
13 *3023:GATE_N *876:10 4.61698e-05
14 *3035:GATE_N *2418:D 5.33005e-05
15 *3035:GATE_N *2891:D 0.000153792
16 *3035:GATE_N *3067:D 0.000214855
17 *3035:GATE_N *850:31 4.87953e-05
18 *3035:GATE_N *875:10 0.000177676
19 *3035:GATE_N *892:33 0.000209647
20 *3035:GATE_N *939:38 2.24646e-05
21 *3035:GATE_N *939:40 0.000114759
22 *3035:GATE_N *939:46 0.000113535
23 *3035:GATE_N *941:21 1.98839e-05
24 *3035:GATE_N *944:12 4.22776e-05
25 *3035:GATE_N *944:16 9.96264e-05
26 *3035:GATE_N *948:20 0.000170661
27 *3036:GATE_N *2605:B1 6.27272e-06
28 *3036:GATE_N *825:18 1.92905e-05
29 *3036:GATE_N *848:27 0.000139907
30 *3036:GATE_N *896:12 0.000486053
31 *3036:GATE_N *914:151 0
32 *3036:GATE_N *918:147 0
33 *3037:GATE_N *2628:A 0.000308997
34 *3037:GATE_N *915:54 0.000395492
35 *3037:GATE_N *962:16 0.000116374
36 *812:10 *3058:D 0.000117621
37 *812:10 *919:29 0.00048746
38 *812:28 *826:12 0.000181548
39 *812:28 *826:16 0.000216771
40 *812:28 *881:120 2.74457e-05
41 *812:28 *919:29 0
42 *812:28 *933:24 0.000204424
43 *812:36 *2463:B1 0.000171029
44 *812:36 *2605:B1 0
45 *812:36 *826:16 0.00010326
46 *812:36 *933:24 5.55887e-05
47 *812:55 *2519:B1 1.21955e-05
48 *812:55 *2541:A2 0.0007476
49 *812:55 *861:14 0
50 *812:76 *2519:B1 0.000846789
51 *812:76 *2831:GATE_N 0
52 *812:76 *2932:GATE_N 0.000118705
53 *812:76 *826:47 9.7131e-05
54 *812:76 *829:37 0
55 *812:76 *830:20 0.000895272
56 *812:76 *876:10 3.69047e-06
57 *812:76 *876:21 2.42516e-05
58 *2470:B *812:76 5.33005e-05
59 *2514:A *812:28 0.000406896
60 *2607:A1 *3036:GATE_N 5.30637e-06
61 *2613:A *3036:GATE_N 1.26634e-05
62 *2618:A1 *3037:GATE_N 0.00022266
63 *2618:A1 *812:36 0.000212653
64 *2618:B2 *812:36 0.000140152
65 *2624:A *812:55 0
66 *3122:A *812:36 0
67 *3126:A *3036:GATE_N 0
68 *3128:A *812:10 4.6025e-06
69 *3128:A *812:28 9.60337e-06
70 *3171:A *3035:GATE_N 1.67002e-05
71 *3214:A *812:28 0.000810149
72 *383:10 *3035:GATE_N 0.00018506
73 *485:12 *812:10 8.82347e-05
74 *499:18 *3035:GATE_N 0.000163822
75 *570:18 *812:28 0.000400719
*RES
1 *3113:X *812:10 23.9607 
2 *812:10 *812:28 22.4692 
3 *812:28 *812:36 10.8839 
4 *812:36 *3036:GATE_N 22.1125 
5 *812:36 *812:55 9.95439 
6 *812:55 *3028:GATE_N 13.8 
7 *812:55 *812:76 28.4821 
8 *812:76 *3023:GATE_N 11.3893 
9 *812:76 *3035:GATE_N 39.0143 
10 *812:28 *3037:GATE_N 21.4607 
11 *812:10 *3026:GATE_N 13.8 
*END

*D_NET *813 0.0147387
*CONN
*I *2648:A1 I *D sky130_fd_sc_hd__mux2_1
*I *3245:X O *D sky130_fd_sc_hd__buf_1
*CAP
1 *2648:A1 0
2 *3245:X 0.00548389
3 *813:26 0.00548389
4 *813:26 *2648:A0 7.21208e-05
5 *813:26 *2658:A0 0.000172922
6 *813:26 *3350:A 4.19624e-06
7 *813:26 *884:16 0.000222504
8 *813:26 *889:26 0.00126054
9 *813:26 *1016:22 0.0015994
10 PWDATA[2] *813:26 0.000117997
11 rdata[14] *813:26 2.06112e-05
12 *2482:B2 *813:26 0
13 *2642:B *813:26 0.000259814
14 *3162:A *813:26 2.21972e-05
15 *561:14 *813:26 0
16 *570:18 *813:26 1.86379e-05
17 *671:26 *813:26 0
*RES
1 *3245:X *813:26 45.7758 
2 *813:26 *2648:A1 9.3 
*END

*D_NET *814 0.0248973
*CONN
*I *3020:GATE_N I *D sky130_fd_sc_hd__dlxtn_1
*I *3009:GATE_N I *D sky130_fd_sc_hd__dlxtn_1
*I *3017:GATE_N I *D sky130_fd_sc_hd__dlxtn_1
*I *3015:GATE_N I *D sky130_fd_sc_hd__dlxtn_1
*I *3008:GATE_N I *D sky130_fd_sc_hd__dlxtn_1
*I *3006:GATE_N I *D sky130_fd_sc_hd__dlxtn_1
*I *3013:GATE_N I *D sky130_fd_sc_hd__dlxtn_1
*I *3016:GATE_N I *D sky130_fd_sc_hd__dlxtn_1
*I *3018:GATE_N I *D sky130_fd_sc_hd__dlxtn_1
*I *3014:GATE_N I *D sky130_fd_sc_hd__dlxtn_1
*I *3114:X O *D sky130_fd_sc_hd__buf_2
*CAP
1 *3020:GATE_N 0.000275656
2 *3009:GATE_N 0.000140036
3 *3017:GATE_N 0
4 *3015:GATE_N 0.000841337
5 *3008:GATE_N 0
6 *3006:GATE_N 0.00101704
7 *3013:GATE_N 0.000417206
8 *3016:GATE_N 0.000324678
9 *3018:GATE_N 0.000371592
10 *3014:GATE_N 0
11 *3114:X 0.000219645
12 *814:120 0.00133027
13 *814:116 0.0015662
14 *814:110 0.000453275
15 *814:80 0.00165971
16 *814:72 0.00162774
17 *814:66 0.00107884
18 *814:45 0.0010252
19 *814:37 0.00103805
20 *814:12 0.000598959
21 *3006:GATE_N *2455:A2 0.000132114
22 *3006:GATE_N *2846:GATE_N 3.08664e-05
23 *3006:GATE_N *3006:D 0.000114437
24 *3006:GATE_N *873:50 0
25 *3006:GATE_N *877:40 5.94199e-05
26 *3009:GATE_N *2491:A2 0.000191699
27 *3009:GATE_N *2491:C1 0.00040086
28 *3009:GATE_N *928:47 4.43256e-05
29 *3013:GATE_N *833:69 0.000216771
30 *3013:GATE_N *833:80 0.000367389
31 *3013:GATE_N *855:32 0
32 *3013:GATE_N *862:45 0.000126639
33 *3015:GATE_N *2855:GATE_N 9.63581e-05
34 *3015:GATE_N *3015:D 5.61947e-05
35 *3015:GATE_N *923:50 0.000500808
36 *3018:GATE_N *851:59 0.000140933
37 *3018:GATE_N *904:22 2.05938e-05
38 *3018:GATE_N *908:34 0.000147474
39 *3020:GATE_N *816:18 0.000441731
40 *3020:GATE_N *934:12 1.24368e-05
41 *814:12 *2966:D 4.97825e-05
42 *814:12 *861:16 1.34737e-05
43 *814:12 *861:47 1.28166e-05
44 *814:12 *904:16 0
45 *814:37 *2544:A2 5.52302e-05
46 *814:37 *2982:D 3.32631e-05
47 *814:37 *816:18 0.000107012
48 *814:37 *861:18 0.000121411
49 *814:37 *904:22 2.66026e-05
50 *814:37 *906:93 0.000338159
51 *814:37 *908:34 8.07879e-05
52 *814:45 *2544:A2 1.80947e-05
53 *814:45 *851:53 5.7616e-05
54 *814:45 *851:57 0.000189908
55 *814:45 *904:22 0
56 *814:45 *928:39 0.000211735
57 *814:66 *904:22 1.72872e-05
58 *814:66 *904:24 0.000115689
59 *814:66 *904:28 0.000154198
60 *814:66 *904:38 0
61 *814:66 *928:39 2.16689e-05
62 *814:66 *928:47 0.00059464
63 *814:72 *2565:B1 8.25843e-06
64 *814:72 *2568:C1 1.0562e-05
65 *814:72 *2576:B1 0.00018359
66 *814:72 *2977:GATE_N 0
67 *814:72 *900:71 4.58031e-05
68 *814:72 *904:38 0
69 *814:72 *928:47 5.5474e-05
70 *814:72 *934:30 3.46992e-05
71 *814:72 *934:51 4.43698e-05
72 *814:80 *2565:B1 0.00117673
73 *814:80 *2888:GATE_N 8.16036e-05
74 *814:80 *3000:GATE_N 0.000223456
75 *814:80 *833:69 0.000320031
76 *814:80 *855:32 0
77 *814:110 *900:52 8.07879e-05
78 *814:110 *904:53 6.98302e-05
79 *814:116 *2456:A2 4.38243e-05
80 *814:116 *2479:A2 0.00011365
81 *814:116 *2480:C1 0.000144903
82 *814:116 *900:52 3.34366e-05
83 *814:116 *904:53 0.000868417
84 *814:116 *904:61 2.38697e-05
85 *814:116 *908:83 0.000309916
86 *814:116 *934:70 0.00016384
87 *814:120 *873:50 1.58163e-05
88 *814:120 *873:54 3.78636e-05
89 *2456:A1 *3006:GATE_N 4.03064e-05
90 *2479:A1 *814:120 6.13757e-06
91 *2479:B2 *3006:GATE_N 4.95401e-05
92 *2480:A1 *3015:GATE_N 2.72967e-05
93 *2480:B1 *814:116 4.53427e-05
94 *2525:A *814:12 5.33433e-05
95 *2536:B *3018:GATE_N 7.97128e-05
96 *2543:A1 *3020:GATE_N 7.49387e-06
97 *2543:A1 *814:37 1.74352e-05
98 *2543:B2 *814:37 9.90367e-05
99 *2544:C1 *3020:GATE_N 7.16452e-05
100 *2545:C *814:37 0.000181796
101 *2545:C *814:45 8.6229e-06
102 *2565:B2 *814:80 0
103 *2567:B2 *3013:GATE_N 4.46186e-06
104 *2567:B2 *814:80 5.33882e-05
105 *2578:A1 *3015:GATE_N 1.40306e-05
106 *2589:A1 *3018:GATE_N 0.000227539
107 *3120:A *814:12 0
108 *3132:A *814:45 6.53769e-05
109 *3134:A *814:12 0.000338153
110 *3134:A *814:37 3.52339e-05
111 *637:20 *3018:GATE_N 7.48091e-05
*RES
1 *3114:X *814:12 23.6214 
2 *814:12 *3014:GATE_N 9.3 
3 *814:12 *814:37 27.6429 
4 *814:37 *814:45 13.7857 
5 *814:45 *3018:GATE_N 29.6393 
6 *814:45 *814:66 8.32143 
7 *814:66 *814:72 14.4464 
8 *814:72 *814:80 24.3214 
9 *814:80 *3016:GATE_N 18.5857 
10 *814:80 *3013:GATE_N 23.8179 
11 *814:72 *814:110 5.53571 
12 *814:110 *814:116 18.8214 
13 *814:116 *814:120 4.03571 
14 *814:120 *3006:GATE_N 32.9964 
15 *814:120 *3008:GATE_N 9.3 
16 *814:116 *3015:GATE_N 26.2643 
17 *814:110 *3017:GATE_N 13.8 
18 *814:66 *3009:GATE_N 18.8536 
19 *814:37 *3020:GATE_N 15.6036 
*END

*D_NET *815 0.0166379
*CONN
*I *3019:GATE_N I *D sky130_fd_sc_hd__dlxtn_1
*I *3010:GATE_N I *D sky130_fd_sc_hd__dlxtn_1
*I *3011:GATE_N I *D sky130_fd_sc_hd__dlxtn_1
*I *3012:GATE_N I *D sky130_fd_sc_hd__dlxtn_1
*I *3007:GATE_N I *D sky130_fd_sc_hd__dlxtn_1
*I *3021:GATE_N I *D sky130_fd_sc_hd__dlxtn_1
*I *3115:X O *D sky130_fd_sc_hd__dlymetal6s2s_1
*CAP
1 *3019:GATE_N 0.000152679
2 *3010:GATE_N 0
3 *3011:GATE_N 0
4 *3012:GATE_N 0
5 *3007:GATE_N 0.00140358
6 *3021:GATE_N 0.000277724
7 *3115:X 0
8 *815:38 0.00253689
9 *815:28 0.00127977
10 *815:22 0.00191225
11 *815:12 0.00175178
12 *815:4 0.000416403
13 *3007:GATE_N *2401:A 8.55871e-05
14 *3007:GATE_N *2462:B1 3.63775e-05
15 *3007:GATE_N *2973:D 3.42509e-05
16 *3007:GATE_N *3007:D 2.40059e-05
17 *3007:GATE_N *821:16 1.40034e-05
18 *3007:GATE_N *834:44 7.71596e-05
19 *3007:GATE_N *837:31 0.000657129
20 *3007:GATE_N *844:45 2.55806e-05
21 *3007:GATE_N *875:34 0.00013107
22 *3007:GATE_N *903:24 7.49615e-05
23 *3019:GATE_N *2399:A 0
24 *3019:GATE_N *2399:B 5.83304e-05
25 *3019:GATE_N *3211:A 3.18676e-05
26 *3019:GATE_N *870:24 1.39841e-05
27 *3019:GATE_N *904:10 7.05216e-05
28 *3019:GATE_N *925:33 5.33433e-05
29 *3021:GATE_N *2524:A2 0.000196531
30 *3021:GATE_N *834:8 0.000100823
31 *3021:GATE_N *864:47 0.000162577
32 *815:12 *2962:D 0
33 *815:12 *2994:D 0.000313235
34 *815:12 *904:10 0.000444726
35 *815:12 *929:10 0
36 *815:22 *2978:D 3.14048e-05
37 *815:22 *2978:GATE_N 3.66852e-05
38 *815:22 *2979:D 0
39 *815:22 *2979:GATE_N 0.000393998
40 *815:22 *817:28 2.56237e-05
41 *815:22 *870:43 0.000302017
42 *815:28 *2979:GATE_N 0.000244087
43 *815:28 *818:14 0.000540582
44 *815:28 *821:22 6.05161e-06
45 *815:38 *2523:B1 0.000655988
46 *815:38 *3012:D 4.01768e-05
47 *815:38 *821:16 1.56e-05
48 *815:38 *821:18 6.09688e-05
49 *815:38 *821:22 0.000185
50 *2468:B2 *3007:GATE_N 0.00018077
51 *2500:B2 *815:12 5.01213e-05
52 *2501:B2 *815:22 5.62995e-05
53 *2521:B2 *815:38 0.000484997
54 *3118:A *3007:GATE_N 3.82242e-05
55 *3120:A *3007:GATE_N 6.52428e-05
56 *3130:A *3007:GATE_N 0.000361456
57 *3131:A *3007:GATE_N 9.20924e-05
58 *3134:A *3021:GATE_N 0.000314472
59 *3194:A *3019:GATE_N 1.74352e-05
60 *3194:A *815:12 6.49132e-05
61 *3213:A *3019:GATE_N 2.15363e-05
62 *805:54 *3007:GATE_N 1.49665e-05
*RES
1 *3115:X *815:4 9.3 
2 *815:4 *815:12 16.5 
3 *815:12 *815:22 28.2679 
4 *815:22 *815:28 15.2857 
5 *815:28 *815:38 17.0357 
6 *815:38 *3021:GATE_N 26.1929 
7 *815:38 *3007:GATE_N 44.2062 
8 *815:28 *3012:GATE_N 9.3 
9 *815:22 *3011:GATE_N 13.8 
10 *815:12 *3010:GATE_N 9.3 
11 *815:4 *3019:GATE_N 22.0321 
*END

*D_NET *816 0.0180585
*CONN
*I *3004:GATE_N I *D sky130_fd_sc_hd__dlxtn_1
*I *2993:GATE_N I *D sky130_fd_sc_hd__dlxtn_1
*I *2998:GATE_N I *D sky130_fd_sc_hd__dlxtn_1
*I *3002:GATE_N I *D sky130_fd_sc_hd__dlxtn_1
*I *2997:GATE_N I *D sky130_fd_sc_hd__dlxtn_1
*I *3000:GATE_N I *D sky130_fd_sc_hd__dlxtn_1
*I *2992:GATE_N I *D sky130_fd_sc_hd__dlxtn_1
*I *2990:GATE_N I *D sky130_fd_sc_hd__dlxtn_1
*I *2999:GATE_N I *D sky130_fd_sc_hd__dlxtn_1
*I *3001:GATE_N I *D sky130_fd_sc_hd__dlxtn_1
*I *3116:X O *D sky130_fd_sc_hd__buf_2
*CAP
1 *3004:GATE_N 1.99167e-05
2 *2993:GATE_N 0.00101116
3 *2998:GATE_N 0
4 *3002:GATE_N 7.0288e-05
5 *2997:GATE_N 0
6 *3000:GATE_N 0.000226089
7 *2992:GATE_N 0
8 *2990:GATE_N 0
9 *2999:GATE_N 0.000296194
10 *3001:GATE_N 4.63556e-05
11 *3116:X 0.00024931
12 *816:54 0.00116283
13 *816:44 0.00094815
14 *816:38 0.000734276
15 *816:30 0.00127697
16 *816:24 0.00055621
17 *816:20 0.000592388
18 *816:18 0.00136046
19 *816:10 0.00218651
20 *816:8 0.000494494
21 *2993:GATE_N *2887:GATE_N 0.000138348
22 *2993:GATE_N *2961:D 0.00017309
23 *2993:GATE_N *2961:GATE_N 0
24 *2993:GATE_N *833:12 0
25 *2993:GATE_N *833:14 0
26 *2993:GATE_N *908:12 0
27 *2993:GATE_N *921:109 0
28 *2993:GATE_N *923:36 0
29 *2993:GATE_N *928:39 0
30 *2993:GATE_N *928:51 0.000148189
31 *2993:GATE_N *934:22 0.000153163
32 *2999:GATE_N *3001:D 5.33334e-05
33 *2999:GATE_N *873:44 0.000146565
34 *2999:GATE_N *877:38 0.000276211
35 *3000:GATE_N *906:114 4.04221e-05
36 *3000:GATE_N *921:46 3.85645e-05
37 *3001:GATE_N *2479:A2 0
38 *3001:GATE_N *3001:D 0
39 *3002:GATE_N *2533:B1 5.06983e-05
40 *3004:GATE_N *2543:C1 9.90431e-05
41 *3004:GATE_N *928:33 5.33433e-05
42 *816:8 *847:57 0
43 *816:8 *928:33 0
44 *816:10 *2543:C1 0
45 *816:10 *928:33 0
46 *816:10 *928:39 0
47 *816:18 *2854:D 3.67142e-05
48 *816:18 *2998:D 0
49 *816:18 *836:10 0.000117189
50 *816:18 *836:152 5.33433e-05
51 *816:18 *906:93 4.58899e-05
52 *816:20 *2533:A2 0
53 *816:20 *2566:A2 0
54 *816:20 *2998:D 0
55 *816:20 *820:20 0
56 *816:20 *836:10 0.000367396
57 *816:20 *862:79 5.09277e-05
58 *816:20 *900:48 0
59 *816:20 *908:34 0
60 *816:24 *2566:A2 0
61 *816:24 *862:79 7.08001e-05
62 *816:24 *862:81 2.8266e-06
63 *816:30 *2588:A2 5.83304e-05
64 *816:30 *836:38 0
65 *816:30 *836:57 0.000259271
66 *816:30 *921:34 0.000259616
67 *816:30 *921:42 7.6644e-05
68 *816:30 *921:46 7.36311e-05
69 *816:30 *923:71 0.000161468
70 *816:30 *923:80 0.000113877
71 *816:38 *2455:A2 3.41517e-06
72 *816:38 *2455:B1 0.000183445
73 *816:38 *820:24 0
74 *816:38 *836:57 0.000295844
75 *816:38 *836:67 0.000655183
76 *816:38 *923:71 0.000228771
77 *816:44 *2455:A2 0.00012505
78 *816:44 *2455:B1 4.4873e-05
79 *816:44 *836:67 1.42165e-05
80 *816:44 *877:68 8.26816e-05
81 *816:54 *2455:A2 1.9416e-05
82 *816:54 *2846:GATE_N 9.14771e-06
83 *816:54 *2873:GATE_N 4.01462e-06
84 *816:54 *3001:D 0
85 *816:54 *877:38 0.000448558
86 *816:54 *877:68 1.00375e-05
87 *816:54 *904:91 0
88 *816:54 *928:63 0.000107575
89 *2456:C1 *816:38 4.1311e-05
90 *2457:B2 *816:38 5.41794e-05
91 *2458:B1 *816:38 0
92 *2480:B1 *816:54 0
93 *2488:B2 *2993:GATE_N 0
94 *2544:C1 *816:10 0
95 *2545:C *816:18 0.00018372
96 *2566:A1 *816:30 0.000150625
97 *2567:A1 *816:30 0.000177941
98 *2590:A1 *2993:GATE_N 0
99 *2591:A *2993:GATE_N 0
100 *2591:C *2993:GATE_N 7.8327e-05
101 *2592:B2 *2993:GATE_N 0
102 *3020:GATE_N *816:18 0.000441731
103 *3132:A *816:8 0
104 *3134:A *816:18 1.74352e-05
105 *496:16 *816:8 0
106 *496:16 *816:10 0
107 *814:37 *816:18 0.000107012
108 *814:80 *3000:GATE_N 0.000223456
*RES
1 *3116:X *816:8 17.8714 
2 *816:8 *816:10 3.46429 
3 *816:10 *816:18 22.6786 
4 *816:18 *816:20 7.71429 
5 *816:20 *816:24 7.05357 
6 *816:24 *816:30 18.0714 
7 *816:30 *816:38 19.2679 
8 *816:38 *816:44 8 
9 *816:44 *816:54 10.9563 
10 *816:54 *3001:GATE_N 14.5321 
11 *816:54 *2999:GATE_N 20.1214 
12 *816:44 *2990:GATE_N 13.8 
13 *816:38 *2992:GATE_N 9.3 
14 *816:30 *3000:GATE_N 26.6214 
15 *816:24 *2997:GATE_N 9.3 
16 *816:20 *3002:GATE_N 15.1571 
17 *816:18 *2998:GATE_N 13.8 
18 *816:10 *2993:GATE_N 33.2821 
19 *816:8 *3004:GATE_N 14.7464 
*END

*D_NET *817 0.0141171
*CONN
*I *3003:GATE_N I *D sky130_fd_sc_hd__dlxtn_1
*I *2991:GATE_N I *D sky130_fd_sc_hd__dlxtn_1
*I *2994:GATE_N I *D sky130_fd_sc_hd__dlxtn_1
*I *3005:GATE_N I *D sky130_fd_sc_hd__dlxtn_1
*I *2996:GATE_N I *D sky130_fd_sc_hd__dlxtn_1
*I *2995:GATE_N I *D sky130_fd_sc_hd__dlxtn_1
*I *3117:X O *D sky130_fd_sc_hd__dlymetal6s2s_1
*CAP
1 *3003:GATE_N 3.22655e-05
2 *2991:GATE_N 0.000355952
3 *2994:GATE_N 0.000263602
4 *3005:GATE_N 0.000374892
5 *2996:GATE_N 0.000412056
6 *2995:GATE_N 0.000517473
7 *3117:X 0.000452007
8 *817:84 0.000414988
9 *817:51 0.00120771
10 *817:30 0.00148891
11 *817:28 0.0020255
12 *817:24 0.00169001
13 *2991:GATE_N *2399:A 0.000376594
14 *2991:GATE_N *2500:A2 0.000349837
15 *2991:GATE_N *840:103 0.000195547
16 *2991:GATE_N *850:61 9.25014e-06
17 *2991:GATE_N *903:18 0
18 *2991:GATE_N *909:28 0.000183875
19 *2991:GATE_N *909:30 0.000148911
20 *2991:GATE_N *929:58 0.000111459
21 *2991:GATE_N *936:49 0.000309273
22 *2995:GATE_N *2963:D 0
23 *2995:GATE_N *3011:D 4.53889e-05
24 *2996:GATE_N *2523:B1 0
25 *2996:GATE_N *2962:GATE_N 0
26 *2996:GATE_N *2980:GATE_N 0
27 *2996:GATE_N *3012:D 0
28 *3003:GATE_N *2500:A2 3.97194e-05
29 *3003:GATE_N *925:33 9.60875e-05
30 *817:24 *2599:A2 0.00013292
31 *817:24 *819:23 9.91086e-05
32 *817:24 *850:57 2.6269e-05
33 *817:24 *925:33 0.000407315
34 *817:28 *2500:A2 2.14757e-05
35 *817:28 *2978:D 1.98839e-05
36 *817:28 *2978:GATE_N 0.000185964
37 *817:28 *870:43 0.000143635
38 *817:28 *925:33 0.000181796
39 *817:30 *2883:D 4.75911e-05
40 *817:30 *2962:GATE_N 0
41 *817:30 *2963:D 0
42 *817:30 *2978:GATE_N 0
43 *817:30 *2979:D 0
44 *817:30 *866:53 0
45 *817:30 *866:100 0.000139653
46 *817:51 *2883:D 0.000187244
47 *817:51 *2962:GATE_N 0
48 *817:51 *2963:D 0
49 *817:84 *2399:A 1.37292e-05
50 *817:84 *850:61 5.41794e-05
51 *2500:A1 *817:28 9.60939e-05
52 *2500:B2 *817:28 0.000615118
53 *2502:B1 *817:28 1.4966e-05
54 *2512:B2 *2995:GATE_N 3.07932e-05
55 *2512:B2 *817:30 0.000131247
56 *2523:A1 *2996:GATE_N 0.00022217
57 *3117:A *817:24 8.673e-05
58 *3118:A *2991:GATE_N 9.88232e-05
59 *3119:A *817:24 3.34687e-05
60 *815:22 *817:28 2.56237e-05
*RES
1 *3117:X *817:24 26.4607 
2 *817:24 *817:28 21.0536 
3 *817:28 *817:30 10.9018 
4 *817:30 *2995:GATE_N 20.7018 
5 *817:30 *817:51 7.91964 
6 *817:51 *2996:GATE_N 21.2107 
7 *817:51 *3005:GATE_N 19.2643 
8 *817:28 *2994:GATE_N 18.0321 
9 *817:24 *817:84 5.23214 
10 *817:84 *2991:GATE_N 26.6393 
11 *817:84 *3003:GATE_N 14.7464 
*END

*D_NET *818 0.0188503
*CONN
*I *2979:GATE_N I *D sky130_fd_sc_hd__dlxtn_1
*I *2982:GATE_N I *D sky130_fd_sc_hd__dlxtn_1
*I *2986:GATE_N I *D sky130_fd_sc_hd__dlxtn_1
*I *2981:GATE_N I *D sky130_fd_sc_hd__dlxtn_1
*I *2984:GATE_N I *D sky130_fd_sc_hd__dlxtn_1
*I *2977:GATE_N I *D sky130_fd_sc_hd__dlxtn_1
*I *2985:GATE_N I *D sky130_fd_sc_hd__dlxtn_1
*I *2983:GATE_N I *D sky130_fd_sc_hd__dlxtn_1
*I *2974:GATE_N I *D sky130_fd_sc_hd__dlxtn_1
*I *2976:GATE_N I *D sky130_fd_sc_hd__dlxtn_1
*I *3118:X O *D sky130_fd_sc_hd__buf_2
*CAP
1 *2979:GATE_N 0.000335854
2 *2982:GATE_N 0.000623629
3 *2986:GATE_N 0
4 *2981:GATE_N 3.72704e-05
5 *2984:GATE_N 0.000130727
6 *2977:GATE_N 0.000394504
7 *2985:GATE_N 0
8 *2983:GATE_N 0.000365349
9 *2974:GATE_N 0
10 *2976:GATE_N 9.21209e-05
11 *3118:X 0.000205725
12 *818:56 0.000403319
13 *818:54 0.00177251
14 *818:43 0.00166127
15 *818:30 0.00100029
16 *818:26 0.000966552
17 *818:24 0.000811038
18 *818:18 0.000804708
19 *818:14 0.00166032
20 *818:8 0.00129845
21 *2977:GATE_N *2568:C1 0.000316184
22 *2977:GATE_N *853:63 0
23 *2977:GATE_N *855:20 0.000172536
24 *2977:GATE_N *900:79 0.000160498
25 *2977:GATE_N *908:83 0
26 *2977:GATE_N *934:51 0
27 *2979:GATE_N *2867:GATE_N 0.000234523
28 *2979:GATE_N *2979:D 0
29 *2982:GATE_N *2587:B1 0.000103646
30 *2983:GATE_N *2557:C1 0.000121958
31 *2983:GATE_N *833:52 0.000485543
32 *2983:GATE_N *853:65 0
33 *2983:GATE_N *900:79 9.14882e-05
34 *2983:GATE_N *934:70 0.000170898
35 *2984:GATE_N *2984:D 5.52238e-05
36 *818:14 *2867:GATE_N 7.57773e-05
37 *818:14 *2884:D 0
38 *818:14 *2890:GATE_N 4.78932e-05
39 *818:14 *2963:GATE_N 0.000338811
40 *818:14 *2964:GATE_N 0.00043807
41 *818:14 *832:47 0
42 *818:14 *864:67 0
43 *818:18 *2874:D 0
44 *818:18 *2874:GATE_N 0.000209584
45 *818:18 *2890:GATE_N 0.000198729
46 *818:18 *2986:D 0
47 *818:24 *2869:D 6.26466e-05
48 *818:24 *2874:GATE_N 0
49 *818:24 *833:80 0
50 *818:26 *833:80 0
51 *818:30 *2968:GATE_N 0.00033651
52 *818:30 *2976:D 1.76135e-05
53 *818:30 *3016:D 0.000175512
54 *818:30 *833:69 0
55 *818:30 *833:80 0
56 *818:43 *2976:D 5.52238e-05
57 *818:54 *2456:B1 3.97677e-05
58 *818:54 *923:63 2.97829e-05
59 *818:56 *853:63 0
60 *818:56 *853:65 0
61 *818:56 *900:79 4.00025e-05
62 *2457:B2 *818:54 3.28378e-06
63 *2477:B2 *818:43 9.60875e-05
64 *2478:A1 *818:54 0.000142952
65 *2478:B2 *818:54 5.38265e-05
66 *2478:C1 *818:54 1.21258e-05
67 *2481:B *818:54 0.00082132
68 *2576:A1 *2977:GATE_N 0
69 *814:72 *2977:GATE_N 0
70 *815:22 *2979:GATE_N 0.000393998
71 *815:28 *2979:GATE_N 0.000244087
72 *815:28 *818:14 0.000540582
*RES
1 *3118:X *818:8 15.9786 
2 *818:8 *818:14 20.0179 
3 *818:14 *818:18 11.9107 
4 *818:18 *818:24 13.3036 
5 *818:24 *818:26 4.375 
6 *818:26 *818:30 17.6786 
7 *818:30 *2976:GATE_N 10.675 
8 *818:30 *818:43 5.375 
9 *818:43 *2974:GATE_N 9.3 
10 *818:43 *818:54 22.1964 
11 *818:54 *818:56 1.03571 
12 *818:56 *2983:GATE_N 23.5679 
13 *818:56 *2985:GATE_N 13.8 
14 *818:54 *2977:GATE_N 23.3 
15 *818:26 *2984:GATE_N 15.9964 
16 *818:24 *2981:GATE_N 14.3357 
17 *818:18 *2986:GATE_N 9.3 
18 *818:14 *2982:GATE_N 23.7821 
19 *818:8 *2979:GATE_N 23.175 
*END

*D_NET *819 0.0156562
*CONN
*I *2975:GATE_N I *D sky130_fd_sc_hd__dlxtn_1
*I *2988:GATE_N I *D sky130_fd_sc_hd__dlxtn_1
*I *2989:GATE_N I *D sky130_fd_sc_hd__dlxtn_1
*I *2978:GATE_N I *D sky130_fd_sc_hd__dlxtn_1
*I *2980:GATE_N I *D sky130_fd_sc_hd__dlxtn_1
*I *2987:GATE_N I *D sky130_fd_sc_hd__dlxtn_1
*I *3119:X O *D sky130_fd_sc_hd__dlymetal6s2s_1
*CAP
1 *2975:GATE_N 0
2 *2988:GATE_N 0.000324967
3 *2989:GATE_N 0
4 *2978:GATE_N 0.000619111
5 *2980:GATE_N 0.000666688
6 *2987:GATE_N 0.00021943
7 *3119:X 0
8 *819:39 0.00151413
9 *819:35 0.000995222
10 *819:27 0.00116233
11 *819:23 0.000608639
12 *819:4 0.000757593
13 *2978:GATE_N *2501:C1 0
14 *2978:GATE_N *2512:A2 8.16036e-05
15 *2978:GATE_N *2521:A2 0
16 *2978:GATE_N *2522:A2 0.000156241
17 *2978:GATE_N *2962:D 0.0002253
18 *2978:GATE_N *2962:GATE_N 0.000478421
19 *2978:GATE_N *2978:D 5.52238e-05
20 *2980:GATE_N *2522:A2 0.000594595
21 *2980:GATE_N *2523:A2 1.03037e-05
22 *2980:GATE_N *2523:B1 0
23 *2980:GATE_N *2852:GATE_N 8.26162e-05
24 *2980:GATE_N *2962:GATE_N 0.000123409
25 *2987:GATE_N *2987:D 0.000184745
26 *2987:GATE_N *938:26 0
27 *2988:GATE_N *821:10 0.000171368
28 *2988:GATE_N *821:16 0.000144038
29 *2988:GATE_N *837:83 2.59355e-05
30 *2988:GATE_N *864:47 1.92789e-05
31 *819:23 *2599:A2 5.15808e-05
32 *819:23 *3083:D 0.000171375
33 *819:23 *832:33 0.000617667
34 *819:23 *850:31 0.000158974
35 *819:23 *850:33 0.000209476
36 *819:23 *903:28 0.000172233
37 *819:27 *2469:A2 0.000124521
38 *819:27 *905:20 4.35421e-05
39 *819:27 *905:94 0
40 *819:35 *2469:A2 0.000269422
41 *819:35 *2989:D 8.25843e-06
42 *819:35 *905:20 0.000429401
43 *819:35 *905:33 1.40034e-05
44 *2510:A1 *819:35 4.46231e-06
45 *2510:A1 *819:39 0.00015153
46 *2511:B2 *2978:GATE_N 0.000335208
47 *2513:B1 *2978:GATE_N 9.65075e-05
48 *2521:B2 *2980:GATE_N 0.000148189
49 *2522:B2 *2980:GATE_N 0.000225438
50 *2523:A1 *2980:GATE_N 7.09928e-05
51 *2523:B2 *2980:GATE_N 0.000354061
52 *2620:B2 *819:35 0.000109844
53 *2621:C1 *819:35 5.52302e-05
54 *2622:A1 *2988:GATE_N 4.97121e-06
55 *2622:B2 *2988:GATE_N 0.000166223
56 *2996:GATE_N *2980:GATE_N 0
57 *3115:A *2987:GATE_N 6.89249e-05
58 *3116:A *2988:GATE_N 0.000701809
59 *3116:A *819:23 0.000337323
60 *3117:A *819:23 0.000147346
61 *3119:A *819:23 3.6572e-05
62 *3132:A *2988:GATE_N 0
63 *3194:A *2987:GATE_N 0.000619024
64 *3213:A *2987:GATE_N 0.000209186
65 *815:22 *2978:GATE_N 3.66852e-05
66 *817:24 *819:23 9.91086e-05
67 *817:28 *2978:GATE_N 0.000185964
68 *817:30 *2978:GATE_N 0
*RES
1 *3119:X *819:4 9.3 
2 *819:4 *2987:GATE_N 16.9786 
3 *819:4 *819:23 26.125 
4 *819:23 *819:27 1.78571 
5 *819:27 *819:35 12.0893 
6 *819:35 *819:39 8.73214 
7 *819:39 *2980:GATE_N 30.2821 
8 *819:39 *2978:GATE_N 31.9607 
9 *819:35 *2989:GATE_N 9.3 
10 *819:27 *2988:GATE_N 28.0679 
11 *819:23 *2975:GATE_N 9.3 
*END

*D_NET *820 0.022004
*CONN
*I *2966:GATE_N I *D sky130_fd_sc_hd__dlxtn_1
*I *2970:GATE_N I *D sky130_fd_sc_hd__dlxtn_1
*I *2972:GATE_N I *D sky130_fd_sc_hd__dlxtn_1
*I *2961:GATE_N I *D sky130_fd_sc_hd__dlxtn_1
*I *2965:GATE_N I *D sky130_fd_sc_hd__dlxtn_1
*I *2969:GATE_N I *D sky130_fd_sc_hd__dlxtn_1
*I *2967:GATE_N I *D sky130_fd_sc_hd__dlxtn_1
*I *2958:GATE_N I *D sky130_fd_sc_hd__dlxtn_1
*I *2968:GATE_N I *D sky130_fd_sc_hd__dlxtn_1
*I *2960:GATE_N I *D sky130_fd_sc_hd__dlxtn_1
*I *3120:X O *D sky130_fd_sc_hd__buf_2
*CAP
1 *2966:GATE_N 0.00010479
2 *2970:GATE_N 0.000865353
3 *2972:GATE_N 8.50799e-05
4 *2961:GATE_N 0.000312847
5 *2965:GATE_N 0
6 *2969:GATE_N 0
7 *2967:GATE_N 0.000754516
8 *2958:GATE_N 7.7475e-05
9 *2968:GATE_N 0.000567718
10 *2960:GATE_N 1.7254e-05
11 *3120:X 0
12 *820:104 0.00156128
13 *820:73 0.00109955
14 *820:38 0.00170768
15 *820:30 0.00131156
16 *820:24 0.00115418
17 *820:20 0.00117197
18 *820:12 0.0017431
19 *820:10 0.00160085
20 *820:4 0.000734727
21 *2958:GATE_N *836:67 4.51348e-05
22 *2958:GATE_N *877:79 4.23019e-05
23 *2961:GATE_N *833:12 0.000154405
24 *2966:GATE_N *2860:GATE_N 6.05161e-06
25 *2967:GATE_N *2554:A2 2.49299e-05
26 *2967:GATE_N *2557:A2 0.000173328
27 *2967:GATE_N *858:40 3.45793e-05
28 *2967:GATE_N *858:42 4.1331e-06
29 *2967:GATE_N *908:125 0.00068646
30 *2968:GATE_N *2976:D 0
31 *2968:GATE_N *873:84 0
32 *2970:GATE_N *2588:A2 1.46576e-05
33 *2970:GATE_N *2970:D 0.000575092
34 *2970:GATE_N *851:102 0.000322148
35 *2970:GATE_N *851:104 4.25176e-05
36 *2972:GATE_N *900:38 0.000229456
37 *2972:GATE_N *900:42 1.04232e-05
38 *820:10 *2587:A2 0.000236806
39 *820:10 *2860:GATE_N 0
40 *820:10 *836:10 0
41 *820:12 *2587:A2 0.000217478
42 *820:12 *836:10 0
43 *820:20 *2533:A2 7.86105e-05
44 *820:20 *2533:B1 0.000100831
45 *820:20 *2566:A2 0.000213368
46 *820:20 *2587:A2 0.000141355
47 *820:20 *831:53 0
48 *820:20 *836:10 0
49 *820:20 *923:71 5.80706e-06
50 *820:20 *923:80 0.000347195
51 *820:24 *2456:B1 0
52 *820:24 *2457:B1 7.17836e-05
53 *820:24 *831:53 0
54 *820:24 *831:63 0
55 *820:24 *923:71 0.00022288
56 *820:30 *2477:A2 0.000262299
57 *820:30 *831:63 0.000355747
58 *820:38 *836:67 6.27272e-06
59 *820:38 *877:79 6.27272e-06
60 *820:73 *2477:A2 0.000223602
61 *820:73 *831:63 0.000312735
62 *820:73 *908:85 0.000279494
63 *820:73 *908:125 0.000168303
64 *820:104 *900:38 1.02821e-05
65 *820:104 *900:42 0.000212512
66 *820:104 *900:48 0.000235174
67 *2457:A1 *820:24 0.000100831
68 *2458:B1 *820:24 0.000150847
69 *2543:B2 *820:10 0
70 *2568:B1 *820:24 0
71 *2588:A1 *2970:GATE_N 6.13953e-05
72 *2588:B2 *2970:GATE_N 0.000238317
73 *2590:A1 *2961:GATE_N 3.92757e-05
74 *2591:C *2972:GATE_N 0.000100625
75 *2993:GATE_N *2961:GATE_N 0
76 *3120:A *2966:GATE_N 3.18676e-05
77 *816:20 *820:20 0
78 *816:38 *820:24 0
79 *818:30 *2968:GATE_N 0.00033651
*RES
1 *3120:X *820:4 9.3 
2 *820:4 *820:10 14.6071 
3 *820:10 *820:12 2.85714 
4 *820:12 *820:20 12.8571 
5 *820:20 *820:24 18.5893 
6 *820:24 *820:30 8.44643 
7 *820:30 *820:38 9.16165 
8 *820:38 *2960:GATE_N 14.0768 
9 *820:38 *2968:GATE_N 25.6125 
10 *820:30 *2958:GATE_N 15.7464 
11 *820:24 *820:73 8.91071 
12 *820:73 *2967:GATE_N 29.425 
13 *820:73 *2969:GATE_N 9.3 
14 *820:20 *2965:GATE_N 13.8 
15 *820:12 *820:104 18.5893 
16 *820:104 *2961:GATE_N 24.8 
17 *820:104 *2972:GATE_N 12.2107 
18 *820:10 *2970:GATE_N 29.8357 
19 *820:4 *2966:GATE_N 11.3893 
*END

*D_NET *821 0.0136604
*CONN
*I *2971:GATE_N I *D sky130_fd_sc_hd__dlxtn_1
*I *2959:GATE_N I *D sky130_fd_sc_hd__dlxtn_1
*I *2973:GATE_N I *D sky130_fd_sc_hd__dlxtn_1
*I *2962:GATE_N I *D sky130_fd_sc_hd__dlxtn_1
*I *2963:GATE_N I *D sky130_fd_sc_hd__dlxtn_1
*I *2964:GATE_N I *D sky130_fd_sc_hd__dlxtn_1
*I *3121:X O *D sky130_fd_sc_hd__dlymetal6s2s_1
*CAP
1 *2971:GATE_N 2.99354e-05
2 *2959:GATE_N 9.1194e-05
3 *2973:GATE_N 2.23854e-05
4 *2962:GATE_N 0.000672288
5 *2963:GATE_N 0.000163175
6 *2964:GATE_N 0.000154689
7 *3121:X 9.81044e-05
8 *821:22 0.000523191
9 *821:18 0.00104258
10 *821:16 0.000614276
11 *821:10 0.00110537
12 *821:6 0.000715287
13 *2959:GATE_N *925:72 8.52405e-05
14 *2962:GATE_N *2883:D 0
15 *2962:GATE_N *2883:GATE_N 0.000332039
16 *2963:GATE_N *2867:GATE_N 0.000312202
17 *2963:GATE_N *2868:GATE_N 3.34366e-05
18 *2963:GATE_N *2963:D 5.71472e-05
19 *2964:GATE_N *2868:GATE_N 0.000433926
20 *821:6 *903:91 0.00022266
21 *821:6 *907:12 0.000263524
22 *821:10 *2621:B1 0
23 *821:10 *903:24 0.000380666
24 *821:10 *907:12 3.17148e-05
25 *821:10 *909:30 0
26 *821:16 *2621:B1 0
27 *821:16 *2973:D 9.66977e-05
28 *821:16 *834:14 9.71197e-05
29 *821:16 *834:44 0.000423485
30 *821:16 *844:45 0.000342302
31 *821:18 *2523:B1 0.000272054
32 *821:18 *834:14 0.00069283
33 *821:22 *2523:B1 7.62417e-05
34 *821:22 *3012:D 0.00010096
35 *821:22 *3357:A 0.000101825
36 *821:22 *834:14 0.000833921
37 *2621:B2 *821:16 0.000183726
38 *2622:A1 *821:16 0.000112418
39 *2622:B2 *821:16 5.52302e-05
40 *2978:GATE_N *2962:GATE_N 0.000478421
41 *2980:GATE_N *2962:GATE_N 0.000123409
42 *2988:GATE_N *821:10 0.000171368
43 *2988:GATE_N *821:16 0.000144038
44 *2996:GATE_N *2962:GATE_N 0
45 *3007:GATE_N *821:16 1.40034e-05
46 *3116:A *821:10 0.00036332
47 *3119:A *821:10 0.000243627
48 *3130:A *2959:GATE_N 0.000262504
49 *559:12 *2971:GATE_N 1.98839e-05
50 *559:12 *821:6 2.14658e-05
51 *815:28 *821:22 6.05161e-06
52 *815:38 *821:16 1.56e-05
53 *815:38 *821:18 6.09688e-05
54 *815:38 *821:22 0.000185
55 *817:30 *2962:GATE_N 0
56 *817:51 *2962:GATE_N 0
57 *818:14 *2963:GATE_N 0.000338811
58 *818:14 *2964:GATE_N 0.00043807
*RES
1 *3121:X *821:6 12.3 
2 *821:6 *821:10 19.1964 
3 *821:10 *821:16 15.6071 
4 *821:16 *821:18 6.69643 
5 *821:18 *821:22 12.8393 
6 *821:22 *2964:GATE_N 19.3893 
7 *821:22 *2963:GATE_N 19.5321 
8 *821:18 *2962:GATE_N 34.8179 
9 *821:16 *2973:GATE_N 9.72857 
10 *821:10 *2959:GATE_N 16.3893 
11 *821:6 *2971:GATE_N 9.83571 
*END

*D_NET *822 0.0307806
*CONN
*I *2956:GATE_N I *D sky130_fd_sc_hd__dlxtn_1
*I *2945:GATE_N I *D sky130_fd_sc_hd__dlxtn_1
*I *2953:GATE_N I *D sky130_fd_sc_hd__dlxtn_1
*I *2951:GATE_N I *D sky130_fd_sc_hd__dlxtn_1
*I *2949:GATE_N I *D sky130_fd_sc_hd__dlxtn_1
*I *2952:GATE_N I *D sky130_fd_sc_hd__dlxtn_1
*I *2954:GATE_N I *D sky130_fd_sc_hd__dlxtn_1
*I *2944:GATE_N I *D sky130_fd_sc_hd__dlxtn_1
*I *2942:GATE_N I *D sky130_fd_sc_hd__dlxtn_1
*I *2943:GATE_N I *D sky130_fd_sc_hd__dlxtn_1
*I *3122:X O *D sky130_fd_sc_hd__buf_2
*CAP
1 *2956:GATE_N 0
2 *2945:GATE_N 0
3 *2953:GATE_N 0
4 *2951:GATE_N 0
5 *2949:GATE_N 0
6 *2952:GATE_N 0.000445478
7 *2954:GATE_N 0.000308785
8 *2944:GATE_N 0.000687486
9 *2942:GATE_N 0.000683815
10 *2943:GATE_N 0.00185039
11 *3122:X 0.000185478
12 *822:176 0.00197564
13 *822:134 0.000519023
14 *822:117 0.000947185
15 *822:90 0.00129381
16 *822:86 0.000480586
17 *822:59 0.00127358
18 *822:55 0.000361378
19 *822:49 0.00334866
20 *822:39 0.00165086
21 *822:6 0.00252444
22 *2942:GATE_N *2476:A2 7.70764e-08
23 *2942:GATE_N *2573:A2 7.90536e-05
24 *2942:GATE_N *911:92 0
25 *2942:GATE_N *918:55 0.000200467
26 *2943:GATE_N *2520:B1 7.55747e-05
27 *2943:GATE_N *837:83 1.01417e-05
28 *2943:GATE_N *864:10 0.000222666
29 *2943:GATE_N *865:59 0.000322541
30 *2943:GATE_N *876:41 0.000113073
31 *2944:GATE_N *2474:A2 0
32 *2944:GATE_N *2550:A2 3.10821e-05
33 *2944:GATE_N *2912:GATE_N 3.97794e-05
34 *2944:GATE_N *827:62 0.00010259
35 *2944:GATE_N *859:56 8.4624e-06
36 *2944:GATE_N *859:67 0.000143362
37 *2944:GATE_N *874:44 0.000103507
38 *2944:GATE_N *892:121 8.32242e-05
39 *2952:GATE_N *2474:A2 0.000191923
40 *2952:GATE_N *2547:A2 3.69047e-06
41 *2952:GATE_N *2949:D 4.16984e-05
42 *2952:GATE_N *856:74 0.000181796
43 *2952:GATE_N *916:115 0.000148429
44 *2954:GATE_N *827:48 0.000360816
45 *2954:GATE_N *863:77 4.00679e-05
46 *2954:GATE_N *932:49 3.63775e-05
47 *822:6 *865:59 1.90111e-05
48 *822:39 *2608:A2 2.05938e-05
49 *822:39 *3068:D 1.09026e-05
50 *822:39 *848:10 7.79781e-06
51 *822:39 *848:16 9.23883e-05
52 *822:39 *881:57 0
53 *822:39 *918:147 0.000178847
54 *822:39 *919:55 4.56587e-05
55 *822:49 *851:20 0
56 *822:49 *852:40 0
57 *822:49 *860:34 0.000126629
58 *822:49 *894:112 0
59 *822:55 *2905:D 0
60 *822:55 *2953:D 0
61 *822:55 *827:62 7.77652e-05
62 *822:59 *911:78 0
63 *822:86 *859:14 0
64 *822:86 *859:24 0.000320829
65 *822:86 *859:56 0.000106943
66 *822:117 *2550:A2 4.3419e-05
67 *822:117 *2949:D 0.0001399
68 *822:117 *838:105 0.000178786
69 *822:117 *892:121 0.000714294
70 *822:134 *2949:D 0.00026353
71 *822:176 *827:100 0
72 *822:176 *829:100 0.000316184
73 *822:176 *853:6 6.62761e-05
74 *822:176 *854:42 0.000906729
75 *822:176 *892:49 0
76 *2451:A1 *2942:GATE_N 0.000171879
77 *2452:C1 *2942:GATE_N 0
78 *2466:A1 *2943:GATE_N 7.40571e-05
79 *2493:A1 *822:49 0.000428011
80 *2519:B2 *2943:GATE_N 8.64671e-05
81 *2520:A1 *2943:GATE_N 0.000170661
82 *2537:B2 *2954:GATE_N 0.000470798
83 *2545:A *822:39 0
84 *2548:B1 *822:39 9.54798e-06
85 *2551:A1 *2944:GATE_N 0.000221634
86 *2564:A1 *822:176 6.15399e-05
87 *2573:C1 *822:117 0.00031688
88 *2574:A1 *822:176 0.000107472
89 *2581:B1 *2942:GATE_N 0
90 *2581:B1 *822:59 0
91 *2607:B2 *822:49 4.08629e-05
92 *3040:GATE_N *2944:GATE_N 0
93 *3040:GATE_N *2952:GATE_N 0.000332458
94 *3049:GATE_N *822:176 1.92905e-05
95 *3063:GATE_N *2944:GATE_N 6.35123e-05
96 *3106:A *822:49 8.49861e-06
97 *3157:A *2944:GATE_N 6.97152e-05
98 *3157:A *2954:GATE_N 0.000360816
99 *3188:A *822:39 0.000125582
100 *449:24 *822:6 0.000184745
101 *449:24 *822:39 0.000108777
102 *499:38 *2943:GATE_N 2.15383e-05
103 *551:22 *822:117 0.000149554
104 *551:22 *822:134 2.14658e-05
105 *575:18 *2943:GATE_N 5.24274e-05
106 *580:10 *2943:GATE_N 0.000136958
107 *590:24 *822:49 0
108 *641:10 *2954:GATE_N 9.71197e-05
109 *805:127 *822:49 3.41101e-05
110 *805:148 *822:117 0.000229984
111 *807:99 *822:39 2.61337e-05
112 *807:115 *822:39 0.000137061
113 *807:115 *822:49 2.26973e-05
114 *809:14 *822:39 0.000104665
115 *809:20 *822:39 3.54356e-05
116 *809:20 *822:49 6.01582e-05
117 *809:28 *822:49 0.000138769
118 *809:32 *822:49 7.6644e-05
119 *809:38 *822:49 0.000323751
120 *809:38 *822:55 4.35131e-05
121 *809:44 *2942:GATE_N 0
122 *809:44 *822:55 0.000106533
123 *809:44 *822:59 0
124 *809:111 *822:117 0.000647985
125 *809:111 *822:134 0.000167436
126 *811:26 *822:49 0
127 *811:143 *822:49 0
*RES
1 *3122:X *822:6 11.8893 
2 *822:6 *2943:GATE_N 44.9607 
3 *822:6 *822:39 23.7143 
4 *822:39 *822:49 32.375 
5 *822:49 *822:55 9.32143 
6 *822:55 *822:59 7.05357 
7 *822:59 *2942:GATE_N 25.9964 
8 *822:59 *822:86 12.8571 
9 *822:86 *822:90 5.03571 
10 *822:90 *2944:GATE_N 36.6929 
11 *822:90 *822:117 22.75 
12 *822:117 *2954:GATE_N 28.05 
13 *822:117 *822:134 2.58929 
14 *822:134 *2952:GATE_N 26.9429 
15 *822:134 *2949:GATE_N 9.3 
16 *822:86 *2951:GATE_N 9.3 
17 *822:55 *2953:GATE_N 9.3 
18 *822:49 *822:176 41.1071 
19 *822:176 *2945:GATE_N 9.3 
20 *822:39 *2956:GATE_N 13.8 
*END

*D_NET *823 0.0184322
*CONN
*I *2957:GATE_N I *D sky130_fd_sc_hd__dlxtn_1
*I *2950:GATE_N I *D sky130_fd_sc_hd__dlxtn_1
*I *2947:GATE_N I *D sky130_fd_sc_hd__dlxtn_1
*I *2946:GATE_N I *D sky130_fd_sc_hd__dlxtn_1
*I *2955:GATE_N I *D sky130_fd_sc_hd__dlxtn_1
*I *2948:GATE_N I *D sky130_fd_sc_hd__dlxtn_1
*I *3123:X O *D sky130_fd_sc_hd__clkbuf_2
*CAP
1 *2957:GATE_N 2.63024e-05
2 *2950:GATE_N 0.000545035
3 *2947:GATE_N 0
4 *2946:GATE_N 3.99307e-05
5 *2955:GATE_N 0
6 *2948:GATE_N 0.000819647
7 *3123:X 0
8 *823:68 0.0010607
9 *823:51 0.000591852
10 *823:20 0.00208302
11 *823:8 0.00350896
12 *823:4 0.00230813
13 *2948:GATE_N *2911:D 0.00021367
14 *2948:GATE_N *831:18 0
15 *2948:GATE_N *831:22 0
16 *2948:GATE_N *864:47 5.26091e-05
17 *2948:GATE_N *875:81 0.000164554
18 *2948:GATE_N *892:33 0
19 *2948:GATE_N *922:47 0
20 *2948:GATE_N *925:72 2.49484e-05
21 *2948:GATE_N *937:12 0.00108045
22 *2950:GATE_N *2517:A2 0.000716533
23 *2950:GATE_N *2517:B1 0.000948715
24 *2950:GATE_N *838:28 4.10383e-05
25 *2950:GATE_N *860:97 0.000101198
26 *2950:GATE_N *861:79 0
27 *2950:GATE_N *898:161 0
28 *2957:GATE_N *2957:D 9.71197e-05
29 *2957:GATE_N *839:75 5.03772e-05
30 *823:8 *2409:A 0.000262228
31 *823:8 *2423:A 8.12055e-05
32 *823:8 *2499:A2 9.66073e-06
33 *823:8 *895:71 7.33786e-06
34 *823:8 *897:45 0.000137983
35 *823:8 *912:27 0.000156563
36 *823:8 *918:147 5.73015e-05
37 *823:8 *933:18 0.000571908
38 *823:20 *2859:GATE_N 2.89114e-05
39 *823:20 *2882:GATE_N 0.000163278
40 *823:20 *2939:GATE_N 7.6644e-05
41 *823:20 *849:37 0.000156287
42 *823:20 *849:41 1.58163e-05
43 *823:20 *912:27 2.15245e-05
44 *823:51 *867:28 0.000137983
45 *823:51 *895:71 2.95726e-05
46 *823:68 *2517:B1 0.000157368
47 *823:68 *2915:D 0.000162981
48 *823:68 *838:28 0.000117736
49 *823:68 *867:18 1.58163e-05
50 *823:68 *867:28 3.63775e-05
51 *823:68 *895:81 0.000168939
52 *823:68 *898:161 3.01927e-05
53 *2462:A1 *2948:GATE_N 0.000171151
54 *2499:B2 *823:8 1.58163e-05
55 *2503:C *823:8 1.36635e-05
56 *2601:B2 *823:20 1.57414e-05
57 *2601:C1 *823:20 7.6644e-05
58 *2617:B2 *2950:GATE_N 5.49536e-05
59 *2617:B2 *823:68 8.96657e-05
60 *3055:GATE_N *2948:GATE_N 1.95251e-05
61 *3062:GATE_N *2950:GATE_N 0.000123126
62 *3105:A *823:68 0.000234797
63 *3123:A *823:8 0.000138476
64 *3170:A *2948:GATE_N 2.89016e-05
65 *3171:A *2948:GATE_N 0
66 *808:78 *823:20 0.000349849
67 *808:80 *2948:GATE_N 2.15154e-05
*RES
1 *3123:X *823:4 9.3 
2 *823:4 *823:8 28.375 
3 *823:8 *823:20 25.3929 
4 *823:20 *2948:GATE_N 38.3714 
5 *823:20 *2955:GATE_N 9.3 
6 *823:8 *2946:GATE_N 10.0321 
7 *823:4 *823:51 2.17857 
8 *823:51 *2947:GATE_N 9.3 
9 *823:51 *823:68 15.9821 
10 *823:68 *2950:GATE_N 30.6214 
11 *823:68 *2957:GATE_N 14.7464 
*END

*D_NET *824 0.00233593
*CONN
*I *2649:A1 I *D sky130_fd_sc_hd__mux2_1
*I *3246:X O *D sky130_fd_sc_hd__clkbuf_1
*CAP
1 *2649:A1 0.000983666
2 *3246:X 0.000983666
3 *2649:A1 *2633:A 3.99614e-06
4 *2649:A1 *2649:S 5.52238e-05
5 *2649:A1 *3341:A 2.27416e-05
6 *2649:A1 *842:18 0
7 *2649:A1 *987:10 5.01401e-05
8 PWDATA[6] *2649:A1 9.25014e-06
9 *2813:D *2649:A1 0.000139411
10 *3246:A *2649:A1 3.454e-05
11 *426:10 *2649:A1 5.33005e-05
*RES
1 *3246:X *2649:A1 40.8857 
*END

*D_NET *825 0.021942
*CONN
*I *2933:GATE_N I *D sky130_fd_sc_hd__dlxtn_1
*I *2936:GATE_N I *D sky130_fd_sc_hd__dlxtn_1
*I *2940:GATE_N I *D sky130_fd_sc_hd__dlxtn_1
*I *2934:GATE_N I *D sky130_fd_sc_hd__dlxtn_1
*I *2929:GATE_N I *D sky130_fd_sc_hd__dlxtn_1
*I *2928:GATE_N I *D sky130_fd_sc_hd__dlxtn_1
*I *2926:GATE_N I *D sky130_fd_sc_hd__dlxtn_1
*I *2935:GATE_N I *D sky130_fd_sc_hd__dlxtn_1
*I *2937:GATE_N I *D sky130_fd_sc_hd__dlxtn_1
*I *2938:GATE_N I *D sky130_fd_sc_hd__dlxtn_1
*I *3124:X O *D sky130_fd_sc_hd__buf_2
*CAP
1 *2933:GATE_N 0
2 *2936:GATE_N 0.000387931
3 *2940:GATE_N 4.06336e-05
4 *2934:GATE_N 3.61277e-05
5 *2929:GATE_N 0.000272351
6 *2928:GATE_N 4.35605e-05
7 *2926:GATE_N 0
8 *2935:GATE_N 0
9 *2937:GATE_N 0.000568798
10 *2938:GATE_N 0.000573554
11 *3124:X 0.000105158
12 *825:130 0.000867337
13 *825:61 0.000771983
14 *825:51 0.000589611
15 *825:43 0.000929227
16 *825:41 0.00118351
17 *825:20 0.00129146
18 *825:18 0.00132518
19 *825:8 0.00142748
20 *825:6 0.000988336
21 *2928:GATE_N *2928:D 0.000142856
22 *2929:GATE_N *2929:D 1.58163e-05
23 *2934:GATE_N *881:57 2.30116e-06
24 *2934:GATE_N *911:25 0
25 *2936:GATE_N *2655:S 2.72887e-05
26 *2936:GATE_N *2949:D 6.48957e-05
27 *2936:GATE_N *827:48 0
28 *2936:GATE_N *838:105 0.000259835
29 *2936:GATE_N *855:113 3.18676e-05
30 *2936:GATE_N *856:60 7.43174e-05
31 *2936:GATE_N *863:40 1.00375e-05
32 *2936:GATE_N *896:48 6.20277e-05
33 *2936:GATE_N *994:18 0.000136958
34 *2937:GATE_N *2453:A2 0.000141832
35 *2937:GATE_N *2453:B1 5.52238e-05
36 *2937:GATE_N *2921:D 0.000195555
37 *2937:GATE_N *827:100 0
38 *2937:GATE_N *853:12 9.90431e-05
39 *2937:GATE_N *892:49 0
40 *2938:GATE_N *2585:B1 1.12323e-05
41 *2938:GATE_N *2938:D 0.000230475
42 *2938:GATE_N *847:125 3.15318e-05
43 *2938:GATE_N *851:20 6.24363e-05
44 *2938:GATE_N *892:33 0
45 *2938:GATE_N *898:20 0.000143671
46 *825:8 *2940:D 3.97657e-05
47 *825:8 *847:135 4.0342e-06
48 *825:18 *847:135 1.15281e-05
49 *825:18 *848:27 2.57487e-05
50 *825:18 *848:36 0.000133035
51 *825:18 *851:20 0.000348805
52 *825:18 *896:12 6.57026e-05
53 *825:18 *898:89 2.86613e-05
54 *825:18 *898:161 0.000115842
55 *825:20 *851:20 0.00046468
56 *825:41 *894:29 0.000967154
57 *825:41 *914:10 0.000591794
58 *825:41 *914:16 0.000137224
59 *825:41 *918:10 9.30065e-05
60 *825:41 *918:109 8.82771e-05
61 *825:41 *920:26 4.50033e-05
62 *825:43 *2919:GATE_N 6.42145e-05
63 *825:43 *894:37 0.00043094
64 *825:43 *914:16 0.000361944
65 *825:43 *914:18 0.000141236
66 *825:43 *916:32 0
67 *825:51 *2453:B1 0.000331637
68 *825:51 *2454:A2 1.46576e-05
69 *825:51 *2552:A2 7.43578e-06
70 *825:51 *2926:D 0.000185873
71 *825:51 *914:18 4.03577e-05
72 *825:51 *914:22 9.71118e-06
73 *825:61 *2453:A2 5.71472e-05
74 *825:61 *2453:B1 0
75 *825:61 *2454:B1 0
76 *825:61 *858:34 2.44318e-05
77 *825:130 *2546:A2 1.78447e-05
78 *825:130 *2918:GATE_N 0
79 *825:130 *827:44 0
80 *825:130 *827:48 0
81 *825:130 *863:40 6.03432e-05
82 *825:130 *896:48 0
83 *825:130 *932:30 2.06112e-05
84 *2453:A1 *2937:GATE_N 2.83284e-06
85 *2453:A1 *825:61 0
86 *2454:B2 *825:51 2.85551e-05
87 *2454:C1 *2937:GATE_N 1.56e-05
88 *2454:C1 *825:61 0.000156035
89 *2476:B2 *2928:GATE_N 3.18676e-05
90 *2487:A1 *825:41 0.000148196
91 *2487:A1 *825:43 9.25014e-06
92 *2493:B2 *2929:GATE_N 4.62998e-05
93 *2539:B2 *2934:GATE_N 5.7248e-05
94 *2541:A1 *2934:GATE_N 1.78394e-05
95 *2545:C *2938:GATE_N 0.00038404
96 *2545:C *825:18 0.000113266
97 *2545:C *825:20 0.000467455
98 *2546:A1 *825:130 5.24274e-05
99 *2552:B2 *825:51 0.000265453
100 *2574:B2 *825:43 6.42338e-05
101 *2575:B2 *2937:GATE_N 0
102 *2584:A1 *825:130 0
103 *2592:A1 *825:130 5.90443e-06
104 *2592:B2 *825:18 0
105 *2592:B2 *825:130 7.96824e-05
106 *2606:A1 *825:6 1.57931e-05
107 *2606:A1 *825:8 9.33978e-07
108 *2608:C1 *825:18 2.86824e-05
109 *2639:B *2936:GATE_N 0.000145406
110 *3036:GATE_N *825:18 1.92905e-05
111 *3054:GATE_N *825:43 3.0305e-05
112 *3144:A *2938:GATE_N 0.000609237
113 *3151:A *825:43 0
114 *3151:A *825:51 0
115 *605:18 *2937:GATE_N 0
116 *641:10 *2936:GATE_N 8.79872e-05
117 *641:10 *825:130 8.33463e-05
118 *807:115 *825:18 0.000325503
119 *811:20 *825:130 0.000519279
120 *811:60 *2937:GATE_N 0
*RES
1 *3124:X *825:6 10.6571 
2 *825:6 *825:8 4.64286 
3 *825:8 *825:18 16.1789 
4 *825:18 *825:20 1.3442 
5 *825:20 *2938:GATE_N 24.3476 
6 *825:20 *825:41 18.2582 
7 *825:41 *825:43 13.1786 
8 *825:43 *825:51 14.3929 
9 *825:51 *825:61 13.0357 
10 *825:61 *2937:GATE_N 28.2464 
11 *825:61 *2935:GATE_N 9.3 
12 *825:51 *2926:GATE_N 9.3 
13 *825:43 *2928:GATE_N 15.1571 
14 *825:41 *2929:GATE_N 17.1214 
15 *825:18 *2934:GATE_N 18.0939 
16 *825:8 *2940:GATE_N 10.0321 
17 *825:6 *825:130 15.8571 
18 *825:130 *2936:GATE_N 32.6393 
19 *825:130 *2933:GATE_N 13.8 
*END

*D_NET *826 0.0188277
*CONN
*I *2930:GATE_N I *D sky130_fd_sc_hd__dlxtn_1
*I *2931:GATE_N I *D sky130_fd_sc_hd__dlxtn_1
*I *2941:GATE_N I *D sky130_fd_sc_hd__dlxtn_1
*I *2927:GATE_N I *D sky130_fd_sc_hd__dlxtn_1
*I *2932:GATE_N I *D sky130_fd_sc_hd__dlxtn_1
*I *2939:GATE_N I *D sky130_fd_sc_hd__dlxtn_1
*I *3125:X O *D sky130_fd_sc_hd__clkbuf_2
*CAP
1 *2930:GATE_N 8.83268e-05
2 *2931:GATE_N 0
3 *2941:GATE_N 0.000712948
4 *2927:GATE_N 0
5 *2932:GATE_N 0.000924925
6 *2939:GATE_N 0.00089143
7 *3125:X 0.000298391
8 *826:47 0.00106747
9 *826:26 0.00187408
10 *826:16 0.00171518
11 *826:12 0.000735396
12 *826:10 0.000959981
13 *2930:GATE_N *869:66 0.000225609
14 *2930:GATE_N *869:106 9.49337e-05
15 *2930:GATE_N *897:29 4.27437e-05
16 *2932:GATE_N *2520:A2 0.000685353
17 *2932:GATE_N *2879:D 3.69047e-06
18 *2932:GATE_N *2900:GATE_N 0.000190098
19 *2932:GATE_N *829:20 0
20 *2932:GATE_N *829:37 0
21 *2932:GATE_N *837:83 0.000104236
22 *2932:GATE_N *864:10 0
23 *2932:GATE_N *892:33 0.000309465
24 *2939:GATE_N *2519:B1 0.000499156
25 *2939:GATE_N *875:122 0.000180496
26 *2939:GATE_N *899:29 0.000116147
27 *2939:GATE_N *912:10 5.90989e-05
28 *2939:GATE_N *912:12 0.000208678
29 *2939:GATE_N *917:34 0.000178847
30 *2939:GATE_N *920:26 0.000314992
31 *2941:GATE_N *2899:GATE_N 7.83587e-05
32 *2941:GATE_N *893:97 7.83587e-05
33 *826:10 *2419:B 6.62761e-05
34 *826:10 *2898:D 0
35 *826:10 *3058:D 0.000320436
36 *826:10 *829:10 0.000156496
37 *826:10 *829:20 2.07809e-05
38 *826:12 *2496:A2 0
39 *826:12 *2504:A2 8.42373e-05
40 *826:12 *3058:D 0.000550007
41 *826:12 *828:8 5.26864e-05
42 *826:12 *828:18 5.92038e-05
43 *826:12 *933:24 1.37495e-05
44 *826:26 *875:122 0.000254049
45 *826:26 *911:25 4.0028e-05
46 *826:26 *917:34 0.000700535
47 *826:47 *2831:GATE_N 2.63834e-05
48 *826:47 *829:20 0
49 *2466:A1 *2932:GATE_N 1.32552e-05
50 *2503:B *2930:GATE_N 5.91452e-05
51 *2504:A1 *826:12 0
52 *2601:C1 *2939:GATE_N 5.40264e-05
53 *3039:GATE_N *826:26 9.52769e-05
54 *3122:A *826:12 0
55 *3122:A *826:16 0
56 *3127:A *2930:GATE_N 1.98839e-05
57 *3128:A *826:10 9.90431e-05
58 *3129:A *826:12 0
59 *3138:A *826:10 8.50795e-06
60 *3138:A *826:12 0
61 *3190:A *2939:GATE_N 0.000295122
62 *531:18 *2941:GATE_N 0.000925154
63 *531:18 *826:26 0.000782983
64 *561:14 *826:12 4.53834e-05
65 *580:20 *2932:GATE_N 0.00055656
66 *660:14 *2932:GATE_N 9.60875e-05
67 *812:28 *826:12 0.000181548
68 *812:28 *826:16 0.000216771
69 *812:36 *826:16 0.00010326
70 *812:76 *2932:GATE_N 0.000118705
71 *812:76 *826:47 9.7131e-05
72 *823:20 *2939:GATE_N 7.6644e-05
*RES
1 *3125:X *826:10 21.175 
2 *826:10 *826:12 12.5714 
3 *826:12 *826:16 8.57143 
4 *826:16 *826:26 16.7321 
5 *826:26 *2939:GATE_N 39.675 
6 *826:26 *826:47 7.35714 
7 *826:47 *2932:GATE_N 42.3357 
8 *826:47 *2927:GATE_N 13.8 
9 *826:16 *2941:GATE_N 28.4964 
10 *826:12 *2931:GATE_N 13.8 
11 *826:10 *2930:GATE_N 16.8 
*END

*D_NET *827 0.026373
*CONN
*I *2918:GATE_N I *D sky130_fd_sc_hd__dlxtn_1
*I *2920:GATE_N I *D sky130_fd_sc_hd__dlxtn_1
*I *2912:GATE_N I *D sky130_fd_sc_hd__dlxtn_1
*I *2919:GATE_N I *D sky130_fd_sc_hd__dlxtn_1
*I *2913:GATE_N I *D sky130_fd_sc_hd__dlxtn_1
*I *2917:GATE_N I *D sky130_fd_sc_hd__dlxtn_1
*I *2921:GATE_N I *D sky130_fd_sc_hd__dlxtn_1
*I *2910:GATE_N I *D sky130_fd_sc_hd__dlxtn_1
*I *2924:GATE_N I *D sky130_fd_sc_hd__dlxtn_1
*I *2922:GATE_N I *D sky130_fd_sc_hd__dlxtn_1
*I *3126:X O *D sky130_fd_sc_hd__buf_2
*CAP
1 *2918:GATE_N 0.000206862
2 *2920:GATE_N 5.37304e-05
3 *2912:GATE_N 0.00032347
4 *2919:GATE_N 6.14269e-05
5 *2913:GATE_N 0.000138636
6 *2917:GATE_N 0.00037918
7 *2921:GATE_N 0
8 *2910:GATE_N 0.000720103
9 *2924:GATE_N 0.000317001
10 *2922:GATE_N 0.00029636
11 *3126:X 0
12 *827:100 0.0011179
13 *827:70 0.00104413
14 *827:64 0.00184926
15 *827:62 0.00353149
16 *827:52 0.00309812
17 *827:48 0.000993154
18 *827:44 0.00163944
19 *827:8 0.000679735
20 *827:4 0.000789257
21 *2910:GATE_N *2555:A2 0
22 *2910:GATE_N *2556:A2 0
23 *2910:GATE_N *2557:C1 7.80115e-05
24 *2910:GATE_N *884:65 3.25477e-05
25 *2913:GATE_N *2564:A2 3.52408e-05
26 *2913:GATE_N *831:28 5.33433e-05
27 *2913:GATE_N *871:33 0.000560739
28 *2917:GATE_N *3029:D 4.5287e-05
29 *2917:GATE_N *831:28 0.000139009
30 *2917:GATE_N *871:33 0.000268396
31 *2918:GATE_N *861:79 5.41494e-05
32 *2920:GATE_N *856:67 9.41642e-05
33 *2922:GATE_N *2922:D 2.59355e-05
34 *2922:GATE_N *852:40 0
35 *2922:GATE_N *896:12 0
36 *2922:GATE_N *896:33 0
37 *2922:GATE_N *911:54 0.00014279
38 *2922:GATE_N *911:72 0.000175519
39 *2924:GATE_N *2924:D 9.55154e-05
40 *2924:GATE_N *896:12 0
41 *827:8 *896:33 9.87672e-05
42 *827:44 *2844:D 1.92905e-05
43 *827:44 *860:34 0.000177356
44 *827:44 *894:127 2.13481e-06
45 *827:44 *896:33 0.000125997
46 *827:48 *2546:A2 7.50601e-05
47 *827:48 *2949:D 9.01334e-05
48 *827:48 *838:105 0
49 *827:48 *863:38 6.35123e-05
50 *827:48 *863:40 4.82655e-05
51 *827:52 *838:105 0
52 *827:62 *2562:A2 3.53079e-05
53 *827:62 *859:67 1.92789e-05
54 *827:62 *896:50 3.92757e-05
55 *827:62 *911:131 8.11174e-05
56 *827:64 *2921:D 0.00021529
57 *827:64 *3065:D 3.69047e-06
58 *827:64 *854:6 2.14658e-05
59 *827:70 *2555:A2 0
60 *827:70 *3065:D 1.92789e-05
61 *827:70 *853:27 1.72844e-05
62 *827:100 *3065:D 5.41794e-05
63 *827:100 *3080:D 5.40962e-05
64 *827:100 *853:12 9.91086e-05
65 *2453:A1 *2910:GATE_N 0.000186662
66 *2489:A1 *2917:GATE_N 0
67 *2492:B *2917:GATE_N 0
68 *2546:B2 *827:44 0.000236032
69 *2557:B1 *2910:GATE_N 0.000122689
70 *2561:B2 *827:48 0.000124529
71 *2564:A1 *827:100 0
72 *2564:B2 *2913:GATE_N 0.000125492
73 *2564:B2 *827:100 0
74 *2564:C1 *2913:GATE_N 2.89016e-05
75 *2574:B2 *827:64 2.88018e-06
76 *2581:B1 *827:62 0.000180777
77 *2592:B1 *827:48 0.000146985
78 *2592:B2 *827:48 2.75651e-06
79 *2606:A1 *2918:GATE_N 2.95726e-05
80 *2607:A1 *2922:GATE_N 0
81 *2608:B2 *2924:GATE_N 4.12365e-05
82 *2608:C1 *2922:GATE_N 9.25014e-06
83 *2608:C1 *2924:GATE_N 0.000288266
84 *2614:A1 *827:44 0.000141555
85 *2936:GATE_N *827:48 0
86 *2937:GATE_N *827:100 0
87 *2944:GATE_N *2912:GATE_N 3.97794e-05
88 *2944:GATE_N *827:62 0.00010259
89 *2954:GATE_N *827:48 0.000360816
90 *3031:GATE_N *827:62 3.69697e-05
91 *3034:GATE_N *2917:GATE_N 8.46895e-05
92 *3062:GATE_N *2918:GATE_N 0.000178527
93 *3065:GATE_N *827:64 7.02968e-05
94 *3065:GATE_N *827:70 2.65105e-05
95 *3070:GATE_N *2910:GATE_N 0
96 *3126:A *2922:GATE_N 0
97 *3126:A *2924:GATE_N 0
98 *3151:A *2919:GATE_N 4.25622e-05
99 *3151:A *827:62 7.48091e-05
100 *3151:A *827:64 0.000255058
101 *3157:A *2918:GATE_N 0.000213988
102 *3157:A *827:48 0.000443874
103 *3157:A *827:52 0.000510193
104 *515:34 *2910:GATE_N 0.000461962
105 *585:24 *2917:GATE_N 1.94945e-05
106 *805:72 *2917:GATE_N 0.000434527
107 *805:148 *827:52 0.000101545
108 *805:148 *827:62 0.000309266
109 *807:115 *2918:GATE_N 0.000112944
110 *811:26 *2922:GATE_N 2.89016e-05
111 *811:60 *2910:GATE_N 0.000211765
112 *811:60 *827:70 4.25622e-05
113 *811:60 *827:100 0
114 *811:97 *827:100 0
115 *822:55 *827:62 7.77652e-05
116 *822:176 *827:100 0
117 *825:43 *2919:GATE_N 6.42145e-05
118 *825:130 *2918:GATE_N 0
119 *825:130 *827:44 0
120 *825:130 *827:48 0
*RES
1 *3126:X *827:4 9.3 
2 *827:4 *827:8 5.44643 
3 *827:8 *2922:GATE_N 19.925 
4 *827:8 *2924:GATE_N 20.3 
5 *827:4 *827:44 16.2946 
6 *827:44 *827:48 18.1161 
7 *827:48 *827:52 11 
8 *827:52 *827:62 39.8571 
9 *827:62 *827:64 12.0357 
10 *827:64 *827:70 9.14286 
11 *827:70 *2910:GATE_N 29.3893 
12 *827:70 *2921:GATE_N 13.8 
13 *827:64 *827:100 19.4464 
14 *827:100 *2917:GATE_N 28.3 
15 *827:100 *2913:GATE_N 14.7643 
16 *827:62 *2919:GATE_N 19.9429 
17 *827:52 *2912:GATE_N 13.9786 
18 *827:48 *2920:GATE_N 14.7464 
19 *827:44 *2918:GATE_N 19.7196 
*END

*D_NET *828 0.0215262
*CONN
*I *2914:GATE_N I *D sky130_fd_sc_hd__dlxtn_1
*I *2915:GATE_N I *D sky130_fd_sc_hd__dlxtn_1
*I *2916:GATE_N I *D sky130_fd_sc_hd__dlxtn_1
*I *2925:GATE_N I *D sky130_fd_sc_hd__dlxtn_1
*I *2923:GATE_N I *D sky130_fd_sc_hd__dlxtn_1
*I *2911:GATE_N I *D sky130_fd_sc_hd__dlxtn_1
*I *3127:X O *D sky130_fd_sc_hd__clkbuf_2
*CAP
1 *2914:GATE_N 0.000231627
2 *2915:GATE_N 1.56658e-05
3 *2916:GATE_N 0.000266185
4 *2925:GATE_N 0
5 *2923:GATE_N 0
6 *2911:GATE_N 0.00134167
7 *3127:X 7.16557e-05
8 *828:70 0.000515025
9 *828:60 0.00208068
10 *828:48 0.00210019
11 *828:18 0.00219206
12 *828:8 0.000974433
13 *2911:GATE_N *849:87 0.000684051
14 *2911:GATE_N *893:37 0.000777911
15 *2911:GATE_N *899:29 9.60337e-06
16 *2911:GATE_N *910:10 0.000527199
17 *2911:GATE_N *930:20 0
18 *2914:GATE_N *3042:D 1.82685e-05
19 *2914:GATE_N *869:74 1.08359e-05
20 *2914:GATE_N *893:59 0
21 *2915:GATE_N *895:81 2.14658e-05
22 *2916:GATE_N *2518:B1 0.000186669
23 *2916:GATE_N *844:10 2.34337e-05
24 *2916:GATE_N *844:101 8.22328e-05
25 *2916:GATE_N *898:161 0
26 *828:18 *839:16 0.000741849
27 *828:18 *889:56 0
28 *828:18 *899:29 6.2153e-05
29 *828:18 *919:35 0.000153199
30 *828:48 *839:50 4.24707e-05
31 *828:48 *869:74 5.47398e-05
32 *828:48 *917:62 0.000178847
33 *828:60 *2506:A2 0.00074297
34 *828:60 *2898:D 9.97669e-05
35 *828:60 *839:75 0.000534644
36 *828:60 *841:15 8.95387e-05
37 *828:60 *869:68 5.1588e-05
38 *828:60 *869:74 0.00014101
39 *828:60 *881:120 3.69047e-06
40 *828:60 *895:81 0.000141447
41 *828:60 *897:29 0
42 *828:60 *898:161 0.000124088
43 *828:70 *867:28 0.000139907
44 *828:70 *895:81 2.89114e-05
45 *2469:B1 *2911:GATE_N 0.000100478
46 *2498:A1 *828:60 0.000393943
47 *2504:A1 *828:18 7.69776e-06
48 *2506:A1 *828:60 0.000100823
49 *2506:B2 *828:60 2.49484e-05
50 *2509:C1 *828:70 3.9846e-05
51 *2526:B2 *2916:GATE_N 5.57254e-05
52 *2602:C *2911:GATE_N 2.06178e-05
53 *2602:C *828:18 0.000133296
54 *3044:GATE_N *2916:GATE_N 0.000305979
55 *3083:GATE_N *2911:GATE_N 0.000201015
56 *3105:A *2915:GATE_N 5.33005e-05
57 *3105:A *828:60 0
58 *3105:A *828:70 5.33005e-05
59 *3111:A *2914:GATE_N 2.26973e-05
60 *3112:A *828:60 0
61 *3127:A *828:60 3.76274e-05
62 *3136:A *828:18 0.000639498
63 *3138:A *2914:GATE_N 9.13605e-06
64 *3138:A *828:8 5.61874e-05
65 *3138:A *828:18 3.80952e-05
66 *3208:A *2911:GATE_N 0.000300053
67 *435:12 *2911:GATE_N 0.000887395
68 *435:12 *828:18 0.00115747
69 *441:10 *828:60 1.56e-05
70 *441:31 *828:60 8.37135e-05
71 *488:14 *2911:GATE_N 0.000218491
72 *509:8 *828:60 0
73 *531:18 *2916:GATE_N 9.60875e-05
74 *531:18 *828:70 5.52302e-05
75 *580:20 *2916:GATE_N 1.96517e-05
76 *651:26 *2914:GATE_N 0
77 *808:22 *828:70 0.000359032
78 *810:22 *2916:GATE_N 7.93635e-05
79 *810:22 *828:70 0.000349551
80 *810:41 *2916:GATE_N 1.39726e-05
81 *810:41 *828:70 2.27416e-05
82 *826:12 *828:8 5.26864e-05
83 *826:12 *828:18 5.92038e-05
*RES
1 *3127:X *828:8 15.4429 
2 *828:8 *828:18 12.9633 
3 *828:18 *2911:GATE_N 38.1396 
4 *828:18 *2923:GATE_N 13.8 
5 *828:8 *828:48 10.7679 
6 *828:48 *828:60 45.4464 
7 *828:60 *828:70 16.8036 
8 *828:70 *2925:GATE_N 9.3 
9 *828:70 *2916:GATE_N 25.9964 
10 *828:60 *2915:GATE_N 9.83571 
11 *828:48 *2914:GATE_N 17.7643 
*END

*D_NET *829 0.0242182
*CONN
*I *2898:GATE_N I *D sky130_fd_sc_hd__dlxtn_1
*I *2897:GATE_N I *D sky130_fd_sc_hd__dlxtn_1
*I *2905:GATE_N I *D sky130_fd_sc_hd__dlxtn_1
*I *2896:GATE_N I *D sky130_fd_sc_hd__dlxtn_1
*I *2903:GATE_N I *D sky130_fd_sc_hd__dlxtn_1
*I *2894:GATE_N I *D sky130_fd_sc_hd__dlxtn_1
*I *2904:GATE_N I *D sky130_fd_sc_hd__dlxtn_1
*I *2901:GATE_N I *D sky130_fd_sc_hd__dlxtn_1
*I *2906:GATE_N I *D sky130_fd_sc_hd__dlxtn_1
*I *2895:GATE_N I *D sky130_fd_sc_hd__dlxtn_1
*I *3128:X O *D sky130_fd_sc_hd__buf_2
*CAP
1 *2898:GATE_N 0
2 *2897:GATE_N 0
3 *2905:GATE_N 9.12107e-05
4 *2896:GATE_N 3.69698e-05
5 *2903:GATE_N 0.000259274
6 *2894:GATE_N 0
7 *2904:GATE_N 5.47497e-05
8 *2901:GATE_N 7.51114e-05
9 *2906:GATE_N 0.000263087
10 *2895:GATE_N 4.6743e-05
11 *3128:X 0.000148094
12 *829:113 0.00097173
13 *829:100 0.00168258
14 *829:88 0.00125176
15 *829:73 0.0002605
16 *829:69 0.00118829
17 *829:41 0.000849829
18 *829:37 0.00250235
19 *829:20 0.0028558
20 *829:10 0.00210244
21 *2895:GATE_N *2520:A2 0.00010096
22 *2905:GATE_N *855:113 0.000101169
23 *2905:GATE_N *856:60 0.00027032
24 *2906:GATE_N *898:20 4.01768e-05
25 *829:10 *2898:D 2.83284e-06
26 *829:20 *2831:GATE_N 0.000574366
27 *829:20 *2895:D 0.000174092
28 *829:20 *2898:D 1.26701e-05
29 *829:20 *2946:D 0
30 *829:20 *3051:D 0.000160403
31 *829:20 *830:31 0
32 *829:20 *849:98 0.000213309
33 *829:20 *881:31 0.000445375
34 *829:20 *881:120 0.000671563
35 *829:20 *889:56 0.000708655
36 *829:37 *2519:B1 0
37 *829:37 *2540:A2 9.01896e-05
38 *829:37 *2870:GATE_N 0.000128146
39 *829:37 *2895:D 4.46186e-06
40 *829:37 *2900:GATE_N 8.94793e-05
41 *829:37 *2902:D 0.000214156
42 *829:37 *2902:GATE_N 5.14458e-05
43 *829:37 *3030:D 3.40128e-05
44 *829:37 *860:65 8.17657e-05
45 *829:37 *911:25 0
46 *829:37 *914:95 0
47 *829:69 *2485:B1 0.000113038
48 *829:69 *2539:B1 0.000354523
49 *829:69 *851:20 0.000520636
50 *829:69 *892:88 0.000307986
51 *829:73 *2485:B1 0.000177227
52 *829:100 *3054:D 0.000208065
53 *829:100 *854:42 0.000318107
54 *829:100 *878:16 0.000194227
55 *829:100 *878:38 0.000112875
56 *829:100 *878:59 4.62147e-05
57 *829:100 *881:57 0
58 *829:113 *2896:D 0.00052138
59 *829:113 *874:20 8.60626e-05
60 *829:113 *881:79 0.000230475
61 *2454:A1 *2903:GATE_N 0
62 *2471:A1 *829:20 0
63 *2485:A1 *829:73 0.000100831
64 *2485:A1 *829:88 0.000206524
65 *2493:B2 *2904:GATE_N 4.10274e-05
66 *2493:B2 *829:88 1.65169e-05
67 *2531:C1 *2901:GATE_N 0
68 *2539:B2 *829:69 2.27416e-05
69 *2540:A1 *829:69 1.18881e-05
70 *2586:A1 *829:41 2.5423e-05
71 *2595:C1 *829:20 0
72 *2602:A *829:20 0
73 *2932:GATE_N *829:20 0
74 *2932:GATE_N *829:37 0
75 *3048:GATE_N *2904:GATE_N 4.43256e-05
76 *3048:GATE_N *829:88 9.41642e-05
77 *3066:GATE_N *829:41 9.99644e-06
78 *3168:A *2903:GATE_N 1.92789e-05
79 *3172:A *2903:GATE_N 4.30382e-05
80 *3172:A *829:113 4.78573e-05
81 *377:12 *2903:GATE_N 1.19402e-05
82 *381:16 *2903:GATE_N 0.000122689
83 *389:10 *829:100 0
84 *580:20 *2895:GATE_N 4.01768e-05
85 *635:20 *2906:GATE_N 5.5518e-05
86 *635:20 *829:41 5.30637e-06
87 *807:22 *2901:GATE_N 0.000125717
88 *808:78 *829:20 0.000213297
89 *809:28 *829:69 7.91281e-05
90 *809:28 *829:73 4.23086e-05
91 *809:38 *2905:GATE_N 9.30603e-06
92 *809:38 *829:88 0.00010826
93 *809:38 *829:100 0.000153811
94 *809:44 *829:100 0
95 *810:106 *829:20 7.2754e-05
96 *812:76 *829:37 0
97 *822:176 *829:100 0.000316184
98 *826:10 *829:10 0.000156496
99 *826:10 *829:20 2.07809e-05
100 *826:47 *829:20 0
*RES
1 *3128:X *829:10 16.3893 
2 *829:10 *829:20 33.925 
3 *829:20 *2895:GATE_N 15.2821 
4 *829:20 *829:37 20.3393 
5 *829:37 *829:41 7.53571 
6 *829:41 *2906:GATE_N 13.0321 
7 *829:41 *2901:GATE_N 19.9429 
8 *829:37 *829:69 23.8393 
9 *829:69 *829:73 6.75 
10 *829:73 *2904:GATE_N 10.675 
11 *829:73 *829:88 8.30357 
12 *829:88 *829:100 33.75 
13 *829:100 *2894:GATE_N 9.3 
14 *829:100 *829:113 13.0179 
15 *829:113 *2903:GATE_N 22.1214 
16 *829:113 *2896:GATE_N 10.0321 
17 *829:88 *2905:GATE_N 16.925 
18 *829:69 *2897:GATE_N 13.8 
19 *829:10 *2898:GATE_N 13.8 
*END

*D_NET *830 0.0229721
*CONN
*I *2899:GATE_N I *D sky130_fd_sc_hd__dlxtn_1
*I *2909:GATE_N I *D sky130_fd_sc_hd__dlxtn_1
*I *2908:GATE_N I *D sky130_fd_sc_hd__dlxtn_1
*I *2900:GATE_N I *D sky130_fd_sc_hd__dlxtn_1
*I *2902:GATE_N I *D sky130_fd_sc_hd__dlxtn_1
*I *2907:GATE_N I *D sky130_fd_sc_hd__dlxtn_1
*I *3129:X O *D sky130_fd_sc_hd__clkbuf_2
*CAP
1 *2899:GATE_N 0.000339571
2 *2909:GATE_N 0
3 *2908:GATE_N 0
4 *2900:GATE_N 0.00110254
5 *2902:GATE_N 9.51889e-05
6 *2907:GATE_N 0
7 *3129:X 0.000431845
8 *830:90 0.000727864
9 *830:71 0.00103018
10 *830:35 0.00140353
11 *830:31 0.00178068
12 *830:20 0.00127201
13 *830:6 0.00263683
14 *2899:GATE_N *2517:A2 0.000113073
15 *2899:GATE_N *845:29 9.87983e-06
16 *2899:GATE_N *893:97 0.000368814
17 *2899:GATE_N *915:48 0.000250201
18 *2900:GATE_N *2519:A2 0.000298447
19 *2900:GATE_N *2932:D 8.62875e-05
20 *2900:GATE_N *864:10 9.11365e-06
21 *2900:GATE_N *892:33 4.13477e-05
22 *2900:GATE_N *914:95 0
23 *2902:GATE_N *914:95 0
24 *830:6 *912:43 0.000175894
25 *830:20 *2907:D 5.52238e-05
26 *830:20 *3220:A 5.52302e-05
27 *830:20 *3226:A 0.000352454
28 *830:20 *834:66 0.000319923
29 *830:20 *893:37 6.30931e-05
30 *830:20 *899:29 0.000559509
31 *830:20 *925:43 0.000785856
32 *830:20 *939:79 4.22135e-06
33 *830:20 *940:14 0.000135028
34 *830:20 *948:33 3.68898e-05
35 *830:31 *2464:A2 5.63133e-05
36 *830:31 *2471:A2 0.00015134
37 *830:31 *2541:A2 0.00031871
38 *830:31 *2895:D 0
39 *830:31 *3357:A 1.01912e-05
40 *830:31 *881:55 0
41 *830:31 *881:57 0.00010125
42 *830:31 *911:25 0
43 *830:31 *917:34 9.32406e-05
44 *830:35 *898:89 0.000312103
45 *830:71 *2605:A2 5.04216e-05
46 *830:71 *3084:D 3.89201e-05
47 *830:71 *898:89 0.000251377
48 *830:71 *898:161 0.00161036
49 *830:71 *914:151 4.15592e-05
50 *830:90 *2517:A2 3.93346e-05
51 *830:90 *897:45 0
52 *830:90 *914:151 4.58703e-05
53 *2463:B2 *830:31 5.85031e-05
54 *2467:A1 *830:20 4.70078e-05
55 *2467:B2 *830:20 0.00017142
56 *2471:A1 *830:31 0
57 *2520:C1 *2900:GATE_N 0.00022918
58 *2541:A1 *830:31 2.72602e-05
59 *2548:B1 *830:71 0.00151584
60 *2605:A1 *830:90 0.00010326
61 *2605:B2 *830:90 0
62 *2613:A *830:35 0.000560508
63 *2613:A *830:71 0.000242549
64 *2932:GATE_N *2900:GATE_N 0.000190098
65 *2941:GATE_N *2899:GATE_N 7.83587e-05
66 *3039:GATE_N *830:31 5.51598e-05
67 *3084:GATE_N *830:71 9.54798e-06
68 *3084:GATE_N *830:90 0.000323245
69 *3129:A *830:6 7.54273e-05
70 *3145:A *2900:GATE_N 0
71 *448:28 *830:90 0
72 *449:24 *830:90 0.000311021
73 *490:14 *830:20 1.98839e-05
74 *660:14 *2900:GATE_N 8.87524e-05
75 *806:50 *830:90 7.44918e-05
76 *811:20 *2899:GATE_N 9.26373e-05
77 *812:76 *830:20 0.000895272
78 *829:20 *830:31 0
79 *829:37 *2900:GATE_N 8.94793e-05
80 *829:37 *2902:GATE_N 5.14458e-05
*RES
1 *3129:X *830:6 17.2286 
2 *830:6 *830:20 41.8571 
3 *830:20 *2907:GATE_N 9.3 
4 *830:6 *830:31 25.7939 
5 *830:31 *830:35 4.3218 
6 *830:35 *2902:GATE_N 15.2911 
7 *830:35 *2900:GATE_N 40.1839 
8 *830:31 *830:71 8.40691 
9 *830:71 *2908:GATE_N 13.8 
10 *830:71 *830:90 15.3571 
11 *830:90 *2909:GATE_N 9.3 
12 *830:90 *2899:GATE_N 27.8893 
*END

*D_NET *831 0.0288206
*CONN
*I *2882:GATE_N I *D sky130_fd_sc_hd__dlxtn_1
*I *2879:GATE_N I *D sky130_fd_sc_hd__dlxtn_1
*I *2886:GATE_N I *D sky130_fd_sc_hd__dlxtn_1
*I *2881:GATE_N I *D sky130_fd_sc_hd__dlxtn_1
*I *2887:GATE_N I *D sky130_fd_sc_hd__dlxtn_1
*I *2889:GATE_N I *D sky130_fd_sc_hd__dlxtn_1
*I *2878:GATE_N I *D sky130_fd_sc_hd__dlxtn_1
*I *2888:GATE_N I *D sky130_fd_sc_hd__dlxtn_1
*I *2880:GATE_N I *D sky130_fd_sc_hd__dlxtn_1
*I *2885:GATE_N I *D sky130_fd_sc_hd__dlxtn_1
*I *3130:X O *D sky130_fd_sc_hd__buf_2
*CAP
1 *2882:GATE_N 0.000823695
2 *2879:GATE_N 4.32118e-05
3 *2886:GATE_N 0.000981661
4 *2881:GATE_N 2.07507e-05
5 *2887:GATE_N 0.000756656
6 *2889:GATE_N 0
7 *2878:GATE_N 1.95505e-05
8 *2888:GATE_N 0.000421369
9 *2880:GATE_N 0.000333401
10 *2885:GATE_N 7.40305e-05
11 *3130:X 0
12 *831:69 0.000993792
13 *831:63 0.00120409
14 *831:53 0.00135939
15 *831:40 0.00116144
16 *831:30 0.00152147
17 *831:28 0.00127222
18 *831:22 0.00269813
19 *831:18 0.00123964
20 *831:4 0.00146386
21 *2878:GATE_N *2477:B1 3.08382e-06
22 *2879:GATE_N *837:83 9.60875e-05
23 *2880:GATE_N *833:56 9.90431e-05
24 *2881:GATE_N *871:51 2.91601e-05
25 *2881:GATE_N *921:109 2.49484e-05
26 *2881:GATE_N *923:36 7.79781e-06
27 *2882:GATE_N *2464:A2 0.000106354
28 *2882:GATE_N *929:83 1.46576e-05
29 *2885:GATE_N *2885:D 5.52238e-05
30 *2886:GATE_N *2870:GATE_N 0.00011767
31 *2886:GATE_N *3078:D 0.000279862
32 *2886:GATE_N *847:125 0
33 *2886:GATE_N *851:33 5.82037e-05
34 *2887:GATE_N *2557:A2 3.18676e-05
35 *2887:GATE_N *2849:D 0.000223592
36 *2887:GATE_N *858:38 0
37 *2887:GATE_N *871:75 0.000212123
38 *2887:GATE_N *871:77 0.000158622
39 *2887:GATE_N *921:109 2.16719e-05
40 *2887:GATE_N *923:36 0
41 *2887:GATE_N *928:51 0.000500469
42 *2887:GATE_N *928:59 0.000156243
43 *2888:GATE_N *2974:D 0
44 *2888:GATE_N *833:69 0.00021367
45 *831:18 *2465:A2 1.43349e-05
46 *831:18 *2859:GATE_N 0.000235739
47 *831:18 *2879:D 0
48 *831:18 *834:66 0
49 *831:18 *837:83 0.000418741
50 *831:18 *864:10 4.37397e-05
51 *831:18 *876:21 0
52 *831:18 *892:33 5.31113e-05
53 *831:18 *925:43 0.0001394
54 *831:22 *847:125 8.94221e-05
55 *831:22 *864:47 0
56 *831:22 *892:33 0.000293419
57 *831:22 *922:47 0
58 *831:22 *937:12 0
59 *831:28 *2564:A2 0
60 *831:28 *3029:D 0
61 *831:28 *3158:A 2.53587e-05
62 *831:28 *847:125 8.6229e-06
63 *831:28 *851:53 0
64 *831:28 *871:33 0.000759536
65 *831:28 *871:51 5.33005e-05
66 *831:28 *892:33 0.000105513
67 *831:28 *892:39 0.000343346
68 *831:28 *898:31 0
69 *831:30 *871:51 6.26944e-05
70 *831:30 *871:53 4.08637e-05
71 *831:40 *2534:A2 5.71472e-05
72 *831:40 *2865:D 9.90367e-05
73 *831:40 *2865:GATE_N 4.87953e-05
74 *831:40 *2885:D 4.08637e-05
75 *831:40 *871:53 0.000137983
76 *831:53 *2566:A2 0
77 *831:53 *2965:D 0.000226021
78 *831:53 *862:81 2.24646e-05
79 *831:53 *900:52 4.98055e-06
80 *831:53 *904:53 0.000412326
81 *831:63 *2456:B1 0.000340788
82 *831:63 *2477:A2 1.71279e-05
83 *831:63 *2477:B1 3.35916e-05
84 *831:63 *904:53 0.000529514
85 *831:69 *2477:B1 0.000258536
86 *831:69 *2864:GATE_N 6.35998e-05
87 *831:69 *833:69 9.69119e-06
88 *2466:B2 *831:18 0.000145818
89 *2466:C1 *831:18 2.84494e-05
90 *2470:B *2882:GATE_N 7.6644e-05
91 *2470:C *2882:GATE_N 0.000253017
92 *2470:C *831:18 5.33005e-05
93 *2477:A1 *831:69 3.97657e-05
94 *2477:B2 *2888:GATE_N 0.000100823
95 *2477:B2 *831:69 0.000199349
96 *2478:C1 *831:63 1.33343e-05
97 *2478:C1 *831:69 0.000143652
98 *2488:A1 *831:28 0.000183726
99 *2488:A1 *831:30 5.52238e-05
100 *2530:A1 *831:28 6.19126e-05
101 *2530:B2 *831:28 0.000153047
102 *2534:A1 *831:40 9.6087e-05
103 *2535:B1 *831:40 2.27189e-05
104 *2539:B2 *2886:GATE_N 3.18676e-05
105 *2564:B2 *831:28 2.8266e-06
106 *2565:A1 *2888:GATE_N 0
107 *2565:B2 *2888:GATE_N 0
108 *2568:B1 *831:53 4.25716e-05
109 *2569:B *2885:GATE_N 0.000186662
110 *2569:B *831:40 0.000150109
111 *2569:C *831:53 5.97623e-05
112 *2580:B *2887:GATE_N 0
113 *2580:C *2887:GATE_N 2.89114e-05
114 *2585:B2 *831:22 0.000315422
115 *2586:B2 *2886:GATE_N 5.71472e-05
116 *2601:A1 *2882:GATE_N 3.62456e-05
117 *2601:B2 *2882:GATE_N 0.000230774
118 *2613:C *831:22 0
119 *2913:GATE_N *831:28 5.33433e-05
120 *2917:GATE_N *831:28 0.000139009
121 *2948:GATE_N *831:18 0
122 *2948:GATE_N *831:22 0
123 *2993:GATE_N *2887:GATE_N 0.000138348
124 *3034:GATE_N *831:28 0
125 *3066:GATE_N *2886:GATE_N 4.10274e-05
126 *491:12 *2882:GATE_N 0.00012938
127 *499:38 *2882:GATE_N 0.00051129
128 *615:12 *831:28 2.07382e-05
129 *615:12 *831:30 1.15281e-05
130 *615:12 *831:40 0.000305108
131 *660:14 *831:22 0
132 *811:97 *831:28 0
133 *814:80 *2888:GATE_N 8.16036e-05
134 *820:20 *831:53 0
135 *820:24 *831:53 0
136 *820:24 *831:63 0
137 *820:30 *831:63 0.000355747
138 *820:73 *831:63 0.000312735
139 *823:20 *2882:GATE_N 0.000163278
*RES
1 *3130:X *831:4 9.3 
2 *831:4 *831:18 25.5893 
3 *831:18 *831:22 12.5 
4 *831:22 *831:28 28.8036 
5 *831:28 *831:30 1.76786 
6 *831:30 *831:40 14.1607 
7 *831:40 *2885:GATE_N 11.4964 
8 *831:40 *831:53 14.6429 
9 *831:53 *831:63 21.4286 
10 *831:63 *831:69 11.2857 
11 *831:69 *2880:GATE_N 18.9964 
12 *831:69 *2888:GATE_N 23.0321 
13 *831:63 *2878:GATE_N 9.72857 
14 *831:53 *2889:GATE_N 13.8 
15 *831:30 *2887:GATE_N 36.925 
16 *831:28 *2881:GATE_N 19.0321 
17 *831:22 *2886:GATE_N 29.175 
18 *831:18 *2879:GATE_N 14.7464 
19 *831:4 *2882:GATE_N 34.9429 
*END

*D_NET *832 0.0188533
*CONN
*I *2891:GATE_N I *D sky130_fd_sc_hd__dlxtn_1
*I *2893:GATE_N I *D sky130_fd_sc_hd__dlxtn_1
*I *2892:GATE_N I *D sky130_fd_sc_hd__dlxtn_1
*I *2884:GATE_N I *D sky130_fd_sc_hd__dlxtn_1
*I *2890:GATE_N I *D sky130_fd_sc_hd__dlxtn_1
*I *2883:GATE_N I *D sky130_fd_sc_hd__dlxtn_1
*I *3131:X O *D sky130_fd_sc_hd__dlymetal6s2s_1
*CAP
1 *2891:GATE_N 0.000313191
2 *2893:GATE_N 0
3 *2892:GATE_N 1.86367e-05
4 *2884:GATE_N 0
5 *2890:GATE_N 0.000312985
6 *2883:GATE_N 0.000684404
7 *3131:X 0
8 *832:47 0.00157459
9 *832:37 0.00150422
10 *832:33 0.000826748
11 *832:25 0.00133874
12 *832:4 0.00110718
13 *2883:GATE_N *2883:D 0
14 *2883:GATE_N *866:39 0.000128419
15 *2890:GATE_N *2587:B1 0
16 *2890:GATE_N *2874:D 2.47093e-05
17 *2890:GATE_N *2884:D 4.1331e-06
18 *2890:GATE_N *2970:D 5.71472e-05
19 *2891:GATE_N *840:44 0.00122638
20 *2891:GATE_N *866:39 0.00137026
21 *2891:GATE_N *892:33 4.70078e-05
22 *832:25 *2411:A 9.41642e-05
23 *832:25 *2415:B 0.000347362
24 *832:25 *840:44 0.000517573
25 *832:25 *840:46 0.000135028
26 *832:25 *866:39 0.0016205
27 *832:25 *909:60 2.77173e-05
28 *832:25 *909:66 9.31893e-05
29 *832:33 *2521:B1 0.000114551
30 *832:33 *2599:A2 5.08385e-05
31 *832:33 *2991:D 0.000206905
32 *832:33 *844:20 8.49861e-06
33 *832:33 *875:24 7.5425e-05
34 *832:33 *875:30 0.000171526
35 *832:33 *903:28 0.00017333
36 *832:33 *905:10 5.97719e-05
37 *832:37 *2521:B1 8.07951e-05
38 *832:37 *2988:D 0
39 *832:37 *844:20 1.41706e-05
40 *832:47 *2522:B1 0.00120834
41 *832:47 *2852:D 9.83442e-05
42 *832:47 *2852:GATE_N 4.42925e-05
43 *832:47 *2884:D 4.57352e-05
44 *2511:B2 *2883:GATE_N 5.75147e-05
45 *2521:A1 *832:47 1.02911e-05
46 *2522:B2 *832:47 1.64621e-05
47 *2522:C1 *832:47 3.56689e-05
48 *2525:A *2892:GATE_N 4.88637e-05
49 *2525:A *832:47 0.000691479
50 *2587:B2 *2890:GATE_N 0.000181959
51 *2962:GATE_N *2883:GATE_N 0.000332039
52 *3114:A *832:47 0.00026839
53 *3116:A *832:37 0.000153964
54 *3118:A *2883:GATE_N 3.75109e-05
55 *3131:A *832:25 4.62969e-05
56 *496:16 *832:33 0
57 *496:16 *832:37 0
58 *580:10 *2892:GATE_N 5.33433e-05
59 *580:10 *832:47 0.000328432
60 *818:14 *2890:GATE_N 4.78932e-05
61 *818:14 *832:47 0
62 *818:18 *2890:GATE_N 0.000198729
63 *819:23 *832:33 0.000617667
*RES
1 *3131:X *832:4 9.3 
2 *832:4 *2883:GATE_N 29.8179 
3 *832:4 *832:25 16.1607 
4 *832:25 *832:33 20.1607 
5 *832:33 *832:37 9.48214 
6 *832:37 *832:47 31.6607 
7 *832:47 *2890:GATE_N 21.7464 
8 *832:47 *2884:GATE_N 13.8 
9 *832:37 *2892:GATE_N 10.2464 
10 *832:33 *2893:GATE_N 13.8 
11 *832:25 *2891:GATE_N 22.9964 
*END

*D_NET *833 0.024927
*CONN
*I *2870:GATE_N I *D sky130_fd_sc_hd__dlxtn_1
*I *2876:GATE_N I *D sky130_fd_sc_hd__dlxtn_1
*I *2865:GATE_N I *D sky130_fd_sc_hd__dlxtn_1
*I *2862:GATE_N I *D sky130_fd_sc_hd__dlxtn_1
*I *2874:GATE_N I *D sky130_fd_sc_hd__dlxtn_1
*I *2869:GATE_N I *D sky130_fd_sc_hd__dlxtn_1
*I *2872:GATE_N I *D sky130_fd_sc_hd__dlxtn_1
*I *2864:GATE_N I *D sky130_fd_sc_hd__dlxtn_1
*I *2871:GATE_N I *D sky130_fd_sc_hd__dlxtn_1
*I *2873:GATE_N I *D sky130_fd_sc_hd__dlxtn_1
*I *3132:X O *D sky130_fd_sc_hd__buf_2
*CAP
1 *2870:GATE_N 0.00207865
2 *2876:GATE_N 0
3 *2865:GATE_N 2.91069e-05
4 *2862:GATE_N 0
5 *2874:GATE_N 0.000363391
6 *2869:GATE_N 0.000269816
7 *2872:GATE_N 3.04135e-05
8 *2864:GATE_N 0.000282253
9 *2871:GATE_N 0.000486026
10 *2873:GATE_N 0.000192424
11 *3132:X 0
12 *833:120 0.00220047
13 *833:80 0.000966221
14 *833:69 0.000947813
15 *833:56 0.000955029
16 *833:52 0.00118707
17 *833:18 0.0009779
18 *833:14 0.00197035
19 *833:12 0.00117529
20 *833:4 0.000695787
21 *2864:GATE_N *2976:D 0
22 *2864:GATE_N *873:60 9.25014e-06
23 *2864:GATE_N *873:73 0.000166983
24 *2864:GATE_N *873:84 0
25 *2869:GATE_N *2869:D 9.90367e-05
26 *2870:GATE_N *2611:B1 0.00026353
27 *2870:GATE_N *3078:D 0.000226884
28 *2870:GATE_N *847:23 5.52238e-05
29 *2870:GATE_N *847:125 0.000191526
30 *2870:GATE_N *851:33 0.000574067
31 *2870:GATE_N *851:53 3.87936e-05
32 *2870:GATE_N *914:95 0
33 *2871:GATE_N *2999:D 0.000142856
34 *2871:GATE_N *858:59 0
35 *2871:GATE_N *873:44 8.07313e-05
36 *2872:GATE_N *2984:D 5.33005e-05
37 *2873:GATE_N *3001:D 5.7903e-06
38 *2873:GATE_N *877:38 9.33105e-05
39 *2873:GATE_N *928:63 5.06018e-05
40 *833:12 *2961:D 0
41 *833:12 *851:53 0.000274294
42 *833:12 *928:39 0.000185748
43 *833:12 *934:26 7.1325e-05
44 *833:12 *934:28 8.33559e-05
45 *833:14 *2849:GATE_N 0
46 *833:14 *2855:GATE_N 0
47 *833:14 *923:63 6.51946e-05
48 *833:14 *928:51 0
49 *833:14 *934:28 0.000217854
50 *833:14 *934:30 0.000136603
51 *833:14 *934:51 0.000747067
52 *833:18 *2578:B1 1.90936e-05
53 *833:18 *2579:C1 0.000147926
54 *833:18 *853:67 0
55 *833:18 *923:50 4.52531e-05
56 *833:18 *923:63 0.000177878
57 *833:18 *934:51 0.000103974
58 *833:52 *2958:D 0.000276015
59 *833:52 *877:81 0.000392848
60 *833:52 *934:70 6.13039e-05
61 *833:69 *2976:D 0
62 *833:69 *3016:D 0
63 *833:80 *2869:D 0
64 *833:120 *847:6 4.88515e-05
65 *833:120 *847:23 1.39841e-05
66 *833:120 *851:53 0.000267377
67 *2457:A1 *833:52 0.000529166
68 *2458:A1 *833:52 2.40379e-05
69 *2460:B2 *2871:GATE_N 0.000199384
70 *2460:B2 *2873:GATE_N 9.52156e-05
71 *2477:B2 *2864:GATE_N 0
72 *2478:B2 *833:52 0.00018345
73 *2478:B2 *833:56 1.98839e-05
74 *2532:B2 *2874:GATE_N 0
75 *2532:B2 *833:80 0
76 *2536:C *833:12 0.000150618
77 *2554:A1 *2871:GATE_N 3.14539e-05
78 *2577:B2 *833:14 0
79 *2577:C1 *833:14 0
80 *2578:A1 *833:18 0.000144479
81 *2578:B2 *833:18 0.000273753
82 *2590:A1 *833:12 0.000148196
83 *2590:B1 *833:12 0.000337644
84 *2880:GATE_N *833:56 9.90431e-05
85 *2886:GATE_N *2870:GATE_N 0.00011767
86 *2888:GATE_N *833:69 0.00021367
87 *2961:GATE_N *833:12 0.000154405
88 *2983:GATE_N *833:52 0.000485543
89 *2993:GATE_N *833:12 0
90 *2993:GATE_N *833:14 0
91 *3013:GATE_N *833:69 0.000216771
92 *3013:GATE_N *833:80 0.000367389
93 *3132:A *833:12 0.000102207
94 *615:12 *2865:GATE_N 5.33433e-05
95 *814:80 *833:69 0.000320031
96 *816:54 *2873:GATE_N 4.01462e-06
97 *818:18 *2874:GATE_N 0.000209584
98 *818:24 *2874:GATE_N 0
99 *818:24 *833:80 0
100 *818:26 *833:80 0
101 *818:30 *833:69 0
102 *818:30 *833:80 0
103 *829:37 *2870:GATE_N 0.000128146
104 *831:40 *2865:GATE_N 4.87953e-05
105 *831:69 *2864:GATE_N 6.35998e-05
106 *831:69 *833:69 9.69119e-06
*RES
1 *3132:X *833:4 9.3 
2 *833:4 *833:12 20.5 
3 *833:12 *833:14 14.0893 
4 *833:14 *833:18 11.5796 
5 *833:18 *2873:GATE_N 18.1824 
6 *833:18 *2871:GATE_N 21.8087 
7 *833:14 *833:52 26.4107 
8 *833:52 *833:56 6.26786 
9 *833:56 *2864:GATE_N 19.7286 
10 *833:56 *833:69 14.3929 
11 *833:69 *2872:GATE_N 14.3357 
12 *833:69 *833:80 7.10714 
13 *833:80 *2869:GATE_N 18.175 
14 *833:80 *2874:GATE_N 21.5143 
15 *833:52 *2862:GATE_N 9.3 
16 *833:12 *2865:GATE_N 14.7464 
17 *833:4 *833:120 3.32143 
18 *833:120 *2876:GATE_N 9.3 
19 *833:120 *2870:GATE_N 46.6393 
*END

*D_NET *834 0.0199371
*CONN
*I *2877:GATE_N I *D sky130_fd_sc_hd__dlxtn_1
*I *2863:GATE_N I *D sky130_fd_sc_hd__dlxtn_1
*I *2866:GATE_N I *D sky130_fd_sc_hd__dlxtn_1
*I *2875:GATE_N I *D sky130_fd_sc_hd__dlxtn_1
*I *2867:GATE_N I *D sky130_fd_sc_hd__dlxtn_1
*I *2868:GATE_N I *D sky130_fd_sc_hd__dlxtn_1
*I *3133:X O *D sky130_fd_sc_hd__clkbuf_2
*CAP
1 *2877:GATE_N 4.70027e-05
2 *2863:GATE_N 0
3 *2866:GATE_N 0.000481565
4 *2875:GATE_N 0
5 *2867:GATE_N 0.000463503
6 *2868:GATE_N 0.000245037
7 *3133:X 9.76227e-05
8 *834:72 0.000719643
9 *834:66 0.00180734
10 *834:44 0.0027653
11 *834:14 0.00178729
12 *834:10 0.00227479
13 *834:8 0.000144625
14 *2866:GATE_N *2875:D 3.80385e-05
15 *2866:GATE_N *899:85 8.53281e-05
16 *2867:GATE_N *2963:D 0.000392276
17 *2867:GATE_N *2979:D 0
18 *2867:GATE_N *866:47 9.83442e-05
19 *2867:GATE_N *866:53 0.000282308
20 *2868:GATE_N *3012:D 0
21 *2868:GATE_N *864:67 0
22 *2868:GATE_N *864:89 0
23 *2877:GATE_N *2524:A2 0.000125731
24 *834:8 *2524:A2 0.000217034
25 *834:44 *2622:A2 0.000229456
26 *834:44 *2622:B1 5.52302e-05
27 *834:44 *844:45 0.000219711
28 *834:66 *2406:C 9.71197e-05
29 *834:66 *2406:D 2.28598e-05
30 *834:66 *2465:A2 5.65001e-05
31 *834:66 *2863:D 1.58163e-05
32 *834:66 *3226:A 0.000190012
33 *834:66 *876:21 0.000422943
34 *834:66 *892:33 0.000236623
35 *834:66 *893:37 6.46173e-05
36 *834:66 *922:47 0.000180777
37 *834:66 *925:43 0
38 *834:66 *925:72 5.41797e-06
39 *834:66 *939:38 8.91726e-05
40 *834:66 *939:40 1.08359e-05
41 *834:66 *941:21 0.000167018
42 *834:66 *941:25 0.000190336
43 *834:66 *943:8 0.00012501
44 *834:66 *943:33 0.00020517
45 *834:72 *2875:D 0.000206174
46 *834:72 *2939:D 1.19402e-05
47 *834:72 *849:10 7.50505e-05
48 *834:72 *850:8 4.97121e-06
49 *834:72 *850:31 0.000120512
50 *2465:A1 *834:66 5.61015e-05
51 *2465:B2 *834:66 5.33433e-05
52 *2467:B2 *834:66 3.52655e-05
53 *2596:B2 *834:72 4.78056e-05
54 *2622:A1 *834:44 2.24079e-05
55 *2622:B2 *834:44 0.000137983
56 *2623:B1 *834:44 0.000206184
57 *2963:GATE_N *2867:GATE_N 0.000312202
58 *2963:GATE_N *2868:GATE_N 3.34366e-05
59 *2964:GATE_N *2868:GATE_N 0.000433926
60 *2979:GATE_N *2867:GATE_N 0.000234523
61 *3007:GATE_N *834:44 7.71596e-05
62 *3021:GATE_N *834:8 0.000100823
63 *3120:A *834:44 7.55804e-05
64 *3134:A *2877:GATE_N 5.97719e-05
65 *3134:A *834:8 5.63396e-05
66 *3147:A *834:66 9.7659e-05
67 *491:6 *834:66 0.000139907
68 *499:18 *834:66 0.00022836
69 *647:10 *834:66 9.22103e-06
70 *818:14 *2867:GATE_N 7.57773e-05
71 *821:16 *834:14 9.71197e-05
72 *821:16 *834:44 0.000423485
73 *821:18 *834:14 0.00069283
74 *821:22 *834:14 0.000833921
75 *830:20 *834:66 0.000319923
76 *831:18 *834:66 0
*RES
1 *3133:X *834:8 16.6571 
2 *834:8 *834:10 4.5 
3 *834:10 *834:14 19.8214 
4 *834:14 *2868:GATE_N 19.6929 
5 *834:14 *2867:GATE_N 27.7464 
6 *834:10 *834:44 30.4107 
7 *834:44 *834:66 49.5536 
8 *834:66 *834:72 10.2679 
9 *834:72 *2875:GATE_N 9.3 
10 *834:72 *2866:GATE_N 15.8179 
11 *834:44 *2863:GATE_N 9.3 
12 *834:8 *2877:GATE_N 15.4429 
*END

*D_NET *835 0.000623633
*CONN
*I *2650:A1 I *D sky130_fd_sc_hd__mux2_1
*I *3247:X O *D sky130_fd_sc_hd__clkbuf_1
*CAP
1 *2650:A1 0.000172387
2 *3247:X 0.000172387
3 *2650:A1 *2643:S 6.74911e-05
4 *2650:A1 *2650:A0 0.000129868
5 *3247:A *2650:A1 4.51526e-05
6 *3281:A *2650:A1 2.89114e-05
7 *790:8 *2650:A1 7.43578e-06
*RES
1 *3247:X *2650:A1 31.0107 
*END

*D_NET *836 0.0219768
*CONN
*I *2854:GATE_N I *D sky130_fd_sc_hd__dlxtn_1
*I *2860:GATE_N I *D sky130_fd_sc_hd__dlxtn_1
*I *2858:GATE_N I *D sky130_fd_sc_hd__dlxtn_1
*I *2853:GATE_N I *D sky130_fd_sc_hd__dlxtn_1
*I *2849:GATE_N I *D sky130_fd_sc_hd__dlxtn_1
*I *2855:GATE_N I *D sky130_fd_sc_hd__dlxtn_1
*I *2857:GATE_N I *D sky130_fd_sc_hd__dlxtn_1
*I *2848:GATE_N I *D sky130_fd_sc_hd__dlxtn_1
*I *2846:GATE_N I *D sky130_fd_sc_hd__dlxtn_1
*I *2856:GATE_N I *D sky130_fd_sc_hd__dlxtn_1
*I *3134:X O *D sky130_fd_sc_hd__buf_2
*CAP
1 *2854:GATE_N 0
2 *2860:GATE_N 0.00122243
3 *2858:GATE_N 7.33511e-05
4 *2853:GATE_N 5.12581e-05
5 *2849:GATE_N 0.000101894
6 *2855:GATE_N 0.00085604
7 *2857:GATE_N 3.82418e-05
8 *2848:GATE_N 0
9 *2846:GATE_N 0.00018964
10 *2856:GATE_N 0.000261382
11 *3134:X 0
12 *836:152 0.00130346
13 *836:106 0.00139309
14 *836:95 0.00134321
15 *836:67 0.000794316
16 *836:57 0.00182715
17 *836:38 0.00113539
18 *836:22 0.00114878
19 *836:10 0.000916658
20 *836:4 0.000348153
21 *2846:GATE_N *873:60 0.000141734
22 *2846:GATE_N *877:40 5.49544e-05
23 *2846:GATE_N *877:51 0.000173097
24 *2846:GATE_N *877:68 1.02504e-05
25 *2849:GATE_N *2577:B1 0.000102545
26 *2849:GATE_N *928:51 2.28159e-05
27 *2849:GATE_N *928:59 5.79294e-05
28 *2853:GATE_N *2532:B1 3.42426e-05
29 *2853:GATE_N *862:43 5.41794e-05
30 *2855:GATE_N *2554:B1 4.64488e-06
31 *2855:GATE_N *2855:D 3.14163e-05
32 *2855:GATE_N *3015:D 2.23626e-05
33 *2855:GATE_N *923:50 2.87555e-06
34 *2855:GATE_N *923:63 0
35 *2855:GATE_N *928:59 0.000719846
36 *2856:GATE_N *2856:D 1.58435e-05
37 *2856:GATE_N *855:32 1.59782e-05
38 *2857:GATE_N *853:37 0
39 *2858:GATE_N *862:35 6.79127e-05
40 *2860:GATE_N *2542:B1 7.32272e-05
41 *2860:GATE_N *2609:B1 0.000195546
42 *2860:GATE_N *2966:D 3.67142e-05
43 *2860:GATE_N *847:57 7.61932e-05
44 *2860:GATE_N *861:18 0
45 *836:22 *2588:A2 0.000101545
46 *836:22 *862:35 0.000507357
47 *836:38 *862:43 0.00012401
48 *836:38 *906:114 0.000636273
49 *836:57 *921:46 0.000546573
50 *836:67 *2455:A2 0.000169815
51 *836:67 *2478:B1 5.7616e-05
52 *836:67 *2992:D 0.000110523
53 *836:67 *873:60 8.42609e-05
54 *836:67 *877:68 0
55 *836:67 *877:79 0
56 *836:67 *921:46 0.00012501
57 *836:95 *2457:B1 0.000178847
58 *836:95 *2889:D 3.4879e-05
59 *836:95 *853:41 0.000111451
60 *836:106 *853:37 0.000226028
61 *836:106 *853:39 1.56e-05
62 *836:106 *853:41 3.67142e-05
63 *836:152 *906:93 3.48705e-05
64 *2533:C1 *2853:GATE_N 9.83388e-05
65 *2533:C1 *836:22 0.000350555
66 *2542:A1 *2860:GATE_N 1.32552e-05
67 *2543:B2 *2860:GATE_N 7.86647e-05
68 *2554:A1 *2855:GATE_N 4.69661e-05
69 *2554:B2 *2855:GATE_N 6.76487e-05
70 *2565:A1 *836:38 9.25014e-06
71 *2565:B2 *2856:GATE_N 9.11048e-06
72 *2566:A1 *836:57 3.06878e-06
73 *2566:B2 *836:38 0
74 *2566:C1 *836:38 4.58194e-05
75 *2567:B2 *2856:GATE_N 0.000303542
76 *2567:B2 *836:57 0.000223294
77 *2577:B2 *2849:GATE_N 6.98302e-05
78 *2577:B2 *2855:GATE_N 7.6644e-05
79 *2577:C1 *2849:GATE_N 5.84075e-05
80 *2579:B1 *2855:GATE_N 0.000117662
81 *2958:GATE_N *836:67 4.51348e-05
82 *2966:GATE_N *2860:GATE_N 6.05161e-06
83 *3006:GATE_N *2846:GATE_N 3.08664e-05
84 *3015:GATE_N *2855:GATE_N 9.63581e-05
85 *3120:A *2860:GATE_N 8.85597e-05
86 *3134:A *2860:GATE_N 0.000284549
87 *3134:A *836:152 5.52238e-05
88 *816:18 *836:10 0.000117189
89 *816:18 *836:152 5.33433e-05
90 *816:20 *836:10 0.000367396
91 *816:30 *836:38 0
92 *816:30 *836:57 0.000259271
93 *816:38 *836:57 0.000295844
94 *816:38 *836:67 0.000655183
95 *816:44 *836:67 1.42165e-05
96 *816:54 *2846:GATE_N 9.14771e-06
97 *820:10 *2860:GATE_N 0
98 *820:10 *836:10 0
99 *820:12 *836:10 0
100 *820:20 *836:10 0
101 *820:38 *836:67 6.27272e-06
102 *833:14 *2849:GATE_N 0
103 *833:14 *2855:GATE_N 0
*RES
1 *3134:X *836:4 9.3 
2 *836:4 *836:10 15.1964 
3 *836:10 *836:22 23.3036 
4 *836:22 *836:38 25.0714 
5 *836:38 *2856:GATE_N 22.0321 
6 *836:38 *836:57 14.1964 
7 *836:57 *836:67 18.4821 
8 *836:67 *2846:GATE_N 22.7464 
9 *836:67 *2848:GATE_N 9.3 
10 *836:57 *836:95 15.8571 
11 *836:95 *2857:GATE_N 10.0321 
12 *836:95 *836:106 10.375 
13 *836:106 *2855:GATE_N 30.3357 
14 *836:106 *2849:GATE_N 16.9607 
15 *836:22 *2853:GATE_N 15.4786 
16 *836:10 *2858:GATE_N 10.675 
17 *836:4 *836:152 2.08929 
18 *836:152 *2860:GATE_N 38.1571 
19 *836:152 *2854:GATE_N 9.3 
*END

*D_NET *837 0.0192154
*CONN
*I *2850:GATE_N I *D sky130_fd_sc_hd__dlxtn_1
*I *2859:GATE_N I *D sky130_fd_sc_hd__dlxtn_1
*I *2847:GATE_N I *D sky130_fd_sc_hd__dlxtn_1
*I *2861:GATE_N I *D sky130_fd_sc_hd__dlxtn_1
*I *2852:GATE_N I *D sky130_fd_sc_hd__dlxtn_1
*I *2851:GATE_N I *D sky130_fd_sc_hd__dlxtn_1
*I *3135:X O *D sky130_fd_sc_hd__clkbuf_2
*CAP
1 *2850:GATE_N 1.38645e-05
2 *2859:GATE_N 0.000481731
3 *2847:GATE_N 0.000123529
4 *2861:GATE_N 0
5 *2852:GATE_N 0.000992682
6 *2851:GATE_N 0.000641981
7 *3135:X 0
8 *837:83 0.00249325
9 *837:56 0.00193607
10 *837:31 0.00173809
11 *837:27 0.00126057
12 *837:4 0.00119135
13 *2847:GATE_N *876:41 0.000265453
14 *2850:GATE_N *2415:B 5.83304e-05
15 *2850:GATE_N *907:48 1.91512e-05
16 *2851:GATE_N *2501:C1 0
17 *2851:GATE_N *2513:C1 9.60939e-05
18 *2851:GATE_N *2851:D 5.49544e-05
19 *2852:GATE_N *2521:A2 9.90367e-05
20 *2852:GATE_N *2521:B1 0.000288564
21 *2852:GATE_N *2522:A2 0
22 *2852:GATE_N *2523:A2 0.000348247
23 *2852:GATE_N *2523:B1 1.00399e-05
24 *2852:GATE_N *2852:D 2.53893e-05
25 *2852:GATE_N *922:68 0.000149119
26 *2859:GATE_N *2467:B1 8.36987e-05
27 *2859:GATE_N *849:37 5.52302e-05
28 *2859:GATE_N *895:8 6.93424e-05
29 *2859:GATE_N *922:27 0.000139677
30 *2859:GATE_N *925:43 0.000145693
31 *837:27 *2512:B1 7.36029e-05
32 *837:27 *2850:D 1.58163e-05
33 *837:31 *2415:B 0.000121573
34 *837:31 *2524:A2 5.80911e-05
35 *837:31 *2989:D 0.000245335
36 *837:31 *844:56 0.000170661
37 *837:31 *904:16 0
38 *837:31 *905:47 0
39 *837:31 *907:48 8.15194e-05
40 *837:31 *929:18 0
41 *837:56 *922:68 5.91336e-05
42 *837:83 *2879:D 5.33005e-05
43 *837:83 *2988:D 0.000102197
44 *837:83 *3021:D 0.000146474
45 *837:83 *864:10 0
46 *837:83 *864:47 0.000331001
47 *837:83 *922:68 2.79421e-05
48 *2466:A1 *2859:GATE_N 0.000186316
49 *2466:A1 *837:83 0.000195607
50 *2466:B2 *2847:GATE_N 6.05161e-06
51 *2466:B2 *2859:GATE_N 0.000142389
52 *2510:B2 *2851:GATE_N 7.9568e-05
53 *2512:B2 *2851:GATE_N 0.00013833
54 *2513:B1 *2851:GATE_N 0.000266092
55 *2521:A1 *2852:GATE_N 0.000184522
56 *2521:B2 *2852:GATE_N 1.76039e-05
57 *2522:A1 *2852:GATE_N 7.6644e-05
58 *2522:B2 *2852:GATE_N 0.00026118
59 *2524:B1 *2852:GATE_N 0.00015234
60 *2600:A1 *2859:GATE_N 0.000191667
61 *2879:GATE_N *837:83 9.60875e-05
62 *2932:GATE_N *837:83 0.000104236
63 *2943:GATE_N *837:83 1.01417e-05
64 *2980:GATE_N *2852:GATE_N 8.26162e-05
65 *2988:GATE_N *837:83 2.59355e-05
66 *3007:GATE_N *837:31 0.000657129
67 *3114:A *837:83 0.000148182
68 *3120:A *837:31 4.43698e-05
69 *3131:A *837:31 0.000136684
70 *3132:A *2852:GATE_N 5.46298e-05
71 *3132:A *837:56 0.000183713
72 *3132:A *837:83 8.17274e-05
73 *3135:A *837:27 0.000156926
74 *3135:A *837:31 0
75 *3208:A *837:83 0.000394975
76 *437:26 *837:31 0.000144279
77 *823:20 *2859:GATE_N 2.89114e-05
78 *831:18 *2859:GATE_N 0.000235739
79 *831:18 *837:83 0.000418741
80 *832:47 *2852:GATE_N 4.42925e-05
*RES
1 *3135:X *837:4 9.3 
2 *837:4 *2851:GATE_N 28.925 
3 *837:4 *837:27 11.6071 
4 *837:27 *837:31 21.0179 
5 *837:31 *2852:GATE_N 39.5321 
6 *837:31 *837:56 1.76786 
7 *837:56 *2861:GATE_N 9.3 
8 *837:56 *837:83 44.9286 
9 *837:83 *2847:GATE_N 16.3893 
10 *837:83 *2859:GATE_N 26.9607 
11 *837:27 *2850:GATE_N 14.5321 
*END

*D_NET *838 0.0245724
*CONN
*I *2835:GATE_N I *D sky130_fd_sc_hd__dlxtn_1
*I *2838:GATE_N I *D sky130_fd_sc_hd__dlxtn_1
*I *2837:GATE_N I *D sky130_fd_sc_hd__dlxtn_1
*I *2840:GATE_N I *D sky130_fd_sc_hd__dlxtn_1
*I *2832:GATE_N I *D sky130_fd_sc_hd__dlxtn_1
*I *2842:GATE_N I *D sky130_fd_sc_hd__dlxtn_1
*I *2833:GATE_N I *D sky130_fd_sc_hd__dlxtn_1
*I *2839:GATE_N I *D sky130_fd_sc_hd__dlxtn_1
*I *2841:GATE_N I *D sky130_fd_sc_hd__dlxtn_1
*I *2830:GATE_N I *D sky130_fd_sc_hd__dlxtn_1
*I *3136:X O *D sky130_fd_sc_hd__buf_2
*CAP
1 *2835:GATE_N 0
2 *2838:GATE_N 8.71892e-05
3 *2837:GATE_N 0
4 *2840:GATE_N 0
5 *2832:GATE_N 0
6 *2842:GATE_N 2.23854e-05
7 *2833:GATE_N 0.000341469
8 *2839:GATE_N 0
9 *2841:GATE_N 0.000194968
10 *2830:GATE_N 0.00093984
11 *3136:X 0.000576668
12 *838:105 0.00147443
13 *838:70 0.00147465
14 *838:62 0.000515119
15 *838:54 0.00181385
16 *838:44 0.00105731
17 *838:40 0.0010208
18 *838:34 0.000983991
19 *838:28 0.00162232
20 *838:18 0.0016193
21 *2830:GATE_N *2652:A0 0.000109728
22 *2830:GATE_N *2652:A1 0
23 *2830:GATE_N *2830:D 5.76121e-05
24 *2830:GATE_N *884:38 8.45419e-05
25 *2830:GATE_N *884:109 3.99614e-06
26 *2833:GATE_N *2833:D 0.000130294
27 *2833:GATE_N *872:62 5.71472e-05
28 *2833:GATE_N *898:118 0.000928002
29 *2838:GATE_N *2838:D 0.00018077
30 *2841:GATE_N *2460:A2 0
31 *2841:GATE_N *2639:A 4.46689e-05
32 *2841:GATE_N *911:92 5.64168e-05
33 *2841:GATE_N *1003:14 0
34 *838:18 *2631:A 0.000139907
35 *838:18 *867:6 9.35485e-05
36 *838:18 *867:10 0.000115021
37 *838:18 *867:16 1.41706e-05
38 *838:28 *2517:A2 0.000358407
39 *838:28 *2547:B1 7.84381e-05
40 *838:28 *2844:GATE_N 0.000332411
41 *838:28 *2915:D 7.41311e-05
42 *838:28 *839:79 0.000191867
43 *838:28 *860:97 1.17968e-05
44 *838:28 *867:16 7.42762e-05
45 *838:28 *912:62 2.37761e-05
46 *838:34 *2547:A2 0
47 *838:34 *2547:B1 0.000141382
48 *838:34 *2562:B1 0.000105465
49 *838:34 *2844:GATE_N 6.8194e-05
50 *838:34 *860:97 5.76944e-05
51 *838:34 *894:142 0
52 *838:40 *2547:A2 0
53 *838:40 *2562:A2 0.000376754
54 *838:40 *2562:B1 0.000307098
55 *838:40 *2840:D 8.58946e-05
56 *838:40 *884:16 0
57 *838:44 *2562:A2 0.000202842
58 *838:44 *2840:D 4.1331e-06
59 *838:44 *2912:D 0
60 *838:44 *874:44 0
61 *838:44 *884:16 0
62 *838:54 *2473:A2 2.96174e-05
63 *838:54 *2474:B1 8.55687e-05
64 *838:54 *2636:A 0.000173921
65 *838:54 *2832:D 0.000230482
66 *838:70 *2460:A2 3.23126e-05
67 *838:70 *2550:A2 3.18676e-05
68 *838:70 *2550:B1 5.52238e-05
69 *838:105 *898:118 0.000356209
70 *2452:A1 *2841:GATE_N 0
71 *2452:B2 *2841:GATE_N 0
72 *2452:C1 *2841:GATE_N 0
73 *2460:A1 *2830:GATE_N 1.34703e-05
74 *2460:A1 *2841:GATE_N 0
75 *2473:B2 *838:44 0
76 *2473:B2 *838:54 0.000145168
77 *2474:A1 *838:44 0
78 *2474:C1 *838:44 0
79 *2474:C1 *838:54 0
80 *2485:B2 *2833:GATE_N 0.000102545
81 *2507:A1 *838:18 0
82 *2507:B2 *838:18 0.000155014
83 *2508:B2 *838:28 0
84 *2518:B2 *838:28 0.000312743
85 *2528:B2 *838:34 0
86 *2529:A1 *838:34 9.11365e-06
87 *2529:A1 *838:40 0.000175703
88 *2529:B2 *838:34 0.000147325
89 *2529:B2 *838:40 0.000127439
90 *2547:B2 *838:34 0
91 *2547:C1 *838:34 0.000247771
92 *2559:A1 *838:54 0.000139913
93 *2559:B2 *838:105 0
94 *2592:A1 *838:105 0.00026737
95 *2617:B2 *838:28 0.000301441
96 *2636:B *838:54 0.000139913
97 *2639:B *838:70 0.0001827
98 *2639:B *838:105 0.000466783
99 *2803:D *2830:GATE_N 4.94455e-05
100 *2936:GATE_N *838:105 0.000259835
101 *2950:GATE_N *838:28 4.10383e-05
102 *3031:GATE_N *838:105 0.000808564
103 *3040:GATE_N *838:44 0
104 *3075:GATE_N *838:18 6.03387e-05
105 *3079:GATE_N *838:105 0
106 *3105:A *838:18 2.11543e-05
107 *3105:A *838:28 4.04012e-05
108 *3154:A *838:62 5.71472e-05
109 *3154:A *838:70 7.1703e-05
110 *3173:A *838:70 1.24368e-05
111 *391:12 *2830:GATE_N 0
112 *521:12 *2830:GATE_N 0
113 *521:18 *2830:GATE_N 6.70515e-05
114 *570:18 *838:18 0
115 *641:10 *838:105 0.000203513
116 *805:148 *838:105 0
117 *808:14 *838:18 7.62128e-05
118 *809:28 *2833:GATE_N 2.40379e-05
119 *809:90 *2833:GATE_N 9.18485e-05
120 *809:111 *2833:GATE_N 6.20656e-05
121 *809:111 *838:105 0.000144762
122 *822:117 *838:105 0.000178786
123 *823:68 *838:28 0.000117736
124 *827:48 *838:105 0
125 *827:52 *838:105 0
*RES
1 *3136:X *838:18 24.9786 
2 *838:18 *838:28 25.7321 
3 *838:28 *838:34 10.9107 
4 *838:34 *838:40 13.3393 
5 *838:40 *838:44 14.3393 
6 *838:44 *838:54 20.6429 
7 *838:54 *838:62 3.16071 
8 *838:62 *838:70 10.9286 
9 *838:70 *2830:GATE_N 27.7464 
10 *838:70 *2841:GATE_N 16.6571 
11 *838:62 *2839:GATE_N 9.3 
12 *838:54 *838:105 36.4821 
13 *838:105 *2833:GATE_N 28.9964 
14 *838:105 *2842:GATE_N 9.72857 
15 *838:44 *2832:GATE_N 9.3 
16 *838:40 *2840:GATE_N 13.8 
17 *838:34 *2837:GATE_N 13.8 
18 *838:28 *2838:GATE_N 15.5679 
19 *838:18 *2835:GATE_N 13.8 
*END

*D_NET *839 0.0206168
*CONN
*I *2845:GATE_N I *D sky130_fd_sc_hd__dlxtn_1
*I *2836:GATE_N I *D sky130_fd_sc_hd__dlxtn_1
*I *2844:GATE_N I *D sky130_fd_sc_hd__dlxtn_1
*I *2834:GATE_N I *D sky130_fd_sc_hd__dlxtn_1
*I *2843:GATE_N I *D sky130_fd_sc_hd__dlxtn_1
*I *2831:GATE_N I *D sky130_fd_sc_hd__dlxtn_1
*I *3137:X O *D sky130_fd_sc_hd__dlymetal6s2s_1
*CAP
1 *2845:GATE_N 0.000349386
2 *2836:GATE_N 6.90712e-05
3 *2844:GATE_N 0.00132041
4 *2834:GATE_N 3.80044e-05
5 *2843:GATE_N 0
6 *2831:GATE_N 0.000728238
7 *3137:X 0
8 *839:79 0.00167204
9 *839:75 0.00209272
10 *839:50 0.00220883
11 *839:16 0.00117841
12 *839:4 0.00116022
13 *2831:GATE_N *849:87 2.04825e-05
14 *2831:GATE_N *875:122 5.52302e-05
15 *2831:GATE_N *899:29 0
16 *2831:GATE_N *911:25 3.18676e-05
17 *2831:GATE_N *929:83 9.24721e-06
18 *2836:GATE_N *2836:D 4.18895e-05
19 *2836:GATE_N *3076:D 9.60939e-05
20 *2844:GATE_N *2547:B1 0.000443804
21 *2844:GATE_N *2844:D 5.59202e-05
22 *2844:GATE_N *896:33 1.76039e-05
23 *2844:GATE_N *898:161 0.000211771
24 *2845:GATE_N *2845:D 7.54201e-05
25 *2845:GATE_N *2957:D 3.69047e-06
26 *839:16 *889:56 0.000126437
27 *839:16 *917:34 5.7903e-06
28 *839:50 *2914:D 4.52124e-05
29 *839:50 *869:74 3.05045e-05
30 *839:50 *917:62 4.8794e-05
31 *839:75 *2914:D 6.0382e-05
32 *839:75 *2957:D 9.55226e-05
33 *839:75 *844:101 4.20639e-05
34 *839:75 *866:23 0.000295925
35 *839:75 *866:35 0.000437768
36 *839:75 *895:81 2.49484e-05
37 *839:75 *898:161 0.000954356
38 *839:75 *915:48 0
39 *839:75 *917:62 3.55279e-05
40 *839:75 *962:10 0
41 *839:79 *2547:B1 0.000706486
42 *2497:B2 *839:75 5.93626e-05
43 *2503:A *839:50 2.59355e-05
44 *2503:C *839:50 0.000218409
45 *2504:A1 *839:50 0.000180777
46 *2507:A1 *839:75 0.000136951
47 *2518:B2 *839:79 0.000311021
48 *2548:B1 *2844:GATE_N 0.00010312
49 *2602:C *2831:GATE_N 0.000165713
50 *2603:B1 *839:16 1.94879e-05
51 *2616:A1 *839:75 5.33882e-05
52 *2616:B2 *839:75 0
53 *2957:GATE_N *839:75 5.03772e-05
54 *3109:A *839:75 0.000116051
55 *3126:A *2844:GATE_N 2.40261e-05
56 *531:18 *2845:GATE_N 3.72768e-05
57 *807:115 *2844:GATE_N 0.000826517
58 *808:78 *2831:GATE_N 0.000214822
59 *810:22 *839:75 0
60 *810:84 *839:75 0.000650928
61 *810:106 *839:16 7.02611e-05
62 *810:106 *839:50 5.01338e-05
63 *812:76 *2831:GATE_N 0
64 *826:47 *2831:GATE_N 2.63834e-05
65 *828:18 *839:16 0.000741849
66 *828:48 *839:50 4.24707e-05
67 *828:60 *839:75 0.000534644
68 *829:20 *2831:GATE_N 0.000574366
69 *838:28 *2844:GATE_N 0.000332411
70 *838:28 *839:79 0.000191867
71 *838:34 *2844:GATE_N 6.8194e-05
*RES
1 *3137:X *839:4 9.3 
2 *839:4 *839:16 14.154 
3 *839:16 *2831:GATE_N 29.6929 
4 *839:16 *2843:GATE_N 13.8 
5 *839:4 *839:50 11.375 
6 *839:50 *2834:GATE_N 10.0321 
7 *839:50 *839:75 49.625 
8 *839:75 *839:79 13.7321 
9 *839:79 *2844:GATE_N 30.5656 
10 *839:79 *2836:GATE_N 15.1571 
11 *839:75 *2845:GATE_N 13.8536 
*END

*D_NET *840 0.0213066
*CONN
*I *2425:A I *D sky130_fd_sc_hd__nand2_1
*I *2399:A I *D sky130_fd_sc_hd__nand2_1
*I *2413:A I *D sky130_fd_sc_hd__nand2_1
*I *2417:A I *D sky130_fd_sc_hd__nand2_1
*I *2415:A I *D sky130_fd_sc_hd__nand2_1
*I *2397:A I *D sky130_fd_sc_hd__nand2_1
*I *2401:A I *D sky130_fd_sc_hd__nand2_1
*I *2411:A I *D sky130_fd_sc_hd__nand2_1
*I *2395:B I *D sky130_fd_sc_hd__nand2_1
*I *2423:A I *D sky130_fd_sc_hd__nand2_1
*I *3138:X O *D sky130_fd_sc_hd__buf_2
*CAP
1 *2425:A 9.37001e-05
2 *2399:A 0.000769467
3 *2413:A 0
4 *2417:A 0
5 *2415:A 2.02412e-05
6 *2397:A 7.2972e-05
7 *2401:A 0.000139931
8 *2411:A 5.64592e-05
9 *2395:B 8.51651e-06
10 *2423:A 0.000236286
11 *3138:X 0
12 *840:103 0.000839056
13 *840:87 0.000175947
14 *840:59 0.000291232
15 *840:57 0.000234034
16 *840:46 0.000101721
17 *840:44 0.000783383
18 *840:29 0.00204573
19 *840:10 0.00195879
20 *840:4 0.000447518
21 *2395:B *937:12 9.15186e-06
22 *2397:A *929:58 6.094e-05
23 *2397:A *936:49 0.000175892
24 *2399:A *2399:B 0
25 *2399:A *2413:B 0.000134127
26 *2399:A *3019:D 0
27 *2399:A *3211:A 5.03694e-05
28 *2399:A *925:33 0.000283691
29 *2401:A *907:48 0.000217877
30 *2411:A *909:60 5.15855e-05
31 *2415:A *2417:B 5.52238e-05
32 *2423:A *2409:A 9.90367e-05
33 *2423:A *2509:B1 4.92774e-05
34 *2423:A *897:45 0.000139913
35 *2423:A *918:147 0.000120357
36 *2423:A *919:49 0.000186221
37 *2425:A *895:63 2.59355e-05
38 *840:10 *893:59 6.90348e-06
39 *840:10 *895:63 1.57414e-05
40 *840:10 *919:49 7.44945e-07
41 *840:29 *929:83 0.00154112
42 *840:44 *892:33 0.000243142
43 *840:44 *909:60 4.13496e-05
44 *840:44 *937:12 9.3246e-06
45 *840:46 *909:60 6.26276e-05
46 *840:59 *907:48 5.41794e-05
47 *840:87 *2417:B 4.61579e-05
48 *2509:B2 *2423:A 2.85616e-05
49 *2514:A *2423:A 2.06178e-05
50 *2514:A *840:29 0.000535346
51 *2891:GATE_N *840:44 0.00122638
52 *2991:GATE_N *2399:A 0.000376594
53 *2991:GATE_N *840:103 0.000195547
54 *3007:GATE_N *2401:A 8.55871e-05
55 *3019:GATE_N *2399:A 0
56 *3083:GATE_N *840:29 0.00301774
57 *3114:A *2401:A 0.000217877
58 *3114:A *840:59 0.000182153
59 *3114:A *840:87 0.000114045
60 *3115:A *2399:A 1.62378e-05
61 *3115:A *840:87 3.34295e-05
62 *3118:A *2401:A 0.000177821
63 *3118:A *840:59 2.8046e-05
64 *3118:A *840:103 0.000121573
65 *3121:A *2399:A 1.11546e-05
66 *3121:A *840:59 7.90803e-05
67 *3121:A *840:87 0.000146474
68 *3121:A *840:103 4.00025e-05
69 *3122:A *2423:A 5.07501e-05
70 *3126:A *2423:A 1.61225e-05
71 *3127:A *2423:A 4.22135e-06
72 *3127:A *840:10 3.47641e-06
73 *3138:A *2425:A 1.73088e-05
74 *3138:A *840:10 0.00038038
75 *3171:A *2395:B 6.27272e-06
76 *3171:A *840:44 6.27272e-06
77 *3185:A *840:44 0.000310292
78 *3304:A *840:44 9.41642e-05
79 *383:10 *840:44 4.1257e-05
80 *435:12 *840:44 0.000141171
81 *806:14 *840:29 0.000544883
82 *808:54 *2423:A 0.000136596
83 *808:78 *840:29 0.000101601
84 *817:84 *2399:A 1.37292e-05
85 *823:8 *2423:A 8.12055e-05
86 *832:25 *2411:A 9.41642e-05
87 *832:25 *840:44 0.000517573
88 *832:25 *840:46 0.000135028
*RES
1 *3138:X *840:4 9.3 
2 *840:4 *840:10 9.3125 
3 *840:10 *2423:A 20.7554 
4 *840:10 *840:29 12.5603 
5 *840:29 *2395:B 14.0768 
6 *840:29 *840:44 23.8661 
7 *840:44 *840:46 1.35714 
8 *840:46 *2411:A 10.675 
9 *840:46 *840:57 4.5 
10 *840:57 *840:59 2.55357 
11 *840:59 *2401:A 18.425 
12 *840:59 *2397:A 15.5679 
13 *840:57 *840:87 8.125 
14 *840:87 *2415:A 9.83571 
15 *840:87 *2417:A 9.3 
16 *840:44 *840:103 7.05357 
17 *840:103 *2413:A 13.8 
18 *840:103 *2399:A 29.0143 
19 *840:4 *2425:A 10.9786 
*END

*D_NET *841 0.00587761
*CONN
*I *2419:A I *D sky130_fd_sc_hd__nand2_1
*I *2407:A I *D sky130_fd_sc_hd__nand2_1
*I *2421:A I *D sky130_fd_sc_hd__nand2_1
*I *2405:A I *D sky130_fd_sc_hd__nand2_1
*I *2409:A I *D sky130_fd_sc_hd__nand2_1
*I *2403:A I *D sky130_fd_sc_hd__nand2_1
*I *3139:X O *D sky130_fd_sc_hd__dlymetal6s2s_1
*CAP
1 *2419:A 0.000207703
2 *2407:A 0
3 *2421:A 0
4 *2405:A 9.84381e-05
5 *2409:A 0.000235145
6 *2403:A 6.63831e-05
7 *3139:X 0
8 *841:38 9.84381e-05
9 *841:21 0.00060943
10 *841:17 0.000390697
11 *841:15 0.000694356
12 *841:4 0.000536623
13 *2405:A *2421:B 5.33005e-05
14 *2405:A *895:63 0.00022266
15 *2409:A *2648:A0 7.42595e-05
16 *2409:A *897:31 8.6229e-06
17 *2409:A *897:45 0.00015936
18 *2419:A *2407:B 2.59355e-05
19 *841:15 *881:120 0.000106944
20 *841:17 *2407:B 1.36709e-05
21 *841:21 *2648:A0 0.000117947
22 *841:21 *2898:D 0
23 *841:21 *3042:D 0.000223399
24 *841:21 *897:29 0.000190275
25 *841:21 *897:31 0.000398021
26 *841:21 *915:33 0.000242446
27 *2423:A *2409:A 9.90367e-05
28 *2498:A1 *2419:A 5.74499e-06
29 *2498:A1 *841:15 1.92789e-05
30 *2504:B1 *2403:A 3.37161e-05
31 *2504:B1 *841:15 1.24368e-05
32 *3122:A *2409:A 8.94881e-05
33 *3123:A *2409:A 1.32056e-05
34 *3138:A *2403:A 2.59355e-05
35 *3138:A *2405:A 9.41667e-05
36 *3138:A *841:15 0.000127039
37 *3139:A *2403:A 4.82865e-05
38 *439:8 *2403:A 9.66977e-05
39 *441:10 *2419:A 7.3296e-05
40 *477:26 *2403:A 1.34631e-05
41 *823:8 *2409:A 0.000262228
42 *828:60 *841:15 8.95387e-05
*RES
1 *3139:X *841:4 9.3 
2 *841:4 *2403:A 11.0679 
3 *841:4 *841:15 8.35714 
4 *841:15 *841:17 0.428571 
5 *841:17 *841:21 14.3393 
6 *841:21 *2409:A 19.9071 
7 *841:21 *841:38 4.5 
8 *841:38 *2405:A 12.3357 
9 *841:38 *2421:A 9.3 
10 *841:17 *2407:A 9.3 
11 *841:15 *2419:A 12.8893 
*END

*D_NET *842 0.0120617
*CONN
*I *2812:GATE_N I *D sky130_fd_sc_hd__dlxtn_1
*I *2808:GATE_N I *D sky130_fd_sc_hd__dlxtn_1
*I *2814:GATE_N I *D sky130_fd_sc_hd__dlxtn_1
*I *2822:GATE_N I *D sky130_fd_sc_hd__dlxtn_1
*I *2819:GATE_N I *D sky130_fd_sc_hd__dlxtn_1
*I *2817:GATE_N I *D sky130_fd_sc_hd__dlxtn_1
*I *2816:GATE_N I *D sky130_fd_sc_hd__dlxtn_1
*I *2818:GATE_N I *D sky130_fd_sc_hd__dlxtn_1
*I *2809:GATE_N I *D sky130_fd_sc_hd__dlxtn_1
*I *2807:GATE_N I *D sky130_fd_sc_hd__dlxtn_1
*I *3140:X O *D sky130_fd_sc_hd__clkbuf_2
*CAP
1 *2812:GATE_N 0.000174193
2 *2808:GATE_N 0.000184126
3 *2814:GATE_N 3.13109e-05
4 *2822:GATE_N 4.61053e-05
5 *2819:GATE_N 3.28375e-05
6 *2817:GATE_N 4.61053e-05
7 *2816:GATE_N 7.00238e-05
8 *2818:GATE_N 0
9 *2809:GATE_N 0
10 *2807:GATE_N 0.000311525
11 *3140:X 0.000330821
12 *842:36 0.000491903
13 *842:32 0.000307433
14 *842:26 0.000336705
15 *842:24 0.000326435
16 *842:22 0.000305586
17 *842:20 0.000243728
18 *842:18 0.00110205
19 *842:14 0.00133563
20 *842:12 0.000651353
21 *2807:GATE_N *2638:A 0
22 *2807:GATE_N *1054:28 0.000284529
23 *2819:GATE_N *994:18 3.14048e-05
24 *2822:GATE_N *2658:A1 9.60875e-05
25 *842:12 *843:14 0
26 *842:12 *881:154 6.05161e-06
27 *842:12 *935:12 0
28 *842:14 *843:14 0
29 *842:14 *935:12 0
30 *842:14 *1041:10 6.76272e-05
31 *842:18 *3336:A 0
32 *842:18 *3338:A 0
33 *842:18 *3342:A 0
34 *842:18 *3343:A 0
35 *842:18 *935:12 0
36 *842:18 *1041:10 0.000435985
37 *842:18 *1057:14 0.000129868
38 *842:20 *1041:10 0.000211913
39 *842:20 *1057:14 2.41224e-05
40 *842:22 *1041:10 0.000381318
41 *842:22 *1057:14 0.000138418
42 *842:24 *1041:10 0.000383747
43 *842:24 *1057:14 0.000144417
44 *842:26 *1041:10 0.000383747
45 *842:26 *1057:14 0.000141591
46 *842:32 *1041:10 0.000171368
47 *842:32 *1057:14 1.37292e-05
48 *842:36 *886:50 1.55485e-05
49 *842:36 *1041:10 0.000362538
50 PWDATA[5] *2807:GATE_N 0.000144038
51 PWDATA[6] *842:18 0
52 PWDATA[7] *842:18 0
53 PWDATA[8] *842:18 0
54 rdata[3] *2807:GATE_N 0.000364528
55 *2461:B *2807:GATE_N 0
56 *2461:B *842:36 0
57 *2638:B *842:36 0.000132437
58 *2649:A1 *842:18 0
59 *2802:D *2807:GATE_N 9.90367e-05
60 *2805:D *842:18 9.56968e-05
61 *2808:D *2808:GATE_N 3.88139e-05
62 *2809:D *842:36 1.18064e-05
63 *2810:D *842:18 0.000342495
64 *2812:D *842:12 8.39e-05
65 *2814:D *2814:GATE_N 9.60875e-05
66 *2815:D *842:18 0.000153047
67 *2816:D *842:26 9.25014e-06
68 *2816:D *842:32 0.000126439
69 *2817:D *2817:GATE_N 9.60875e-05
70 *2818:D *842:32 9.41642e-05
71 *2819:D *2819:GATE_N 9.60875e-05
72 *2820:D *842:12 6.97494e-05
73 *2822:D *2814:GATE_N 4.10274e-05
74 *2822:D *842:20 0.000151333
75 *2822:D *842:22 9.25014e-06
76 *3257:A *842:18 0
77 *77:20 *2807:GATE_N 5.45662e-05
*RES
1 *3140:X *842:12 19.175 
2 *842:12 *842:14 2.85714 
3 *842:14 *842:18 24.4464 
4 *842:18 *842:20 2.85714 
5 *842:20 *842:22 4.98214 
6 *842:22 *842:24 4.98214 
7 *842:24 *842:26 4.98214 
8 *842:26 *842:32 7.69643 
9 *842:32 *842:36 9.78571 
10 *842:36 *2807:GATE_N 21.9786 
11 *842:36 *2809:GATE_N 13.8 
12 *842:32 *2818:GATE_N 9.3 
13 *842:26 *2816:GATE_N 14.7464 
14 *842:24 *2817:GATE_N 14.7464 
15 *842:22 *2819:GATE_N 14.7464 
16 *842:20 *2822:GATE_N 14.7464 
17 *842:18 *2814:GATE_N 14.7464 
18 *842:14 *2808:GATE_N 16.3 
19 *842:12 *2812:GATE_N 16.4071 
*END

*D_NET *843 0.00431496
*CONN
*I *2811:GATE_N I *D sky130_fd_sc_hd__dlxtn_1
*I *2820:GATE_N I *D sky130_fd_sc_hd__dlxtn_1
*I *2815:GATE_N I *D sky130_fd_sc_hd__dlxtn_1
*I *2821:GATE_N I *D sky130_fd_sc_hd__dlxtn_1
*I *2810:GATE_N I *D sky130_fd_sc_hd__dlxtn_1
*I *2813:GATE_N I *D sky130_fd_sc_hd__dlxtn_1
*I *3141:X O *D sky130_fd_sc_hd__buf_1
*CAP
1 *2811:GATE_N 2.91597e-05
2 *2820:GATE_N 0
3 *2815:GATE_N 3.72704e-05
4 *2821:GATE_N 1.40355e-05
5 *2810:GATE_N 0
6 *2813:GATE_N 6.96512e-05
7 *3141:X 0.00012576
8 *843:20 0.00017362
9 *843:16 0.000183996
10 *843:14 0.000513764
11 *843:12 0.000509751
12 *843:10 0.000254168
13 *2813:GATE_N *886:30 0.000150625
14 *2813:GATE_N *1041:10 0.00020212
15 *843:12 *887:28 4.98055e-06
16 *843:14 *881:154 0.000628962
17 *843:14 *1041:10 0.000501225
18 *843:16 *881:154 8.89289e-05
19 *843:16 *1041:10 9.01334e-05
20 *843:20 *881:154 3.22834e-05
21 *843:20 *886:30 0
22 *843:20 *1041:10 0.000100726
23 *2641:B *2813:GATE_N 1.81709e-05
24 *2641:B *843:20 9.25014e-06
25 *2811:D *843:10 2.89114e-05
26 *2812:D *2811:GATE_N 1.92905e-05
27 *2812:D *843:12 0
28 *2812:D *843:14 0
29 *2815:D *2821:GATE_N 2.89114e-05
30 *2820:D *843:10 0.000140361
31 *2820:D *843:12 0.000177948
32 *2821:D *2821:GATE_N 5.52302e-05
33 *2821:D *843:20 0.000125724
34 *842:12 *843:14 0
35 *842:14 *843:14 0
*RES
1 *3141:X *843:10 16.2821 
2 *843:10 *843:12 2.55357 
3 *843:12 *843:14 14.6964 
4 *843:14 *843:16 2.25 
5 *843:16 *843:20 3.08929 
6 *843:20 *2813:GATE_N 16.3536 
7 *843:20 *2810:GATE_N 13.8 
8 *843:16 *2821:GATE_N 14.3357 
9 *843:14 *2815:GATE_N 14.3357 
10 *843:12 *2820:GATE_N 13.8 
11 *843:10 *2811:GATE_N 14.3357 
*END

*D_NET *844 0.0199631
*CONN
*I *3069:D I *D sky130_fd_sc_hd__dlxtn_1
*I *2957:D I *D sky130_fd_sc_hd__dlxtn_1
*I *2925:D I *D sky130_fd_sc_hd__dlxtn_1
*I *2893:D I *D sky130_fd_sc_hd__dlxtn_1
*I *2861:D I *D sky130_fd_sc_hd__dlxtn_1
*I *2989:D I *D sky130_fd_sc_hd__dlxtn_1
*I *2877:D I *D sky130_fd_sc_hd__dlxtn_1
*I *3005:D I *D sky130_fd_sc_hd__dlxtn_1
*I *2973:D I *D sky130_fd_sc_hd__dlxtn_1
*I *3021:D I *D sky130_fd_sc_hd__dlxtn_1
*I *3142:X O *D sky130_fd_sc_hd__clkbuf_2
*CAP
1 *3069:D 0
2 *2957:D 0.000151798
3 *2925:D 2.36895e-05
4 *2893:D 0
5 *2861:D 0
6 *2989:D 0.000174378
7 *2877:D 0
8 *3005:D 0.000383059
9 *2973:D 2.66123e-05
10 *3021:D 6.17229e-05
11 *3142:X 0.000201873
12 *844:101 0.0002719
13 *844:58 0.000383059
14 *844:56 0.000265551
15 *844:45 0.000311286
16 *844:30 0.000255224
17 *844:28 0.00027946
18 *844:20 0.00268217
19 *844:10 0.00252029
20 *844:6 0.00022304
21 *2989:D *2524:A2 0.000122398
22 *2989:D *905:33 8.42609e-05
23 *2989:D *905:47 9.90367e-05
24 *3005:D *925:86 0.000106333
25 *3021:D *907:56 0.000170654
26 *844:6 *2517:A2 0.000161859
27 *844:10 *898:161 1.31511e-05
28 *844:20 *3357:A 0.000239333
29 *844:20 *899:52 0.00256665
30 *844:28 *2521:B1 0.000280871
31 *844:28 *922:68 0.000263745
32 *844:45 *907:56 0.000217877
33 *844:56 *2524:A2 8.59056e-05
34 *844:101 *898:161 2.63703e-05
35 *2620:B2 *2989:D 0.000181381
36 *2624:A *844:20 0.000593472
37 *2625:B2 *844:20 0.00196128
38 *2845:GATE_N *2957:D 3.69047e-06
39 *2916:GATE_N *844:10 2.34337e-05
40 *2916:GATE_N *844:101 8.22328e-05
41 *2957:GATE_N *2957:D 9.71197e-05
42 *3007:GATE_N *2973:D 3.42509e-05
43 *3007:GATE_N *844:45 2.55806e-05
44 *3114:A *3021:D 1.41029e-05
45 *3114:A *844:45 0.000105276
46 *3132:A *844:28 0.000225609
47 *3214:A *844:20 0.00202613
48 *496:16 *844:20 1.53815e-05
49 *531:18 *2925:D 5.52238e-05
50 *531:18 *2957:D 0.000475683
51 *819:35 *2989:D 8.25843e-06
52 *821:16 *2973:D 9.66977e-05
53 *821:16 *844:45 0.000342302
54 *832:33 *844:20 8.49861e-06
55 *832:37 *844:20 1.41706e-05
56 *834:44 *844:45 0.000219711
57 *837:31 *2989:D 0.000245335
58 *837:31 *844:56 0.000170661
59 *837:83 *3021:D 0.000146474
60 *839:75 *2957:D 9.55226e-05
61 *839:75 *844:101 4.20639e-05
*RES
1 *3142:X *844:6 13.1214 
2 *844:6 *844:10 5.08036 
3 *844:10 *844:20 21.8926 
4 *844:20 *844:28 7.67857 
5 *844:28 *844:30 4.5 
6 *844:30 *3021:D 16.05 
7 *844:30 *844:45 10.7679 
8 *844:45 *2973:D 10.2464 
9 *844:45 *844:56 6.75 
10 *844:56 *844:58 4.5 
11 *844:58 *3005:D 15.2107 
12 *844:58 *2877:D 9.3 
13 *844:56 *2989:D 19.5679 
14 *844:28 *2861:D 9.3 
15 *844:20 *2893:D 9.3 
16 *844:10 *844:101 6.90179 
17 *844:101 *2925:D 9.83571 
18 *844:101 *2957:D 13.9429 
19 *844:6 *3069:D 9.3 
*END

*D_NET *845 0.0061667
*CONN
*I *2941:D I *D sky130_fd_sc_hd__dlxtn_1
*I *3085:D I *D sky130_fd_sc_hd__dlxtn_1
*I *3037:D I *D sky130_fd_sc_hd__dlxtn_1
*I *2909:D I *D sky130_fd_sc_hd__dlxtn_1
*I *3053:D I *D sky130_fd_sc_hd__dlxtn_1
*I *2845:D I *D sky130_fd_sc_hd__dlxtn_1
*I *3143:X O *D sky130_fd_sc_hd__buf_1
*CAP
1 *2941:D 0
2 *3085:D 0
3 *3037:D 0.000121426
4 *2909:D 0.000126122
5 *3053:D 0.000109831
6 *2845:D 0.00010912
7 *3143:X 6.32368e-05
8 *845:42 0.000247548
9 *845:33 0.000139372
10 *845:31 0.000122371
11 *845:29 0.000975443
12 *845:8 0.00105497
13 *845:8 *2518:A2 3.64272e-05
14 *2619:B2 *2909:D 4.01577e-05
15 *2625:A1 *2845:D 3.14163e-05
16 *2625:B1 *845:8 0.000122933
17 *2625:B2 *845:29 0.000696231
18 *2845:GATE_N *2845:D 7.54201e-05
19 *2899:GATE_N *845:29 9.87983e-06
20 *3039:GATE_N *3053:D 4.51611e-05
21 *448:28 *2909:D 0
22 *448:28 *3037:D 0
23 *449:24 *2909:D 0.000215548
24 *449:24 *3037:D 0.000168224
25 *531:18 *2845:D 0.000351818
26 *531:18 *3053:D 0.000434806
27 *531:18 *845:31 0.000349708
28 *531:18 *845:33 9.60939e-05
29 *570:18 *845:29 0
30 *810:41 *3053:D 0.000253042
31 *810:41 *845:31 0.000123577
32 *810:41 *845:33 2.77258e-05
33 *811:20 *845:29 1.90936e-05
*RES
1 *3143:X *845:8 15.4429 
2 *845:8 *2845:D 17.2107 
3 *845:8 *845:29 13.7337 
4 *845:29 *845:31 3.41071 
5 *845:31 *845:33 0.946429 
6 *845:33 *3053:D 13.5321 
7 *845:33 *845:42 4.5 
8 *845:42 *2909:D 16.6571 
9 *845:42 *3037:D 16.05 
10 *845:31 *3085:D 9.3 
11 *845:29 *2941:D 9.3 
*END

*D_NET *846 0.00350645
*CONN
*I *2651:A1 I *D sky130_fd_sc_hd__mux2_1
*I *3248:X O *D sky130_fd_sc_hd__clkbuf_1
*CAP
1 *2651:A1 0.00046209
2 *3248:X 0.00046209
3 *2651:A1 *884:24 0.00124896
4 *2651:A1 *1007:8 7.32955e-05
5 *3288:A *2651:A1 0.000273269
6 *3309:A *2651:A1 5.52302e-05
7 *791:14 *2651:A1 0.000931512
*RES
1 *3248:X *2651:A1 38.3321 
*END

*D_NET *847 0.0158422
*CONN
*I *2924:D I *D sky130_fd_sc_hd__dlxtn_1
*I *2940:D I *D sky130_fd_sc_hd__dlxtn_1
*I *3084:D I *D sky130_fd_sc_hd__dlxtn_1
*I *2876:D I *D sky130_fd_sc_hd__dlxtn_1
*I *2860:D I *D sky130_fd_sc_hd__dlxtn_1
*I *2988:D I *D sky130_fd_sc_hd__dlxtn_1
*I *2892:D I *D sky130_fd_sc_hd__dlxtn_1
*I *3004:D I *D sky130_fd_sc_hd__dlxtn_1
*I *3020:D I *D sky130_fd_sc_hd__dlxtn_1
*I *2972:D I *D sky130_fd_sc_hd__dlxtn_1
*I *3144:X O *D sky130_fd_sc_hd__clkbuf_2
*CAP
1 *2924:D 0.000162625
2 *2940:D 9.24441e-05
3 *3084:D 0.000202165
4 *2876:D 0
5 *2860:D 2.78831e-05
6 *2988:D 0.000169192
7 *2892:D 0
8 *3004:D 3.28375e-05
9 *3020:D 0
10 *2972:D 0.000107292
11 *3144:X 8.2228e-05
12 *847:135 0.000436866
13 *847:131 0.0014519
14 *847:125 0.00283062
15 *847:88 0.00177851
16 *847:57 0.00033956
17 *847:51 0.000363462
18 *847:36 0.000292341
19 *847:25 0.000289708
20 *847:23 0.000353582
21 *847:6 0.000252781
22 *2860:D *2609:B1 2.59355e-05
23 *2924:D *896:12 0
24 *2972:D *934:22 6.51946e-05
25 *2988:D *864:47 8.12072e-05
26 *3004:D *906:75 9.60875e-05
27 *3004:D *928:33 3.14048e-05
28 *3084:D *2908:D 0.000140781
29 *3084:D *894:127 0.00026546
30 *3084:D *914:151 3.62987e-05
31 *847:23 *934:22 0
32 *847:25 *2543:C1 2.34181e-05
33 *847:25 *934:22 0
34 *847:36 *2543:C1 5.90443e-06
35 *847:51 *906:75 0.000130419
36 *847:51 *928:33 5.06983e-05
37 *847:57 *2609:B1 0.000119125
38 *847:125 *2586:A2 0.000199235
39 *847:125 *2586:B1 0.000144768
40 *847:125 *2611:B1 0.000149903
41 *847:125 *2938:D 0.000113271
42 *847:125 *851:33 8.69277e-05
43 *847:125 *851:53 7.84241e-05
44 *847:125 *894:21 2.84026e-05
45 *847:125 *894:112 9.7659e-05
46 *847:125 *900:21 2.97041e-05
47 *847:125 *923:16 6.5396e-05
48 *847:125 *923:26 9.25014e-06
49 *847:131 *2540:A2 0.000503033
50 *847:131 *848:16 0.00018077
51 *847:131 *848:27 0.000606096
52 *847:131 *848:36 4.03934e-05
53 *847:131 *894:112 5.22592e-05
54 *847:131 *914:118 4.97097e-05
55 *847:131 *914:151 0.000150065
56 *847:135 *848:27 5.04841e-06
57 *847:135 *848:36 0.00027107
58 *2540:B2 *847:131 1.28809e-05
59 *2541:B2 *847:131 9.80173e-05
60 *2545:A *847:131 0.000138881
61 *2585:A1 *847:125 6.91438e-06
62 *2586:B2 *847:125 1.28809e-05
63 *2591:A *2972:D 1.02504e-05
64 *2605:B2 *847:135 9.90367e-05
65 *2611:A1 *847:125 0.000188702
66 *2612:B1 *847:125 9.54798e-06
67 *2860:GATE_N *847:57 7.61932e-05
68 *2870:GATE_N *847:23 5.52238e-05
69 *2870:GATE_N *847:125 0.000191526
70 *2886:GATE_N *847:125 0
71 *2924:GATE_N *2924:D 9.55154e-05
72 *2938:GATE_N *847:125 3.15318e-05
73 *3116:A *2988:D 0
74 *3116:A *847:57 0
75 *3126:A *2924:D 0.000333197
76 *3144:A *847:25 1.48924e-05
77 *3186:A *847:125 2.23592e-05
78 *496:16 *2988:D 0.000222878
79 *496:16 *847:36 0.000148911
80 *496:16 *847:51 0
81 *496:16 *847:57 0.000173097
82 *635:20 *847:125 0.000113043
83 *805:54 *2972:D 0
84 *805:54 *847:25 0
85 *805:54 *847:36 0
86 *805:54 *847:51 0.000220185
87 *805:54 *847:88 9.87983e-06
88 *816:8 *847:57 0
89 *825:8 *2940:D 3.97657e-05
90 *825:8 *847:135 4.0342e-06
91 *825:18 *847:135 1.15281e-05
92 *830:71 *3084:D 3.89201e-05
93 *831:22 *847:125 8.94221e-05
94 *831:28 *847:125 8.6229e-06
95 *832:37 *2988:D 0
96 *833:120 *847:6 4.88515e-05
97 *833:120 *847:23 1.39841e-05
98 *837:83 *2988:D 0.000102197
*RES
1 *3144:X *847:6 10.6571 
2 *847:6 *2972:D 20.2464 
3 *847:6 *847:23 5.72321 
4 *847:23 *847:25 3.00893 
5 *847:25 *3020:D 13.8 
6 *847:25 *847:36 6.75 
7 *847:36 *3004:D 10.2464 
8 *847:36 *847:51 13.2143 
9 *847:51 *847:57 8.92857 
10 *847:57 *2892:D 13.8 
11 *847:57 *2988:D 18.425 
12 *847:51 *2860:D 9.83571 
13 *847:23 *847:88 5.72321 
14 *847:88 *2876:D 9.3 
15 *847:88 *847:125 46.5536 
16 *847:125 *847:131 19.1607 
17 *847:131 *847:135 3.42857 
18 *847:135 *3084:D 22.8357 
19 *847:135 *2940:D 11.0857 
20 *847:131 *2924:D 22.675 
*END

*D_NET *848 0.00536448
*CONN
*I *3068:D I *D sky130_fd_sc_hd__dlxtn_1
*I *3052:D I *D sky130_fd_sc_hd__dlxtn_1
*I *2908:D I *D sky130_fd_sc_hd__dlxtn_1
*I *2844:D I *D sky130_fd_sc_hd__dlxtn_1
*I *3036:D I *D sky130_fd_sc_hd__dlxtn_1
*I *2956:D I *D sky130_fd_sc_hd__dlxtn_1
*I *3145:X O *D sky130_fd_sc_hd__buf_1
*CAP
1 *3068:D 0.000121103
2 *3052:D 0
3 *2908:D 0.000104905
4 *2844:D 0.000207061
5 *3036:D 0
6 *2956:D 2.65082e-05
7 *3145:X 0.000119149
8 *848:36 0.000389111
9 *848:27 0.000279186
10 *848:16 0.000362511
11 *848:10 0.000212224
12 *848:8 0.000318516
13 *2844:D *2605:A2 0
14 *2844:D *860:34 5.71472e-05
15 *2844:D *896:33 0
16 *3068:D *918:147 7.79781e-06
17 *848:8 *2519:A2 5.52238e-05
18 *848:16 *894:112 1.32552e-05
19 *848:16 *914:151 0.000138881
20 *848:27 *894:112 3.65069e-05
21 *2605:B2 *2908:D 5.48067e-05
22 *2607:A1 *848:27 1.00073e-05
23 *2614:B2 *3068:D 0.000198467
24 *2614:B2 *848:8 5.74499e-06
25 *2844:GATE_N *2844:D 5.59202e-05
26 *3036:GATE_N *848:27 0.000139907
27 *3084:D *2908:D 0.000140781
28 *3126:A *2844:D 0
29 *448:28 *3068:D 9.64383e-05
30 *448:28 *848:10 3.34295e-05
31 *449:24 *3068:D 3.34366e-05
32 *807:18 *848:8 9.60875e-05
33 *807:99 *3068:D 4.58194e-05
34 *807:99 *848:8 0.000225616
35 *807:115 *848:10 6.69189e-05
36 *807:115 *848:16 1.8791e-05
37 *809:14 *848:8 5.52302e-05
38 *809:14 *848:10 0.000102554
39 *809:14 *848:16 8.6229e-06
40 *809:20 *848:16 0.000134271
41 *822:39 *3068:D 1.09026e-05
42 *822:39 *848:10 7.79781e-06
43 *822:39 *848:16 9.23883e-05
44 *825:18 *848:27 2.57487e-05
45 *825:18 *848:36 0.000133035
46 *827:44 *2844:D 1.92905e-05
47 *847:131 *848:16 0.00018077
48 *847:131 *848:27 0.000606096
49 *847:131 *848:36 4.03934e-05
50 *847:135 *848:27 5.04841e-06
51 *847:135 *848:36 0.00027107
*RES
1 *3145:X *848:8 16.8 
2 *848:8 *848:10 2.25 
3 *848:10 *848:16 8.21429 
4 *848:16 *2956:D 9.72857 
5 *848:16 *848:27 6.30357 
6 *848:27 *3036:D 9.3 
7 *848:27 *848:36 7.91071 
8 *848:36 *2844:D 17.1929 
9 *848:36 *2908:D 16.05 
10 *848:10 *3052:D 13.8 
11 *848:8 *3068:D 17.5679 
*END

*D_NET *849 0.0110071
*CONN
*I *2875:D I *D sky130_fd_sc_hd__dlxtn_1
*I *3035:D I *D sky130_fd_sc_hd__dlxtn_1
*I *3051:D I *D sky130_fd_sc_hd__dlxtn_1
*I *2843:D I *D sky130_fd_sc_hd__dlxtn_1
*I *2923:D I *D sky130_fd_sc_hd__dlxtn_1
*I *2859:D I *D sky130_fd_sc_hd__dlxtn_1
*I *2955:D I *D sky130_fd_sc_hd__dlxtn_1
*I *2891:D I *D sky130_fd_sc_hd__dlxtn_1
*I *3067:D I *D sky130_fd_sc_hd__dlxtn_1
*I *2907:D I *D sky130_fd_sc_hd__dlxtn_1
*I *3146:X O *D sky130_fd_sc_hd__clkbuf_2
*CAP
1 *2875:D 0.00022937
2 *3035:D 4.72516e-05
3 *3051:D 0.000138755
4 *2843:D 1.55603e-05
5 *2923:D 0
6 *2859:D 0
7 *2955:D 0
8 *2891:D 0.000103829
9 *3067:D 0.000118167
10 *2907:D 6.4014e-05
11 *3146:X 0.000251919
12 *849:120 0.000276622
13 *849:98 0.000346384
14 *849:87 0.00060258
15 *849:41 0.000257961
16 *849:37 0.000262782
17 *849:35 0.000314528
18 *849:31 0.00098062
19 *849:12 0.000692867
20 *849:10 0.000398376
21 *2875:D *850:31 2.07491e-05
22 *2891:D *866:39 1.58163e-05
23 *2891:D *892:33 0.000194052
24 *2907:D *925:133 5.52302e-05
25 *2907:D *948:33 9.41642e-05
26 *3035:D *850:31 6.81335e-05
27 *3067:D *892:33 0.000213201
28 *849:10 *2939:D 0
29 *849:10 *3146:A 0
30 *849:10 *3226:A 0
31 *849:10 *870:18 5.52302e-05
32 *849:12 *2939:D 0
33 *849:12 *3226:A 0
34 *849:12 *939:79 5.58941e-05
35 *849:12 *948:33 1.08359e-05
36 *849:31 *2386:C 0.000144684
37 *849:31 *2420:C 6.09572e-05
38 *849:31 *2600:B1 0
39 *849:31 *895:8 2.04825e-05
40 *849:31 *925:43 5.9955e-05
41 *849:31 *939:79 4.00388e-05
42 *849:31 *948:33 0.000214726
43 *849:35 *895:8 3.99093e-05
44 *849:87 *866:39 1.58163e-05
45 *849:87 *893:37 5.47001e-05
46 *849:98 *866:39 2.79421e-05
47 *849:98 *893:37 8.36572e-05
48 *2595:A1 *3051:D 0
49 *2595:A1 *849:98 0
50 *2596:B2 *849:10 0
51 *2601:B2 *849:37 0.00018372
52 *2602:C *849:87 2.22043e-05
53 *2603:A1 *849:98 0
54 *2603:B2 *2843:D 1.92905e-05
55 *2831:GATE_N *849:87 2.04825e-05
56 *2859:GATE_N *849:37 5.52302e-05
57 *2866:GATE_N *2875:D 3.80385e-05
58 *2911:GATE_N *849:87 0.000684051
59 *3035:GATE_N *2891:D 0.000153792
60 *3035:GATE_N *3067:D 0.000214855
61 *3083:GATE_N *849:87 0.000780797
62 *3205:A *3051:D 3.14048e-05
63 *3209:A *3067:D 5.17614e-05
64 *380:10 *849:10 7.50697e-05
65 *435:12 *849:87 2.82312e-05
66 *489:10 *849:10 5.52302e-05
67 *490:14 *2907:D 4.16984e-05
68 *491:12 *849:31 0
69 *492:14 *849:31 0.000196559
70 *497:8 *2875:D 0.000479645
71 *497:8 *3035:D 9.31893e-05
72 *498:16 *3051:D 9.60875e-05
73 *499:18 *2891:D 8.44271e-06
74 *499:38 *849:31 1.01075e-05
75 *499:38 *849:35 5.05056e-05
76 *647:10 *849:31 0
77 *808:78 *3067:D 3.14048e-05
78 *810:106 *2843:D 5.52302e-05
79 *823:20 *849:37 0.000156287
80 *823:20 *849:41 1.58163e-05
81 *829:20 *3051:D 0.000160403
82 *829:20 *849:98 0.000213309
83 *830:20 *2907:D 5.52238e-05
84 *834:72 *2875:D 0.000206174
85 *834:72 *849:10 7.50505e-05
*RES
1 *3146:X *849:10 19.0143 
2 *849:10 *849:12 2.25 
3 *849:12 *2907:D 15.5679 
4 *849:12 *849:31 10.2054 
5 *849:31 *849:35 5.99107 
6 *849:35 *849:37 5.05357 
7 *849:37 *849:41 5.03571 
8 *849:41 *3067:D 17.6036 
9 *849:41 *2891:D 16.5857 
10 *849:37 *2955:D 9.3 
11 *849:35 *2859:D 9.3 
12 *849:31 *849:87 13.5582 
13 *849:87 *2923:D 9.3 
14 *849:87 *849:98 8.30357 
15 *849:98 *2843:D 14.3357 
16 *849:98 *3051:D 16.9964 
17 *849:10 *849:120 4.5 
18 *849:120 *3035:D 11.0679 
19 *849:120 *2875:D 16.0321 
*END

*D_NET *850 0.0110811
*CONN
*I *3146:A I *D sky130_fd_sc_hd__clkbuf_2
*I *3003:D I *D sky130_fd_sc_hd__dlxtn_1
*I *3019:D I *D sky130_fd_sc_hd__dlxtn_1
*I *2987:D I *D sky130_fd_sc_hd__dlxtn_1
*I *2971:D I *D sky130_fd_sc_hd__dlxtn_1
*I *3083:D I *D sky130_fd_sc_hd__dlxtn_1
*I *2939:D I *D sky130_fd_sc_hd__dlxtn_1
*I *3147:X O *D sky130_fd_sc_hd__dlymetal6s2s_1
*CAP
1 *3146:A 0.000118718
2 *3003:D 0
3 *3019:D 0.000218189
4 *2987:D 4.24036e-05
5 *2971:D 3.27275e-05
6 *3083:D 8.8705e-05
7 *2939:D 0.000264658
8 *3147:X 0
9 *850:61 0.00038318
10 *850:57 0.000289737
11 *850:33 0.000240051
12 *850:31 0.00205673
13 *850:8 0.00208077
14 *850:6 0.000163867
15 *2939:D *925:133 0.000494943
16 *3019:D *3211:A 0.000185643
17 *3019:D *870:18 1.24368e-05
18 *3019:D *870:24 1.54142e-05
19 *3019:D *903:18 8.04913e-05
20 *3019:D *925:33 3.69047e-06
21 *3083:D *2599:A2 8.68665e-05
22 *3083:D *909:26 1.92905e-05
23 *3146:A *870:18 9.90367e-05
24 *850:31 *2410:C 1.15281e-05
25 *850:31 *2412:A_N 0.000219711
26 *850:31 *2418:A_N 0.000260574
27 *850:31 *2418:D 8.43535e-06
28 *850:31 *2599:A2 0
29 *850:31 *930:20 0.00036192
30 *850:31 *938:26 2.87555e-06
31 *850:31 *947:60 2.5547e-05
32 *850:31 *947:71 1.54142e-05
33 *850:33 *2599:A2 7.92879e-05
34 *850:57 *2500:A2 3.69047e-06
35 *850:57 *2599:A2 2.42516e-05
36 *850:57 *925:33 0.000429934
37 *850:61 *903:18 5.08788e-05
38 *2399:A *3019:D 0
39 *2596:B2 *3146:A 2.31791e-05
40 *2596:B2 *850:8 0.000127439
41 *2597:A1 *850:31 9.25014e-06
42 *2599:A1 *850:31 0.000196269
43 *2875:D *850:31 2.07491e-05
44 *2987:GATE_N *2987:D 0.000184745
45 *2991:GATE_N *850:61 9.25014e-06
46 *3035:D *850:31 6.81335e-05
47 *3035:GATE_N *850:31 4.87953e-05
48 *3083:GATE_N *3083:D 5.33005e-05
49 *3117:A *850:57 9.41642e-05
50 *3194:A *850:31 1.37292e-05
51 *3194:A *850:33 6.8646e-06
52 *3195:A *850:33 1.37292e-05
53 *3213:A *2987:D 6.81335e-05
54 *3213:A *850:31 0.000115711
55 *477:26 *2939:D 0.000163656
56 *489:10 *3146:A 0.00014238
57 *494:8 *850:31 8.25843e-06
58 *497:8 *850:31 1.04066e-05
59 *559:12 *2971:D 2.59355e-05
60 *647:10 *2939:D 0.000216304
61 *647:10 *3146:A 8.07951e-05
62 *647:10 *850:8 0.000150625
63 *817:24 *850:57 2.6269e-05
64 *817:84 *850:61 5.41794e-05
65 *819:23 *3083:D 0.000171375
66 *819:23 *850:31 0.000158974
67 *819:23 *850:33 0.000209476
68 *834:72 *2939:D 1.19402e-05
69 *834:72 *850:8 4.97121e-06
70 *834:72 *850:31 0.000120512
71 *849:10 *2939:D 0
72 *849:10 *3146:A 0
73 *849:12 *2939:D 0
*RES
1 *3147:X *850:6 13.8 
2 *850:6 *850:8 1.94643 
3 *850:8 *2939:D 21.3 
4 *850:8 *850:31 33.7857 
5 *850:31 *850:33 2.85714 
6 *850:33 *3083:D 16.5857 
7 *850:33 *2971:D 14.3357 
8 *850:31 *850:57 8.73214 
9 *850:57 *850:61 6.75 
10 *850:61 *2987:D 15.5679 
11 *850:61 *3019:D 18.8357 
12 *850:57 *3003:D 9.3 
13 *850:6 *3146:A 16.9964 
*END

*D_NET *851 0.0205937
*CONN
*I *3082:D I *D sky130_fd_sc_hd__dlxtn_1
*I *3034:D I *D sky130_fd_sc_hd__dlxtn_1
*I *2890:D I *D sky130_fd_sc_hd__dlxtn_1
*I *2874:D I *D sky130_fd_sc_hd__dlxtn_1
*I *2986:D I *D sky130_fd_sc_hd__dlxtn_1
*I *2970:D I *D sky130_fd_sc_hd__dlxtn_1
*I *3018:D I *D sky130_fd_sc_hd__dlxtn_1
*I *3002:D I *D sky130_fd_sc_hd__dlxtn_1
*I *2858:D I *D sky130_fd_sc_hd__dlxtn_1
*I *3066:D I *D sky130_fd_sc_hd__dlxtn_1
*I *3148:X O *D sky130_fd_sc_hd__clkbuf_2
*CAP
1 *3082:D 9.8061e-05
2 *3034:D 0
3 *2890:D 0
4 *2874:D 0.000280154
5 *2986:D 0.000196654
6 *2970:D 0.000182553
7 *3018:D 0
8 *3002:D 8.54689e-05
9 *2858:D 4.61053e-05
10 *3066:D 0
11 *3148:X 0
12 *851:113 0.000476808
13 *851:104 0.000204533
14 *851:102 0.00101295
15 *851:59 0.000256661
16 *851:57 0.000272505
17 *851:53 0.00231114
18 *851:33 0.00134639
19 *851:20 0.0020318
20 *851:4 0.00195623
21 *2858:D *862:25 9.60875e-05
22 *3002:D *900:48 0.000121573
23 *3002:D *900:52 5.54183e-05
24 *3002:D *908:34 5.40868e-05
25 *3082:D *892:105 0.000181879
26 *851:20 *2539:B1 5.31541e-05
27 *851:20 *3041:D 0.000353079
28 *851:20 *892:105 6.71755e-05
29 *851:20 *920:26 2.01997e-05
30 *851:53 *2544:A2 9.88679e-05
31 *851:53 *906:22 9.87983e-06
32 *851:53 *921:26 1.90936e-05
33 *851:57 *2544:A2 0.000176234
34 *851:57 *904:22 6.12813e-05
35 *851:59 *862:25 0.000428274
36 *851:102 *2588:A2 7.13226e-06
37 *851:102 *2998:D 0.000188586
38 *2542:B2 *851:102 3.88139e-05
39 *2545:C *851:53 0.000388109
40 *2587:B2 *2874:D 0.000176408
41 *2587:B2 *2970:D 3.14193e-05
42 *2588:A1 *851:102 0.000264163
43 *2588:B2 *851:102 0.000110105
44 *2592:B2 *851:20 0
45 *2870:GATE_N *851:33 0.000574067
46 *2870:GATE_N *851:53 3.87936e-05
47 *2886:GATE_N *851:33 5.82037e-05
48 *2890:GATE_N *2874:D 2.47093e-05
49 *2890:GATE_N *2970:D 5.71472e-05
50 *2938:GATE_N *851:20 6.24363e-05
51 *2970:GATE_N *2970:D 0.000575092
52 *2970:GATE_N *851:102 0.000322148
53 *2970:GATE_N *851:104 4.25176e-05
54 *3018:GATE_N *851:59 0.000140933
55 *3034:GATE_N *851:53 1.19416e-05
56 *3066:GATE_N *851:20 2.04825e-05
57 *3066:GATE_N *851:33 9.60875e-05
58 *3132:A *851:53 2.42516e-05
59 *3144:A *851:20 0.000792947
60 *3144:A *851:53 0.000708429
61 *590:24 *851:20 0.000296429
62 *637:20 *851:59 4.70078e-05
63 *637:20 *851:102 0.000242074
64 *805:127 *3082:D 8.3722e-05
65 *805:127 *851:20 4.70078e-05
66 *805:148 *3082:D 4.40153e-05
67 *809:20 *851:20 4.18471e-05
68 *809:28 *851:20 0.00019367
69 *814:45 *851:53 5.7616e-05
70 *814:45 *851:57 0.000189908
71 *818:18 *2874:D 0
72 *818:18 *2986:D 0
73 *822:49 *851:20 0
74 *825:18 *851:20 0.000348805
75 *825:20 *851:20 0.00046468
76 *829:69 *851:20 0.000520636
77 *831:28 *851:53 0
78 *833:12 *851:53 0.000274294
79 *833:120 *851:53 0.000267377
80 *847:125 *851:33 8.69277e-05
81 *847:125 *851:53 7.84241e-05
*RES
1 *3148:X *851:4 9.3 
2 *851:4 *851:20 34.2216 
3 *851:20 *3066:D 9.3 
4 *851:20 *851:33 6.85714 
5 *851:33 *851:53 35.4659 
6 *851:53 *851:57 9.17857 
7 *851:57 *851:59 4.23214 
8 *851:59 *2858:D 10.2464 
9 *851:59 *3002:D 20.55 
10 *851:57 *3018:D 9.3 
11 *851:53 *851:102 25 
12 *851:102 *851:104 0.535714 
13 *851:104 *2970:D 14.7643 
14 *851:104 *851:113 4.5 
15 *851:113 *2986:D 16.9964 
16 *851:113 *2874:D 19.1571 
17 *851:102 *2890:D 9.3 
18 *851:33 *3034:D 9.3 
19 *851:4 *3082:D 12.7107 
*END

*D_NET *852 0.00931902
*CONN
*I *2922:D I *D sky130_fd_sc_hd__dlxtn_1
*I *2954:D I *D sky130_fd_sc_hd__dlxtn_1
*I *2842:D I *D sky130_fd_sc_hd__dlxtn_1
*I *3050:D I *D sky130_fd_sc_hd__dlxtn_1
*I *2938:D I *D sky130_fd_sc_hd__dlxtn_1
*I *2906:D I *D sky130_fd_sc_hd__dlxtn_1
*I *3149:X O *D sky130_fd_sc_hd__buf_1
*CAP
1 *2922:D 0.00028871
2 *2954:D 7.23324e-05
3 *2842:D 0.000256976
4 *3050:D 0
5 *2938:D 0.000357891
6 *2906:D 0
7 *3149:X 0
8 *852:47 0.000417663
9 *852:40 0.000235821
10 *852:16 0.00203841
11 *852:6 0.00185312
12 *852:4 0.000313843
13 *2842:D *898:118 0
14 *2842:D *911:72 0.000129196
15 *2938:D *898:20 0.000359542
16 *2954:D *916:95 0.00040381
17 *852:16 *3158:A 2.27416e-05
18 *852:16 *863:8 8.01656e-05
19 *852:16 *863:38 0.00022266
20 *852:16 *898:20 9.25014e-06
21 *852:16 *898:31 0
22 *852:16 *914:6 0.000219711
23 *852:16 *914:95 0.000135028
24 *852:40 *911:72 0
25 *852:47 *916:95 0.000353266
26 *2531:C1 *852:16 0
27 *2537:B2 *2954:D 0.000151619
28 *2537:B2 *852:47 0.000127737
29 *2539:A1 *852:16 0.000229456
30 *2583:A1 *2922:D 4.37532e-05
31 *2583:B2 *2922:D 8.2018e-05
32 *2584:C1 *2842:D 0
33 *2585:A1 *2938:D 6.05161e-06
34 *2586:B2 *2938:D 3.66984e-05
35 *2586:C1 *2938:D 3.47641e-06
36 *2922:GATE_N *2922:D 2.59355e-05
37 *2922:GATE_N *852:40 0
38 *2938:GATE_N *2938:D 0.000230475
39 *3030:GATE_N *852:16 1.92905e-05
40 *3149:A *2922:D 1.92905e-05
41 *3149:A *852:40 7.73471e-05
42 *3159:A *852:16 0.00022493
43 *635:20 *2938:D 0
44 *805:148 *2842:D 0
45 *807:22 *2938:D 0
46 *807:22 *852:16 0
47 *811:26 *2922:D 4.78938e-05
48 *811:26 *852:6 1.56e-05
49 *811:26 *852:16 5.06983e-05
50 *811:26 *852:40 4.33437e-05
51 *822:49 *852:40 0
52 *847:125 *2938:D 0.000113271
*RES
1 *3149:X *852:4 9.3 
2 *852:4 *852:6 0.535714 
3 *852:6 *852:16 30.5357 
4 *852:16 *2906:D 13.8 
5 *852:16 *2938:D 21.7821 
6 *852:6 *852:40 11.8571 
7 *852:40 *3050:D 9.3 
8 *852:40 *852:47 3.41071 
9 *852:47 *2842:D 23.2821 
10 *852:47 *2954:D 13.1214 
11 *852:4 *2922:D 22.7643 
*END

*D_NET *853 0.00865145
*CONN
*I *2937:D I *D sky130_fd_sc_hd__dlxtn_1
*I *3081:D I *D sky130_fd_sc_hd__dlxtn_1
*I *2857:D I *D sky130_fd_sc_hd__dlxtn_1
*I *2985:D I *D sky130_fd_sc_hd__dlxtn_1
*I *2969:D I *D sky130_fd_sc_hd__dlxtn_1
*I *2873:D I *D sky130_fd_sc_hd__dlxtn_1
*I *3001:D I *D sky130_fd_sc_hd__dlxtn_1
*I *3017:D I *D sky130_fd_sc_hd__dlxtn_1
*I *2889:D I *D sky130_fd_sc_hd__dlxtn_1
*I *3065:D I *D sky130_fd_sc_hd__dlxtn_1
*I *3150:X O *D sky130_fd_sc_hd__clkbuf_2
*CAP
1 *2937:D 2.57789e-05
2 *3081:D 7.92737e-05
3 *2857:D 0
4 *2985:D 3.75977e-05
5 *2969:D 0
6 *2873:D 0
7 *3001:D 0.000207009
8 *3017:D 5.83254e-05
9 *2889:D 5.24844e-05
10 *3065:D 4.37162e-05
11 *3150:X 0.000123558
12 *853:67 0.000522401
13 *853:65 0.000627084
14 *853:63 0.000538424
15 *853:41 0.000270527
16 *853:39 0.000363567
17 *853:37 0.00111911
18 *853:27 0.00149768
19 *853:12 0.000453528
20 *853:6 0.000245139
21 *2985:D *923:63 9.90367e-05
22 *3001:D *873:44 4.01768e-05
23 *3001:D *877:38 9.60337e-06
24 *3017:D *900:79 9.24491e-05
25 *3017:D *908:83 0.000175526
26 *3081:D *2555:A2 5.10822e-05
27 *853:37 *2577:A2 1.46576e-05
28 *853:63 *934:51 0
29 *853:65 *2579:C1 0
30 *853:65 *900:79 0
31 *853:65 *934:51 0
32 *853:67 *2579:C1 0
33 *853:67 *908:125 2.09897e-05
34 *2459:C *853:67 0
35 *2460:B2 *853:67 2.22043e-05
36 *2480:A1 *853:67 0
37 *2480:B1 *853:67 0
38 *2481:A *853:65 0
39 *2574:A1 *853:6 2.27416e-05
40 *2575:B2 *853:6 0.000301824
41 *2575:B2 *853:12 0.00018372
42 *2576:A1 *853:37 5.62995e-05
43 *2576:A1 *853:39 2.89114e-05
44 *2576:A1 *853:41 7.77652e-05
45 *2577:A1 *853:37 8.64446e-05
46 *2577:B2 *853:37 1.28809e-05
47 *2578:B2 *3001:D 0
48 *2578:B2 *853:67 0
49 *2580:B *853:37 2.68406e-05
50 *2857:GATE_N *853:37 0
51 *2873:GATE_N *3001:D 5.7903e-06
52 *2937:GATE_N *853:12 9.90431e-05
53 *2977:GATE_N *853:63 0
54 *2983:GATE_N *853:65 0
55 *2999:GATE_N *3001:D 5.33334e-05
56 *3001:GATE_N *3001:D 0
57 *3065:GATE_N *3065:D 5.33005e-05
58 *3065:GATE_N *853:27 9.90367e-05
59 *3070:GATE_N *3081:D 9.11365e-06
60 *805:78 *3081:D 4.1331e-06
61 *811:60 *3065:D 2.19684e-05
62 *811:60 *3081:D 0
63 *811:60 *853:12 3.28804e-05
64 *816:54 *3001:D 0
65 *818:56 *853:63 0
66 *818:56 *853:65 0
67 *822:176 *853:6 6.62761e-05
68 *827:64 *3065:D 3.69047e-06
69 *827:70 *3065:D 1.92789e-05
70 *827:70 *853:27 1.72844e-05
71 *827:100 *3065:D 5.41794e-05
72 *827:100 *853:12 9.91086e-05
73 *833:18 *853:67 0
74 *836:95 *2889:D 3.4879e-05
75 *836:95 *853:41 0.000111451
76 *836:106 *853:37 0.000226028
77 *836:106 *853:39 1.56e-05
78 *836:106 *853:41 3.67142e-05
*RES
1 *3150:X *853:6 13.1214 
2 *853:6 *853:12 7.60714 
3 *853:12 *3065:D 15.0679 
4 *853:12 *853:27 8.32143 
5 *853:27 *853:37 16.625 
6 *853:37 *853:39 0.535714 
7 *853:39 *853:41 3.82143 
8 *853:41 *2889:D 10.2464 
9 *853:41 *3017:D 20.55 
10 *853:39 *853:63 7.35714 
11 *853:63 *853:65 4.98214 
12 *853:65 *853:67 4.98214 
13 *853:67 *3001:D 16.9964 
14 *853:67 *2873:D 13.8 
15 *853:65 *2969:D 13.8 
16 *853:63 *2985:D 14.7464 
17 *853:37 *2857:D 9.3 
18 *853:27 *3081:D 19.9429 
19 *853:6 *2937:D 9.72857 
*END

*D_NET *854 0.00950188
*CONN
*I *3033:D I *D sky130_fd_sc_hd__dlxtn_1
*I *2841:D I *D sky130_fd_sc_hd__dlxtn_1
*I *2905:D I *D sky130_fd_sc_hd__dlxtn_1
*I *2953:D I *D sky130_fd_sc_hd__dlxtn_1
*I *3049:D I *D sky130_fd_sc_hd__dlxtn_1
*I *3150:A I *D sky130_fd_sc_hd__clkbuf_2
*I *2921:D I *D sky130_fd_sc_hd__dlxtn_1
*I *3151:X O *D sky130_fd_sc_hd__dlymetal6s2s_1
*CAP
1 *3033:D 2.84194e-05
2 *2841:D 0.000279007
3 *2905:D 0.000158123
4 *2953:D 0.000108896
5 *3049:D 1.11927e-05
6 *3150:A 0
7 *2921:D 0.000384721
8 *3151:X 1.91553e-05
9 *854:79 0.000447209
10 *854:53 0.000267019
11 *854:51 0.000248401
12 *854:42 0.00090278
13 *854:25 0.000838775
14 *854:6 0.000459682
15 *2841:D *2452:B1 5.68722e-05
16 *2841:D *2460:A2 3.90513e-05
17 *2841:D *2573:A2 0.000403436
18 *2841:D *911:72 0.000138271
19 *2841:D *911:78 0.000314377
20 *2841:D *911:92 0.000201693
21 *2841:D *932:70 7.71937e-05
22 *2905:D *855:113 1.92905e-05
23 *2905:D *856:60 5.52302e-05
24 *2905:D *911:72 0
25 *2921:D *2453:A2 4.46186e-06
26 *2953:D *911:72 0
27 *854:25 *892:49 0.00017309
28 *854:25 *898:50 0.00017309
29 *854:42 *2574:A2 0.00014285
30 *854:42 *2574:B1 8.40933e-05
31 *854:42 *892:49 4.73656e-05
32 *854:42 *894:50 0.000398683
33 *854:42 *898:50 5.58941e-05
34 *854:79 *911:72 4.15897e-06
35 *2572:B2 *2841:D 1.76135e-05
36 *2572:B2 *2905:D 0
37 *2572:B2 *3033:D 2.57297e-05
38 *2572:B2 *854:79 0.000142326
39 *2573:A1 *2841:D 8.9591e-05
40 *2573:A1 *2905:D 0
41 *2574:A1 *854:42 0.000219209
42 *2575:A1 *2921:D 5.52302e-05
43 *2575:B2 *2921:D 0
44 *2580:A *2921:D 6.4443e-05
45 *2581:B2 *2841:D 2.11419e-05
46 *2937:GATE_N *2921:D 0.000195555
47 *3031:GATE_N *854:79 1.02976e-05
48 *3049:GATE_N *854:42 5.52302e-05
49 *3065:GATE_N *2921:D 0.000212314
50 *3065:GATE_N *854:6 2.59355e-05
51 *605:18 *2921:D 0.000119125
52 *811:143 *2905:D 0.000150618
53 *811:143 *854:51 1.40306e-05
54 *811:143 *854:79 7.94155e-05
55 *822:55 *2905:D 0
56 *822:55 *2953:D 0
57 *822:176 *854:42 0.000906729
58 *827:64 *2921:D 0.00021529
59 *827:64 *854:6 2.14658e-05
60 *829:100 *854:42 0.000318107
*RES
1 *3151:X *854:6 9.83571 
2 *854:6 *2921:D 28.4964 
3 *854:6 *854:25 6.75 
4 *854:25 *3150:A 13.8 
5 *854:25 *854:42 27.1607 
6 *854:42 *3049:D 9.72857 
7 *854:42 *854:51 1.76786 
8 *854:51 *854:53 4.5 
9 *854:53 *2953:D 15.7464 
10 *854:53 *2905:D 17.4964 
11 *854:51 *854:79 8.03571 
12 *854:79 *2841:D 23.8714 
13 *854:79 *3033:D 14.8357 
*END

*D_NET *855 0.0191211
*CONN
*I *3064:D I *D sky130_fd_sc_hd__dlxtn_1
*I *3032:D I *D sky130_fd_sc_hd__dlxtn_1
*I *3080:D I *D sky130_fd_sc_hd__dlxtn_1
*I *3000:D I *D sky130_fd_sc_hd__dlxtn_1
*I *2856:D I *D sky130_fd_sc_hd__dlxtn_1
*I *2888:D I *D sky130_fd_sc_hd__dlxtn_1
*I *2968:D I *D sky130_fd_sc_hd__dlxtn_1
*I *3016:D I *D sky130_fd_sc_hd__dlxtn_1
*I *2872:D I *D sky130_fd_sc_hd__dlxtn_1
*I *2984:D I *D sky130_fd_sc_hd__dlxtn_1
*I *3152:X O *D sky130_fd_sc_hd__clkbuf_2
*CAP
1 *3064:D 0.000461033
2 *3032:D 0
3 *3080:D 8.23789e-05
4 *3000:D 0
5 *2856:D 9.59279e-05
6 *2888:D 0
7 *2968:D 0
8 *3016:D 9.18081e-05
9 *2872:D 0
10 *2984:D 0.000261918
11 *3152:X 0
12 *855:113 0.00288388
13 *855:46 0.000406195
14 *855:32 0.000551507
15 *855:24 0.000770206
16 *855:22 0.000469467
17 *855:20 0.00252716
18 *855:10 0.00247009
19 *855:8 0.000270832
20 *855:4 0.00262582
21 *855:20 *2490:B1 9.14762e-05
22 *855:20 *2568:C1 0.000275002
23 *855:20 *2977:D 0.000191687
24 *855:113 *2486:B1 0.000442628
25 *855:113 *2563:B1 2.88255e-05
26 *855:113 *856:60 0.000268039
27 *855:113 *896:50 9.47456e-05
28 *855:113 *896:82 0.000345257
29 *855:113 *896:92 3.56253e-05
30 *855:113 *896:98 0.000245789
31 *2490:B2 *855:20 8.85597e-05
32 *2491:A1 *855:20 3.80953e-06
33 *2491:B1 *855:20 3.18676e-05
34 *2563:A1 *855:113 1.32552e-05
35 *2565:A1 *2856:D 0.00016985
36 *2565:A1 *2984:D 9.7659e-05
37 *2565:A1 *855:32 5.33334e-05
38 *2565:B2 *855:32 6.5185e-05
39 *2566:B2 *855:22 0.000142952
40 *2567:B2 *855:32 3.0285e-05
41 *2567:B2 *855:46 3.18676e-05
42 *2568:A1 *855:20 3.97657e-05
43 *2639:B *3064:D 9.60875e-05
44 *2639:B *855:113 4.8936e-05
45 *2856:GATE_N *2856:D 1.58435e-05
46 *2856:GATE_N *855:32 1.59782e-05
47 *2872:GATE_N *2984:D 5.33005e-05
48 *2905:D *855:113 1.92905e-05
49 *2905:GATE_N *855:113 0.000101169
50 *2936:GATE_N *855:113 3.18676e-05
51 *2977:GATE_N *855:20 0.000172536
52 *2984:GATE_N *2984:D 5.52238e-05
53 *3013:GATE_N *855:32 0
54 *3031:GATE_N *3064:D 1.58163e-05
55 *3031:GATE_N *855:113 8.15095e-05
56 *3032:GATE_N *855:10 0.000129515
57 *3032:GATE_N *855:20 5.52302e-05
58 *3064:GATE_N *3064:D 2.89114e-05
59 *3152:A *855:113 3.14048e-05
60 *3153:A *855:8 3.99614e-06
61 *3153:A *855:113 0.000220975
62 *811:52 *855:8 0.000446597
63 *811:52 *855:10 0.000271352
64 *811:52 *855:20 5.33005e-05
65 *811:52 *855:113 7.49387e-06
66 *811:54 *3080:D 3.17148e-05
67 *811:97 *3080:D 0.000147715
68 *814:80 *855:32 0
69 *818:30 *3016:D 0.000175512
70 *827:100 *3080:D 5.40962e-05
71 *833:69 *3016:D 0
*RES
1 *3152:X *855:4 9.3 
2 *855:4 *855:8 5.26786 
3 *855:8 *855:10 2.58929 
4 *855:10 *855:20 32.4286 
5 *855:20 *855:22 3.82143 
6 *855:22 *855:24 2.58929 
7 *855:24 *855:32 14.9286 
8 *855:32 *2984:D 14.3536 
9 *855:32 *2872:D 9.3 
10 *855:24 *855:46 5.05357 
11 *855:46 *3016:D 20.55 
12 *855:46 *2968:D 9.3 
13 *855:24 *2888:D 9.3 
14 *855:22 *2856:D 20.55 
15 *855:20 *3000:D 9.3 
16 *855:10 *3080:D 20.55 
17 *855:8 *3032:D 9.3 
18 *855:4 *855:113 44.3929 
19 *855:113 *3064:D 16.55 
*END

*D_NET *856 0.00829959
*CONN
*I *2840:D I *D sky130_fd_sc_hd__dlxtn_1
*I *2952:D I *D sky130_fd_sc_hd__dlxtn_1
*I *2920:D I *D sky130_fd_sc_hd__dlxtn_1
*I *2936:D I *D sky130_fd_sc_hd__dlxtn_1
*I *2904:D I *D sky130_fd_sc_hd__dlxtn_1
*I *3048:D I *D sky130_fd_sc_hd__dlxtn_1
*I *3153:X O *D sky130_fd_sc_hd__buf_1
*CAP
1 *2840:D 0.000120567
2 *2952:D 0
3 *2920:D 0
4 *2936:D 0
5 *2904:D 0
6 *3048:D 1.55834e-05
7 *3153:X 0.000110595
8 *856:74 0.000297793
9 *856:67 0.000511895
10 *856:60 0.00128811
11 *856:21 0.0011478
12 *856:12 0.000320539
13 *2840:D *884:16 8.58946e-05
14 *856:12 *2486:B1 1.40306e-05
15 *856:12 *916:19 3.80667e-05
16 *856:60 *2485:B1 3.64727e-05
17 *856:60 *881:57 0
18 *856:60 *896:48 2.06178e-05
19 *856:60 *896:92 0.000935508
20 *856:60 *896:98 7.90536e-05
21 *856:60 *911:72 6.91215e-06
22 *856:60 *932:70 8.22793e-06
23 *2485:A1 *856:60 3.15103e-05
24 *2485:B2 *856:60 0.000171206
25 *2493:B2 *3048:D 5.52238e-05
26 *2493:B2 *856:21 0.000677432
27 *2493:B2 *856:60 4.08637e-05
28 *2573:A1 *856:60 1.1257e-05
29 *2905:D *856:60 5.52302e-05
30 *2905:GATE_N *856:60 0.00027032
31 *2920:GATE_N *856:67 9.41642e-05
32 *2936:GATE_N *856:60 7.43174e-05
33 *2952:GATE_N *856:74 0.000181796
34 *3048:GATE_N *3048:D 1.92789e-05
35 *3048:GATE_N *856:21 0.000240213
36 *3048:GATE_N *856:60 1.58163e-05
37 *385:8 *856:12 0.000121411
38 *551:40 *2840:D 9.90367e-05
39 *551:40 *856:67 1.33343e-05
40 *551:40 *856:74 0.000521406
41 *620:18 *856:60 0.000210033
42 *838:40 *2840:D 8.58946e-05
43 *838:44 *2840:D 4.1331e-06
44 *855:113 *856:60 0.000268039
*RES
1 *3153:X *856:12 20.4786 
2 *856:12 *3048:D 9.83571 
3 *856:12 *856:21 6.69643 
4 *856:21 *2904:D 9.3 
5 *856:21 *856:60 41.786 
6 *856:60 *2936:D 9.3 
7 *856:60 *856:67 5.46429 
8 *856:67 *2920:D 9.3 
9 *856:67 *856:74 5.05357 
10 *856:74 *2952:D 9.3 
11 *856:74 *2840:D 22.1036 
*END

*D_NET *857 0.000827021
*CONN
*I *2652:A1 I *D sky130_fd_sc_hd__mux2_1
*I *3249:X O *D sky130_fd_sc_hd__clkbuf_1
*CAP
1 *2652:A1 0.000279902
2 *3249:X 0.000279902
3 *2652:A1 *2652:S 6.25515e-05
4 *2652:A1 *884:34 0.000143459
5 *2830:GATE_N *2652:A1 0
6 *521:12 *2652:A1 6.12069e-05
*RES
1 *3249:X *2652:A1 32.725 
*END

*D_NET *858 0.0152912
*CONN
*I *2903:D I *D sky130_fd_sc_hd__dlxtn_1
*I *2983:D I *D sky130_fd_sc_hd__dlxtn_1
*I *2887:D I *D sky130_fd_sc_hd__dlxtn_1
*I *2967:D I *D sky130_fd_sc_hd__dlxtn_1
*I *2855:D I *D sky130_fd_sc_hd__dlxtn_1
*I *2871:D I *D sky130_fd_sc_hd__dlxtn_1
*I *2999:D I *D sky130_fd_sc_hd__dlxtn_1
*I *3015:D I *D sky130_fd_sc_hd__dlxtn_1
*I *2935:D I *D sky130_fd_sc_hd__dlxtn_1
*I *3063:D I *D sky130_fd_sc_hd__dlxtn_1
*I *3154:X O *D sky130_fd_sc_hd__clkbuf_2
*CAP
1 *2903:D 0.000244968
2 *2983:D 0.000132102
3 *2887:D 0
4 *2967:D 6.4987e-06
5 *2855:D 8.56006e-05
6 *2871:D 1.00305e-05
7 *2999:D 7.84676e-05
8 *3015:D 7.7983e-05
9 *2935:D 2.597e-05
10 *3063:D 0
11 *3154:X 0.000102623
12 *858:59 0.00023138
13 *858:55 0.00026702
14 *858:42 0.00025982
15 *858:40 0.000258979
16 *858:38 0.000232185
17 *858:34 0.00139914
18 *858:19 0.00156847
19 *858:15 0.00290464
20 *858:6 0.00236383
21 *2855:D *2556:B1 0.000102207
22 *2855:D *923:50 2.59355e-05
23 *2871:D *873:44 1.74352e-05
24 *2871:D *877:38 5.52302e-05
25 *2903:D *2476:A2 3.4323e-06
26 *2903:D *873:10 0.000373393
27 *2903:D *914:18 8.58445e-05
28 *2903:D *914:22 3.49114e-05
29 *2983:D *2557:C1 9.58478e-05
30 *2999:D *873:44 0.000139482
31 *2999:D *877:38 0.00049041
32 *3015:D *923:50 3.16801e-05
33 *858:15 *2451:A2 0.000443648
34 *858:15 *2551:B1 4.55244e-05
35 *858:15 *2928:D 0.000177371
36 *858:15 *3054:D 4.87854e-05
37 *858:15 *894:69 5.90208e-05
38 *858:19 *2928:D 5.33005e-05
39 *858:34 *2453:A2 0.00018372
40 *858:34 *2453:B1 3.14193e-05
41 *858:34 *2557:C1 0.000183522
42 *858:34 *923:36 5.66157e-05
43 *858:38 *923:36 0.000220185
44 *858:38 *928:59 0
45 *858:40 *923:36 7.85957e-05
46 *858:40 *928:59 0
47 *858:42 *923:36 0.000100908
48 *858:59 *923:36 5.66157e-05
49 *2451:B2 *858:15 2.89016e-05
50 *2454:C1 *858:19 1.07719e-05
51 *2454:C1 *858:34 2.87555e-06
52 *2551:B2 *858:15 6.13757e-06
53 *2552:A1 *2903:D 0
54 *2554:A1 *858:42 0
55 *2555:C1 *2967:D 6.48387e-06
56 *2556:B2 *858:59 0
57 *2558:B *858:34 1.1152e-05
58 *2558:C *858:34 7.32173e-05
59 *2580:C *858:34 4.90803e-05
60 *2580:C *858:38 0.000148903
61 *2581:A1 *858:15 0.000110029
62 *2855:GATE_N *2855:D 3.14163e-05
63 *2855:GATE_N *3015:D 2.23626e-05
64 *2871:GATE_N *2999:D 0.000142856
65 *2871:GATE_N *858:59 0
66 *2887:GATE_N *858:38 0
67 *2967:GATE_N *858:40 3.45793e-05
68 *2967:GATE_N *858:42 4.1331e-06
69 *3015:GATE_N *3015:D 5.61947e-05
70 *3054:GATE_N *858:15 0.000817351
71 *3056:GATE_N *858:19 5.52302e-05
72 *3063:GATE_N *858:6 5.52302e-05
73 *3151:A *2903:D 0
74 *3154:A *858:6 4.41355e-05
75 *3154:A *858:15 3.06878e-06
76 *3169:A *2903:D 9.54798e-06
77 *381:16 *2903:D 2.16689e-05
78 *515:34 *2967:D 3.95407e-06
79 *605:18 *858:34 3.63775e-05
80 *631:18 *858:15 3.63775e-05
81 *825:61 *858:34 2.44318e-05
*RES
1 *3154:X *858:6 11.0679 
2 *858:6 *3063:D 9.3 
3 *858:6 *858:15 29.1964 
4 *858:15 *858:19 5.89286 
5 *858:19 *2935:D 9.72857 
6 *858:19 *858:34 19.75 
7 *858:34 *858:38 3.39286 
8 *858:38 *858:40 2.25 
9 *858:40 *858:42 2.85714 
10 *858:42 *3015:D 15.2732 
11 *858:42 *858:55 0.535714 
12 *858:55 *858:59 6.75 
13 *858:59 *2999:D 13.9429 
14 *858:59 *2871:D 9.83571 
15 *858:55 *2855:D 15.9786 
16 *858:40 *2967:D 13.9339 
17 *858:38 *2887:D 13.8 
18 *858:34 *2983:D 16.3893 
19 *858:15 *2903:D 23.8893 
*END

*D_NET *859 0.010458
*CONN
*I *2839:D I *D sky130_fd_sc_hd__dlxtn_1
*I *3079:D I *D sky130_fd_sc_hd__dlxtn_1
*I *3031:D I *D sky130_fd_sc_hd__dlxtn_1
*I *2951:D I *D sky130_fd_sc_hd__dlxtn_1
*I *3047:D I *D sky130_fd_sc_hd__dlxtn_1
*I *2919:D I *D sky130_fd_sc_hd__dlxtn_1
*I *3155:X O *D sky130_fd_sc_hd__buf_1
*CAP
1 *2839:D 0
2 *3079:D 6.34206e-05
3 *3031:D 0.000145653
4 *2951:D 0
5 *3047:D 0.000164985
6 *2919:D 3.801e-05
7 *3155:X 0.000252138
8 *859:69 0.000334056
9 *859:67 0.000461745
10 *859:56 0.000611582
11 *859:24 0.00121321
12 *859:14 0.00153717
13 *2919:D *916:50 8.90371e-05
14 *3079:D *2473:B1 1.15281e-05
15 *3079:D *2800:GATE_N 0
16 *3079:D *3174:A 9.41642e-05
17 *3079:D *874:20 0.000136958
18 *859:14 *2460:A2 0.000193234
19 *859:14 *932:70 0.000199698
20 *859:14 *932:72 0.000145154
21 *859:14 *1003:14 0.000518586
22 *859:24 *2553:A2 0.000375337
23 *859:24 *2573:A2 9.60939e-05
24 *859:24 *916:32 1.02504e-05
25 *859:24 *916:50 0.000203913
26 *859:56 *2573:A2 1.33343e-05
27 *859:56 *892:121 8.32171e-05
28 *859:56 *896:50 8.15095e-05
29 *859:67 *896:50 1.69115e-05
30 *859:69 *2473:B1 0
31 *2550:A1 *3031:D 0
32 *2550:A1 *859:69 0
33 *2550:B2 *859:69 0
34 *2551:A1 *859:67 0.000328428
35 *2553:C1 *3047:D 0.000277176
36 *2553:C1 *859:24 0.000137983
37 *2944:GATE_N *859:56 8.4624e-06
38 *2944:GATE_N *859:67 0.000143362
39 *3031:GATE_N *3031:D 0.000145398
40 *3031:GATE_N *859:67 0.000532447
41 *3031:GATE_N *859:69 0.000247771
42 *3151:A *3047:D 0.000346532
43 *3154:A *859:14 5.52238e-05
44 *3154:A *859:67 6.77597e-05
45 *385:8 *3047:D 0
46 *385:8 *859:24 7.6644e-05
47 *521:18 *3031:D 5.71472e-05
48 *605:18 *2919:D 1.07719e-05
49 *605:18 *859:24 0.000484954
50 *822:86 *859:14 0
51 *822:86 *859:24 0.000320829
52 *822:86 *859:56 0.000106943
53 *827:62 *859:67 1.92789e-05
*RES
1 *3155:X *859:14 26.0679 
2 *859:14 *859:24 29.5893 
3 *859:24 *2919:D 10.2643 
4 *859:24 *3047:D 22.9786 
5 *859:14 *859:56 14 
6 *859:56 *2951:D 9.3 
7 *859:56 *859:67 13.375 
8 *859:67 *859:69 3.16071 
9 *859:69 *3031:D 16.8179 
10 *859:69 *3079:D 15.5857 
11 *859:67 *2839:D 13.8 
*END

*D_NET *860 0.0104485
*CONN
*I *2950:D I *D sky130_fd_sc_hd__dlxtn_1
*I *2838:D I *D sky130_fd_sc_hd__dlxtn_1
*I *2918:D I *D sky130_fd_sc_hd__dlxtn_1
*I *3046:D I *D sky130_fd_sc_hd__dlxtn_1
*I *2934:D I *D sky130_fd_sc_hd__dlxtn_1
*I *2870:D I *D sky130_fd_sc_hd__dlxtn_1
*I *3030:D I *D sky130_fd_sc_hd__dlxtn_1
*I *2902:D I *D sky130_fd_sc_hd__dlxtn_1
*I *2886:D I *D sky130_fd_sc_hd__dlxtn_1
*I *3078:D I *D sky130_fd_sc_hd__dlxtn_1
*I *3156:X O *D sky130_fd_sc_hd__clkbuf_2
*CAP
1 *2950:D 0
2 *2838:D 0.00024982
3 *2918:D 6.59088e-05
4 *3046:D 0
5 *2934:D 0
6 *2870:D 0
7 *3030:D 0.000162663
8 *2902:D 0.000160924
9 *2886:D 0
10 *3078:D 0.000177975
11 *3156:X 0.000171369
12 *860:97 0.000440348
13 *860:65 0.000260496
14 *860:52 0.000258757
15 *860:38 0.000207474
16 *860:36 0.000187809
17 *860:34 0.00141068
18 *860:16 0.00144311
19 *860:10 0.000337865
20 *860:6 0.000193874
21 *2902:D *2540:A2 9.54798e-06
22 *2902:D *911:25 0
23 *3030:D *2486:B1 0
24 *3030:D *894:29 0
25 *3030:D *914:95 0
26 *860:6 *3156:A 0.000379167
27 *860:10 *3156:A 5.33005e-05
28 *860:16 *894:142 0
29 *860:34 *2546:A2 0.000224583
30 *860:34 *2605:A2 0
31 *860:34 *2607:A2 0
32 *860:34 *2607:B1 0.000139907
33 *860:34 *894:127 0.000112418
34 *860:34 *896:33 0.00029276
35 *860:34 *896:44 1.19309e-05
36 *860:34 *911:46 0.000565529
37 *860:34 *911:54 9.58393e-05
38 *860:36 *911:46 0.000313241
39 *860:65 *2486:B1 0
40 *860:97 *861:79 0
41 *2539:B2 *3078:D 4.35336e-05
42 *2539:B2 *860:36 0.00012727
43 *2539:B2 *860:38 1.58163e-05
44 *2540:B2 *860:34 7.32272e-05
45 *2541:A1 *860:36 3.18676e-05
46 *2546:A1 *860:34 0.000110107
47 *2547:C1 *860:6 3.69047e-06
48 *2547:C1 *860:10 1.58163e-05
49 *2547:C1 *860:16 0.000173804
50 *2547:C1 *860:97 8.15095e-05
51 *2838:GATE_N *2838:D 0.00018077
52 *2844:D *860:34 5.71472e-05
53 *2870:GATE_N *3078:D 0.000226884
54 *2886:GATE_N *3078:D 0.000279862
55 *2950:GATE_N *860:97 0.000101198
56 *3046:GATE_N *860:16 6.14317e-05
57 *3046:GATE_N *860:34 8.37335e-05
58 *3062:GATE_N *2918:D 3.69047e-06
59 *811:20 *860:34 0.000146474
60 *822:49 *860:34 0.000126629
61 *827:44 *860:34 0.000177356
62 *829:37 *2902:D 0.000214156
63 *829:37 *3030:D 3.40128e-05
64 *829:37 *860:65 8.17657e-05
65 *838:28 *860:97 1.17968e-05
66 *838:34 *860:97 5.76944e-05
*RES
1 *3156:X *860:6 13.1214 
2 *860:6 *860:10 5.03571 
3 *860:10 *860:16 8.51786 
4 *860:16 *860:34 38.4821 
5 *860:34 *860:36 4.64286 
6 *860:36 *860:38 0.535714 
7 *860:38 *3078:D 14.3536 
8 *860:38 *2886:D 9.3 
9 *860:36 *860:52 4.5 
10 *860:52 *2902:D 17.1929 
11 *860:52 *860:65 2.25 
12 *860:65 *3030:D 16.6571 
13 *860:65 *2870:D 13.8 
14 *860:34 *2934:D 9.3 
15 *860:16 *3046:D 9.3 
16 *860:10 *860:97 7.89286 
17 *860:97 *2918:D 10.2464 
18 *860:97 *2838:D 13.5321 
19 *860:6 *2950:D 9.3 
*END

*D_NET *861 0.0196797
*CONN
*I *3156:A I *D sky130_fd_sc_hd__clkbuf_2
*I *3062:D I *D sky130_fd_sc_hd__dlxtn_1
*I *2966:D I *D sky130_fd_sc_hd__dlxtn_1
*I *2982:D I *D sky130_fd_sc_hd__dlxtn_1
*I *3014:D I *D sky130_fd_sc_hd__dlxtn_1
*I *2854:D I *D sky130_fd_sc_hd__dlxtn_1
*I *2998:D I *D sky130_fd_sc_hd__dlxtn_1
*I *3157:X O *D sky130_fd_sc_hd__clkbuf_2
*CAP
1 *3156:A 0.000443206
2 *3062:D 0
3 *2966:D 0.000116851
4 *2982:D 0.000427635
5 *3014:D 0
6 *2854:D 2.22238e-05
7 *2998:D 0.000170897
8 *3157:X 0
9 *861:79 0.000747124
10 *861:47 0.000571083
11 *861:18 0.000281661
12 *861:16 0.000113259
13 *861:14 0.00455389
14 *861:4 0.00480649
15 *2854:D *906:93 9.90367e-05
16 *2966:D *904:16 0
17 *2966:D *904:22 0
18 *2998:D *908:34 0.000115072
19 *3156:A *894:142 6.05161e-06
20 *861:14 *2540:A2 0.000103646
21 *861:14 *2541:A2 0
22 *861:14 *2542:A2 0.000441903
23 *861:14 *2587:B1 0.000118634
24 *861:14 *2606:A2 8.22793e-06
25 *861:14 *898:161 7.97829e-05
26 *861:14 *914:151 0.000883044
27 *861:14 *914:157 5.32787e-05
28 *861:14 *921:26 0
29 *861:18 *908:34 7.58243e-05
30 *861:47 *904:22 0
31 *861:79 *898:161 4.38243e-05
32 *861:79 *914:157 0
33 *2543:B2 *2982:D 0.000109916
34 *2545:C *861:14 0.000347723
35 *2547:C1 *3156:A 8.81544e-05
36 *2548:B1 *861:14 0.000467043
37 *2613:A *861:14 0.00319555
38 *2860:GATE_N *2966:D 3.67142e-05
39 *2860:GATE_N *861:18 0
40 *2918:GATE_N *861:79 5.41494e-05
41 *2950:GATE_N *861:79 0
42 *3062:GATE_N *861:79 3.87124e-05
43 *3120:A *2966:D 9.90367e-05
44 *3134:A *861:18 0
45 *637:20 *2998:D 7.15846e-05
46 *812:55 *861:14 0
47 *814:12 *2966:D 4.97825e-05
48 *814:12 *861:16 1.34737e-05
49 *814:12 *861:47 1.28166e-05
50 *814:37 *2982:D 3.32631e-05
51 *814:37 *861:18 0.000121411
52 *816:18 *2854:D 3.67142e-05
53 *816:18 *2998:D 0
54 *816:20 *2998:D 0
55 *851:102 *2998:D 0.000188586
56 *860:6 *3156:A 0.000379167
57 *860:10 *3156:A 5.33005e-05
58 *860:97 *861:79 0
*RES
1 *3157:X *861:4 9.3 
2 *861:4 *861:14 25.14 
3 *861:14 *861:16 0.580357 
4 *861:16 *861:18 2.25 
5 *861:18 *2998:D 18.425 
6 *861:18 *2854:D 14.7464 
7 *861:16 *3014:D 13.8 
8 *861:14 *861:47 0.580357 
9 *861:47 *2982:D 20.0143 
10 *861:47 *2966:D 16.6929 
11 *861:4 *861:79 13.8214 
12 *861:79 *3062:D 9.3 
13 *861:79 *3156:A 17.3714 
*END

*D_NET *862 0.0108355
*CONN
*I *2917:D I *D sky130_fd_sc_hd__dlxtn_1
*I *3077:D I *D sky130_fd_sc_hd__dlxtn_1
*I *2997:D I *D sky130_fd_sc_hd__dlxtn_1
*I *2885:D I *D sky130_fd_sc_hd__dlxtn_1
*I *2965:D I *D sky130_fd_sc_hd__dlxtn_1
*I *2853:D I *D sky130_fd_sc_hd__dlxtn_1
*I *3013:D I *D sky130_fd_sc_hd__dlxtn_1
*I *2981:D I *D sky130_fd_sc_hd__dlxtn_1
*I *2869:D I *D sky130_fd_sc_hd__dlxtn_1
*I *3029:D I *D sky130_fd_sc_hd__dlxtn_1
*I *3158:X O *D sky130_fd_sc_hd__clkbuf_2
*CAP
1 *2917:D 0
2 *3077:D 2.37855e-05
3 *2997:D 0
4 *2885:D 4.61053e-05
5 *2965:D 0.000163284
6 *2853:D 0
7 *3013:D 0
8 *2981:D 0
9 *2869:D 0.000180128
10 *3029:D 0.000134568
11 *3158:X 9.16956e-05
12 *862:81 0.000314298
13 *862:79 0.000271035
14 *862:45 0.000431765
15 *862:43 0.000425125
16 *862:35 0.000510933
17 *862:25 0.00151055
18 *862:23 0.00138065
19 *862:19 0.00034988
20 *862:8 0.000226263
21 *2965:D *2567:B1 0.000273269
22 *2965:D *900:52 0.000117144
23 *3029:D *3158:A 4.6025e-06
24 *862:8 *3158:A 9.26796e-05
25 *862:35 *2532:B1 1.58163e-05
26 *862:35 *2533:A2 3.33174e-05
27 *862:35 *906:99 7.83725e-05
28 *862:43 *2532:A2 0.000119279
29 *862:43 *906:114 0.000168939
30 *862:45 *2532:A2 3.08664e-05
31 *862:79 *900:48 4.33438e-05
32 *862:79 *900:52 0.000143009
33 *862:81 *2566:A2 0
34 *862:81 *900:52 8.5896e-05
35 *2530:B2 *862:23 4.88104e-05
36 *2532:B2 *862:45 3.18676e-05
37 *2533:A1 *862:35 4.65278e-05
38 *2533:B2 *862:35 1.28809e-05
39 *2533:C1 *862:35 0.000385267
40 *2536:B *862:25 0.00033577
41 *2536:B *862:35 0.000208827
42 *2569:C *2965:D 9.25014e-06
43 *2591:A *862:25 5.62995e-05
44 *2853:GATE_N *862:43 5.41794e-05
45 *2858:D *862:25 9.60875e-05
46 *2858:GATE_N *862:35 6.79127e-05
47 *2869:GATE_N *2869:D 9.90367e-05
48 *2885:GATE_N *2885:D 5.52238e-05
49 *2917:GATE_N *3029:D 4.5287e-05
50 *3013:GATE_N *862:45 0.000126639
51 *3034:GATE_N *862:8 0
52 *637:20 *862:25 0.000215215
53 *805:54 *862:25 0.000117543
54 *805:72 *3029:D 1.08359e-05
55 *811:97 *3029:D 9.25014e-06
56 *816:20 *862:79 5.09277e-05
57 *816:24 *862:79 7.08001e-05
58 *816:24 *862:81 2.8266e-06
59 *818:24 *2869:D 6.26466e-05
60 *831:28 *3029:D 0
61 *831:40 *2885:D 4.08637e-05
62 *831:53 *2965:D 0.000226021
63 *831:53 *862:81 2.24646e-05
64 *833:80 *2869:D 0
65 *836:22 *862:35 0.000507357
66 *836:38 *862:43 0.00012401
67 *851:59 *862:25 0.000428274
*RES
1 *3158:X *862:8 16.05 
2 *862:8 *3029:D 16.05 
3 *862:8 *862:19 4.5 
4 *862:19 *862:23 5.48214 
5 *862:23 *862:25 18.6071 
6 *862:25 *862:35 10.9821 
7 *862:35 *862:43 13.4286 
8 *862:43 *862:45 5.05357 
9 *862:45 *2869:D 22.0321 
10 *862:45 *2981:D 9.3 
11 *862:43 *3013:D 9.3 
12 *862:35 *2853:D 9.3 
13 *862:25 *862:79 9.17857 
14 *862:79 *862:81 2.25 
15 *862:81 *2965:D 19.2464 
16 *862:81 *2885:D 14.7464 
17 *862:79 *2997:D 13.8 
18 *862:23 *3077:D 9.72857 
19 *862:19 *2917:D 9.3 
*END

*D_NET *863 0.0133153
*CONN
*I *2837:D I *D sky130_fd_sc_hd__dlxtn_1
*I *3061:D I *D sky130_fd_sc_hd__dlxtn_1
*I *3045:D I *D sky130_fd_sc_hd__dlxtn_1
*I *2933:D I *D sky130_fd_sc_hd__dlxtn_1
*I *2949:D I *D sky130_fd_sc_hd__dlxtn_1
*I *2901:D I *D sky130_fd_sc_hd__dlxtn_1
*I *3158:A I *D sky130_fd_sc_hd__clkbuf_2
*I *3159:X O *D sky130_fd_sc_hd__clkbuf_2
*CAP
1 *2837:D 0.000242574
2 *3061:D 0
3 *3045:D 0.000209558
4 *2933:D 0
5 *2949:D 0.000281546
6 *2901:D 0
7 *3158:A 0.000443434
8 *3159:X 0
9 *863:77 0.000489379
10 *863:53 0.000209558
11 *863:40 0.000388953
12 *863:38 0.00249278
13 *863:8 0.000726874
14 *863:4 0.002422
15 *3045:D *916:111 0.000524807
16 *863:8 *914:6 4.00825e-05
17 *863:38 *2529:B1 8.56752e-05
18 *863:38 *914:6 8.25843e-06
19 *863:38 *914:95 5.74499e-06
20 *2528:A1 *3045:D 1.53124e-05
21 *2528:B2 *2837:D 7.77652e-05
22 *2530:B2 *3158:A 0.00011832
23 *2531:A1 *3158:A 0.000119125
24 *2537:B2 *2837:D 0.00018108
25 *2537:B2 *863:77 4.87832e-05
26 *2584:A1 *863:38 0.000221212
27 *2592:B1 *3045:D 1.92905e-05
28 *2592:B1 *863:40 0.000146985
29 *2592:B2 *863:38 0.000116331
30 *2592:B2 *863:40 3.27359e-05
31 *2936:GATE_N *2949:D 6.48957e-05
32 *2936:GATE_N *863:40 1.00375e-05
33 *2952:GATE_N *2949:D 4.16984e-05
34 *2954:GATE_N *863:77 4.00679e-05
35 *3029:D *3158:A 4.6025e-06
36 *3034:GATE_N *3158:A 0
37 *3040:GATE_N *2949:D 0.000167436
38 *3045:GATE_N *3045:D 5.33005e-05
39 *3159:A *863:38 0.000876916
40 *3202:A *863:8 5.71472e-05
41 *809:111 *2949:D 5.52302e-05
42 *811:20 *863:38 0.000425463
43 *811:26 *863:38 0.0007411
44 *822:117 *2949:D 0.0001399
45 *822:134 *2949:D 0.00026353
46 *825:130 *863:40 6.03432e-05
47 *827:48 *2949:D 9.01334e-05
48 *827:48 *863:38 6.35123e-05
49 *827:48 *863:40 4.82655e-05
50 *831:28 *3158:A 2.53587e-05
51 *852:16 *3158:A 2.27416e-05
52 *852:16 *863:8 8.01656e-05
53 *852:16 *863:38 0.00022266
54 *862:8 *3158:A 9.26796e-05
*RES
1 *3159:X *863:4 9.3 
2 *863:4 *863:8 5.07143 
3 *863:8 *3158:A 27.4429 
4 *863:8 *2901:D 9.3 
5 *863:4 *863:38 37.2321 
6 *863:38 *863:40 3.16071 
7 *863:40 *2949:D 21.1036 
8 *863:40 *863:53 4.5 
9 *863:53 *2933:D 9.3 
10 *863:53 *3045:D 14.7643 
11 *863:38 *863:77 8.33929 
12 *863:77 *3061:D 9.3 
13 *863:77 *2837:D 14.3536 
*END

*D_NET *864 0.011727
*CONN
*I *2900:D I *D sky130_fd_sc_hd__dlxtn_1
*I *2948:D I *D sky130_fd_sc_hd__dlxtn_1
*I *2996:D I *D sky130_fd_sc_hd__dlxtn_1
*I *3012:D I *D sky130_fd_sc_hd__dlxtn_1
*I *2980:D I *D sky130_fd_sc_hd__dlxtn_1
*I *2852:D I *D sky130_fd_sc_hd__dlxtn_1
*I *2884:D I *D sky130_fd_sc_hd__dlxtn_1
*I *2868:D I *D sky130_fd_sc_hd__dlxtn_1
*I *2964:D I *D sky130_fd_sc_hd__dlxtn_1
*I *2932:D I *D sky130_fd_sc_hd__dlxtn_1
*I *3160:X O *D sky130_fd_sc_hd__clkbuf_2
*CAP
1 *2900:D 0
2 *2948:D 0
3 *2996:D 0
4 *3012:D 0.000228878
5 *2980:D 0
6 *2852:D 4.81712e-05
7 *2884:D 9.80489e-05
8 *2868:D 0
9 *2964:D 0.000130814
10 *2932:D 0.000193092
11 *3160:X 0.000330645
12 *864:89 0.000333456
13 *864:67 0.000357182
14 *864:65 0.00031554
15 *864:51 0.000168401
16 *864:49 0.000285902
17 *864:47 0.00235936
18 *864:27 0.00224632
19 *864:25 0.00013528
20 *864:10 0.000523737
21 *864:10 *2879:D 0
22 *864:10 *876:41 0.000222666
23 *864:10 *892:33 0
24 *864:47 *2524:A2 2.95726e-05
25 *864:47 *921:10 9.60875e-05
26 *864:47 *937:12 0
27 *2520:A1 *2932:D 0
28 *2522:A1 *864:47 0.000107065
29 *2522:A1 *864:49 6.72746e-05
30 *2523:B2 *2964:D 0.000164825
31 *2523:B2 *3012:D 1.00332e-05
32 *2523:B2 *864:49 2.84109e-05
33 *2523:B2 *864:51 5.33334e-05
34 *2523:B2 *864:89 0.000123359
35 *2524:A1 *864:47 3.48705e-05
36 *2524:B1 *864:47 0.000486441
37 *2525:C *864:47 0.000271352
38 *2852:GATE_N *2852:D 2.53893e-05
39 *2868:GATE_N *3012:D 0
40 *2868:GATE_N *864:67 0
41 *2868:GATE_N *864:89 0
42 *2890:GATE_N *2884:D 4.1331e-06
43 *2900:GATE_N *2932:D 8.62875e-05
44 *2900:GATE_N *864:10 9.11365e-06
45 *2932:GATE_N *864:10 0
46 *2943:GATE_N *864:10 0.000222666
47 *2948:GATE_N *864:47 5.26091e-05
48 *2988:D *864:47 8.12072e-05
49 *2988:GATE_N *864:47 1.92789e-05
50 *2996:GATE_N *3012:D 0
51 *3021:GATE_N *864:47 0.000162577
52 *3208:A *864:47 0.000142867
53 *499:38 *2932:D 0
54 *575:18 *864:10 0
55 *575:18 *864:27 0.000525381
56 *580:10 *864:27 0.000186401
57 *660:14 *2932:D 9.90431e-05
58 *815:38 *3012:D 4.01768e-05
59 *818:14 *2884:D 0
60 *818:14 *864:67 0
61 *821:22 *3012:D 0.00010096
62 *831:18 *864:10 4.37397e-05
63 *831:22 *864:47 0
64 *832:47 *2852:D 9.83442e-05
65 *832:47 *2884:D 4.57352e-05
66 *837:83 *864:10 0
67 *837:83 *864:47 0.000331001
*RES
1 *3160:X *864:10 20.6571 
2 *864:10 *2932:D 17.5321 
3 *864:10 *864:25 4.5 
4 *864:25 *864:27 5.05357 
5 *864:27 *864:47 44.9643 
6 *864:47 *864:49 4.23214 
7 *864:49 *864:51 0.946429 
8 *864:51 *2964:D 12.3 
9 *864:51 *2868:D 9.3 
10 *864:49 *864:65 4.5 
11 *864:65 *864:67 3.16071 
12 *864:67 *2884:D 15.7464 
13 *864:67 *2852:D 15.175 
14 *864:65 *864:89 2.25 
15 *864:89 *2980:D 13.8 
16 *864:89 *3012:D 18.1393 
17 *864:47 *2996:D 9.3 
18 *864:27 *2948:D 9.3 
19 *864:25 *2900:D 9.3 
*END

*D_NET *865 0.0126665
*CONN
*I *3044:D I *D sky130_fd_sc_hd__dlxtn_1
*I *3060:D I *D sky130_fd_sc_hd__dlxtn_1
*I *3028:D I *D sky130_fd_sc_hd__dlxtn_1
*I *3160:A I *D sky130_fd_sc_hd__clkbuf_2
*I *2836:D I *D sky130_fd_sc_hd__dlxtn_1
*I *3076:D I *D sky130_fd_sc_hd__dlxtn_1
*I *2916:D I *D sky130_fd_sc_hd__dlxtn_1
*I *3161:X O *D sky130_fd_sc_hd__clkbuf_2
*CAP
1 *3044:D 0
2 *3060:D 2.23854e-05
3 *3028:D 0
4 *3160:A 0.000451847
5 *2836:D 6.70141e-05
6 *3076:D 0.000249409
7 *2916:D 0.00015832
8 *3161:X 0.000156706
9 *865:59 0.00186745
10 *865:47 0.00171625
11 *865:43 0.000413803
12 *865:25 0.000370429
13 *865:21 0.000247677
14 *865:6 0.00037316
15 *2916:D *2518:B1 0.000187282
16 *3160:A *2519:B1 0.000358163
17 *3160:A *876:41 0.000268577
18 *3160:A *876:48 0.00021275
19 *865:6 *2518:A2 8.7636e-06
20 *865:6 *2518:B1 3.37041e-05
21 *865:21 *2547:B1 0.000162118
22 *865:25 *2547:B1 0.000173804
23 *865:43 *933:39 6.77822e-05
24 *865:47 *933:39 3.4018e-05
25 *865:59 *2605:A2 0.000137983
26 *865:59 *2605:B1 0.000258072
27 *865:59 *896:12 1.58163e-05
28 *865:59 *933:24 0.000134421
29 *865:59 *933:39 0.000139119
30 *2517:B2 *865:47 5.52302e-05
31 *2518:A1 *865:6 1.13883e-05
32 *2518:B2 *2916:D 0.000135028
33 *2518:B2 *865:6 9.63595e-05
34 *2518:C1 *865:21 0.000171368
35 *2518:C1 *865:25 0.000173804
36 *2526:B2 *2916:D 0.000229716
37 *2526:B2 *865:6 0.00025614
38 *2606:C1 *865:59 6.47215e-05
39 *2614:B1 *3076:D 3.69047e-06
40 *2836:GATE_N *2836:D 4.18895e-05
41 *2836:GATE_N *3076:D 9.60939e-05
42 *2943:GATE_N *865:59 0.000322541
43 *3044:GATE_N *865:47 0.000358971
44 *3188:A *865:59 0.000527887
45 *3190:A *3160:A 0
46 *449:24 *865:59 0.00103408
47 *661:26 *2836:D 0.000180495
48 *661:26 *3076:D 0.000601223
49 *822:6 *865:59 1.90111e-05
*RES
1 *3161:X *865:6 13.1214 
2 *865:6 *2916:D 13.5679 
3 *865:6 *865:21 6.75 
4 *865:21 *865:25 6.75 
5 *865:25 *3076:D 15.175 
6 *865:25 *2836:D 11.0679 
7 *865:21 *865:43 6.67857 
8 *865:43 *865:47 5.48214 
9 *865:47 *865:59 33.4821 
10 *865:59 *3160:A 27.6214 
11 *865:59 *3028:D 9.3 
12 *865:47 *3060:D 9.72857 
13 *865:43 *3044:D 9.3 
*END

*D_NET *866 0.0221083
*CONN
*I *3059:D I *D sky130_fd_sc_hd__dlxtn_1
*I *3027:D I *D sky130_fd_sc_hd__dlxtn_1
*I *2851:D I *D sky130_fd_sc_hd__dlxtn_1
*I *2883:D I *D sky130_fd_sc_hd__dlxtn_1
*I *2867:D I *D sky130_fd_sc_hd__dlxtn_1
*I *2979:D I *D sky130_fd_sc_hd__dlxtn_1
*I *2995:D I *D sky130_fd_sc_hd__dlxtn_1
*I *3011:D I *D sky130_fd_sc_hd__dlxtn_1
*I *2963:D I *D sky130_fd_sc_hd__dlxtn_1
*I *3043:D I *D sky130_fd_sc_hd__dlxtn_1
*I *3162:X O *D sky130_fd_sc_hd__clkbuf_2
*CAP
1 *3059:D 0.000113449
2 *3027:D 0
3 *2851:D 1.63605e-05
4 *2883:D 0.000115201
5 *2867:D 0
6 *2979:D 0.00017604
7 *2995:D 0
8 *3011:D 0.000127096
9 *2963:D 0.000292086
10 *3043:D 3.72704e-05
11 *3162:X 5.49685e-05
12 *866:100 0.000206601
13 *866:66 0.000127096
14 *866:53 0.000439416
15 *866:47 0.000455679
16 *866:43 0.000220459
17 *866:41 0.00030633
18 *866:39 0.00382222
19 *866:35 0.00497129
20 *866:23 0.00137274
21 *866:19 0.000289393
22 *866:8 0.000187656
23 *3059:D *2506:A2 3.42121e-05
24 *3059:D *2507:B1 5.33005e-05
25 *866:8 *2506:A2 8.15939e-05
26 *866:19 *2506:A2 8.0716e-05
27 *866:35 *2504:A2 2.89016e-05
28 *866:35 *3042:D 7.30916e-05
29 *866:35 *893:37 0.000268017
30 *866:35 *893:59 5.74499e-06
31 *866:35 *933:82 0.000517579
32 *866:39 *892:33 4.05247e-05
33 *866:39 *893:37 0.000209133
34 *866:39 *912:10 4.73569e-05
35 *2496:B2 *866:35 0.000114587
36 *2503:A *866:35 9.90431e-05
37 *2506:B2 *3059:D 0.00014478
38 *2510:B2 *2851:D 1.83136e-05
39 *2511:B2 *866:39 2.50802e-06
40 *2511:B2 *866:41 6.94399e-06
41 *2512:B2 *3011:D 0.000161859
42 *2512:B2 *866:100 0.00010326
43 *2595:A1 *866:35 0.00014183
44 *2851:GATE_N *2851:D 5.49544e-05
45 *2867:GATE_N *2963:D 0.000392276
46 *2867:GATE_N *2979:D 0
47 *2867:GATE_N *866:47 9.83442e-05
48 *2867:GATE_N *866:53 0.000282308
49 *2883:GATE_N *2883:D 0
50 *2883:GATE_N *866:39 0.000128419
51 *2891:D *866:39 1.58163e-05
52 *2891:GATE_N *866:39 0.00137026
53 *2962:GATE_N *2883:D 0
54 *2963:GATE_N *2963:D 5.71472e-05
55 *2979:GATE_N *2979:D 0
56 *2995:GATE_N *2963:D 0
57 *2995:GATE_N *3011:D 4.53889e-05
58 *3109:A *866:23 0.000140604
59 *3109:A *866:35 0.000170593
60 *3201:A *866:39 1.58163e-05
61 *492:14 *866:39 9.61999e-05
62 *499:18 *866:39 1.65169e-05
63 *808:14 *3059:D 1.58163e-05
64 *810:14 *3059:D 0.000161068
65 *810:14 *866:19 2.20608e-05
66 *810:16 *866:8 1.99099e-05
67 *810:16 *866:19 5.63396e-05
68 *810:22 *866:8 6.74911e-05
69 *810:84 *866:35 0.000114561
70 *810:106 *866:35 0.000429338
71 *815:22 *2979:D 0
72 *817:30 *2883:D 4.75911e-05
73 *817:30 *2963:D 0
74 *817:30 *2979:D 0
75 *817:30 *866:53 0
76 *817:30 *866:100 0.000139653
77 *817:51 *2883:D 0.000187244
78 *817:51 *2963:D 0
79 *832:25 *866:39 0.0016205
80 *839:75 *866:23 0.000295925
81 *839:75 *866:35 0.000437768
82 *849:87 *866:39 1.58163e-05
83 *849:98 *866:39 2.79421e-05
*RES
1 *3162:X *866:8 15.7464 
2 *866:8 *3043:D 14.3357 
3 *866:8 *866:19 2.25 
4 *866:19 *866:23 7.5 
5 *866:23 *866:35 27.3214 
6 *866:35 *866:39 48.3929 
7 *866:39 *866:41 2.17857 
8 *866:41 *866:43 1.35714 
9 *866:43 *866:47 2.60714 
10 *866:47 *866:53 7.80357 
11 *866:53 *2963:D 20.55 
12 *866:53 *866:66 4.5 
13 *866:66 *3011:D 12.3 
14 *866:66 *2995:D 9.3 
15 *866:47 *2979:D 21.4607 
16 *866:43 *2867:D 9.3 
17 *866:41 *866:100 6.875 
18 *866:100 *2883:D 16.6571 
19 *866:100 *2851:D 14.3357 
20 *866:23 *3027:D 9.3 
21 *866:19 *3059:D 17.1929 
*END

*D_NET *867 0.0070734
*CONN
*I *3075:D I *D sky130_fd_sc_hd__dlxtn_1
*I *2835:D I *D sky130_fd_sc_hd__dlxtn_1
*I *2915:D I *D sky130_fd_sc_hd__dlxtn_1
*I *2947:D I *D sky130_fd_sc_hd__dlxtn_1
*I *2899:D I *D sky130_fd_sc_hd__dlxtn_1
*I *2931:D I *D sky130_fd_sc_hd__dlxtn_1
*I *3163:X O *D sky130_fd_sc_hd__buf_1
*CAP
1 *3075:D 0.000128611
2 *2835:D 0
3 *2915:D 0.000122254
4 *2947:D 0
5 *2899:D 0
6 *2931:D 0.000310697
7 *3163:X 0.000575157
8 *867:28 0.000783715
9 *867:18 0.000515962
10 *867:16 0.000363874
11 *867:10 0.000259353
12 *867:6 0.000764444
13 *2915:D *895:81 3.69047e-06
14 *2931:D *912:43 0.000350624
15 *867:6 *2631:A 2.95726e-05
16 *867:28 *2506:A2 1.95625e-05
17 *867:28 *895:71 2.14757e-05
18 *867:28 *895:81 5.45686e-05
19 *2507:A1 *3075:D 6.05161e-06
20 *2508:B2 *867:16 3.04251e-05
21 *2509:B2 *2931:D 5.03772e-05
22 *2509:C1 *2915:D 5.33005e-05
23 *2509:C1 *2931:D 0.000226237
24 *2509:C1 *867:28 0.000734926
25 *3075:GATE_N *867:10 6.39808e-05
26 *3109:A *3075:D 3.90464e-05
27 *3109:A *867:6 1.21258e-05
28 *3162:A *867:16 0.000215102
29 *3162:A *867:18 8.17274e-05
30 *3162:A *867:28 0.000218679
31 *3163:A *867:6 7.48091e-05
32 *570:18 *867:10 0
33 *570:18 *867:16 0
34 *808:14 *867:6 2.27416e-05
35 *810:22 *867:28 7.60944e-05
36 *823:51 *867:28 0.000137983
37 *823:68 *2915:D 0.000162981
38 *823:68 *867:18 1.58163e-05
39 *823:68 *867:28 3.63775e-05
40 *828:70 *867:28 0.000139907
41 *838:18 *867:6 9.35485e-05
42 *838:18 *867:10 0.000115021
43 *838:18 *867:16 1.41706e-05
44 *838:28 *2915:D 7.41311e-05
45 *838:28 *867:16 7.42762e-05
*RES
1 *3163:X *867:6 16.4071 
2 *867:6 *867:10 6.14286 
3 *867:10 *867:16 9.53571 
4 *867:16 *867:18 0.946429 
5 *867:18 *867:28 20.9464 
6 *867:28 *2931:D 16.4071 
7 *867:28 *2899:D 9.3 
8 *867:18 *2947:D 9.3 
9 *867:16 *2915:D 21.0857 
10 *867:10 *2835:D 13.8 
11 *867:6 *3075:D 11.6393 
*END

*D_NET *868 0.0178761
*CONN
*I *2381:A I *D sky130_fd_sc_hd__inv_2
*I *2389:A I *D sky130_fd_sc_hd__nand2_1
*I *2686:A1 I *D sky130_fd_sc_hd__a31o_1
*I *2761:A1 I *D sky130_fd_sc_hd__a32o_1
*I *2701:A I *D sky130_fd_sc_hd__nor2_1
*I *2694:A I *D sky130_fd_sc_hd__and3_1
*I *2702:B2 I *D sky130_fd_sc_hd__o32a_1
*I *3250:X O *D sky130_fd_sc_hd__clkbuf_2
*CAP
1 *2381:A 0.00065418
2 *2389:A 1.09385e-05
3 *2686:A1 0.000121691
4 *2761:A1 0
5 *2701:A 0.000672391
6 *2694:A 0.000402821
7 *2702:B2 2.43018e-05
8 *3250:X 0.000990283
9 *868:92 0.000132629
10 *868:70 0.000852515
11 *868:62 0.000951756
12 *868:39 0.00129437
13 *868:35 0.00085941
14 *868:20 0.00109989
15 *2381:A *2696:A 9.77414e-05
16 *2381:A *2696:B 2.12005e-05
17 *2381:A *887:99 0.00104931
18 *2381:A *997:20 6.94952e-05
19 *2389:A *2389:B 2.83284e-06
20 *2694:A *2450:D 0.000175374
21 *2694:A *950:63 0
22 *2694:A *951:38 6.41996e-05
23 *2694:A *966:16 9.41642e-05
24 *2694:A *1048:10 8.15111e-05
25 *2701:A *2766:S 0
26 *2701:A *2767:B 5.80706e-06
27 *2701:A *885:115 0.000116646
28 *2701:A *887:105 5.76014e-05
29 *2702:B2 *2702:A3 6.05161e-06
30 *868:20 *2702:A1 5.65001e-05
31 *868:20 *2702:B1 1.02504e-05
32 *868:20 *2790:RESET_B 6.08166e-05
33 *868:20 *891:72 5.34742e-05
34 *868:20 *956:26 0.000125071
35 *868:20 *979:10 0.000274294
36 *868:20 *981:18 9.80173e-05
37 *868:20 *996:16 0.00063127
38 *868:20 *1047:111 0.000121222
39 *868:20 *1048:31 0.000163916
40 *868:35 *887:99 0.000161433
41 *868:39 *950:80 0.000199461
42 *868:39 *1048:10 2.05487e-05
43 *868:62 *885:97 0.00184498
44 *868:62 *885:115 0.000168416
45 *868:70 *885:115 0.00051888
46 *2394:B1 *2686:A1 5.4695e-05
47 *2664:D *2694:A 0.000334817
48 *2668:C *868:20 0.000411611
49 *2676:B *868:62 6.60765e-05
50 *2680:A *868:39 0.000178587
51 *2684:B1 *868:62 0.00021392
52 *2685:A *2686:A1 0
53 *2697:A *868:62 0.000451693
54 *2697:A *868:70 0.000275376
55 *2698:B1 *2694:A 0.000178847
56 *2709:A1 *868:20 4.66203e-05
57 *2709:A2 *868:20 0.000145411
58 *2710:C1 *868:20 1.54142e-05
59 *2718:B2 *868:20 0.000192196
60 *2761:A2 *868:70 1.02504e-05
61 *2761:A3 *2701:A 7.77116e-06
62 *2761:A3 *868:70 5.41797e-06
63 *2761:B1 *2701:A 1.21371e-05
64 *2762:B1 *2389:A 8.6229e-06
65 *2764:B *2701:A 1.96967e-05
66 *2764:C *2701:A 8.27184e-06
67 *2764:D *868:70 2.11419e-05
68 *2790:D *868:20 4.63862e-05
69 *3230:A *2694:A 5.52302e-05
70 *3233:A *2702:B2 5.33005e-05
71 *474:45 *2694:A 9.96242e-05
72 *475:38 *2389:A 7.44945e-07
73 *475:38 *2686:A1 1.70307e-05
74 *480:10 *2686:A1 9.82592e-05
75 *504:12 *2381:A 1.94945e-05
76 *510:12 *2694:A 9.25014e-06
77 *672:43 *868:20 0.00012401
78 *675:37 *2686:A1 9.71118e-06
79 *691:20 *868:62 0.000247311
80 *696:20 *2381:A 1.94945e-05
*RES
1 *3250:X *868:20 38.5321 
2 *868:20 *2702:B2 14.3357 
3 *868:20 *868:35 3.6732 
4 *868:35 *868:39 6.57071 
5 *868:39 *2694:A 32.2911 
6 *868:39 *868:62 6.62793 
7 *868:62 *868:70 9.02652 
8 *868:70 *2701:A 27.0679 
9 *868:70 *2761:A1 9.3 
10 *868:62 *868:92 3.41 
11 *868:92 *2686:A1 16.2018 
12 *868:92 *2389:A 14.0768 
13 *868:35 *2381:A 20.5485 
*END

*D_NET *869 0.0114023
*CONN
*I *3026:D I *D sky130_fd_sc_hd__dlxtn_1
*I *2898:D I *D sky130_fd_sc_hd__dlxtn_1
*I *2930:D I *D sky130_fd_sc_hd__dlxtn_1
*I *3042:D I *D sky130_fd_sc_hd__dlxtn_1
*I *2914:D I *D sky130_fd_sc_hd__dlxtn_1
*I *2834:D I *D sky130_fd_sc_hd__dlxtn_1
*I *3074:D I *D sky130_fd_sc_hd__dlxtn_1
*I *2946:D I *D sky130_fd_sc_hd__dlxtn_1
*I *2882:D I *D sky130_fd_sc_hd__dlxtn_1
*I *2866:D I *D sky130_fd_sc_hd__dlxtn_1
*I *3164:X O *D sky130_fd_sc_hd__clkbuf_2
*CAP
1 *3026:D 0
2 *2898:D 9.80207e-05
3 *2930:D 0
4 *3042:D 0.000394445
5 *2914:D 0.000109106
6 *2834:D 0
7 *3074:D 1.08307e-05
8 *2946:D 0.000172253
9 *2882:D 3.75977e-05
10 *2866:D 0.000149268
11 *3164:X 7.34909e-05
12 *869:106 0.000462063
13 *869:74 0.000221471
14 *869:68 0.000207073
15 *869:66 0.000291048
16 *869:35 0.000513315
17 *869:33 0.000622953
18 *869:29 0.000799424
19 *869:19 0.000459549
20 *869:10 0.000357478
21 *2866:D *899:85 0.000401764
22 *2882:D *2464:A2 9.90367e-05
23 *2914:D *917:62 0.000209306
24 *2946:D *2471:A2 0
25 *3042:D *2498:A2 8.06773e-05
26 *3042:D *2648:A0 0.000225577
27 *3042:D *889:56 3.39834e-06
28 *3042:D *897:29 9.11541e-06
29 *3074:D *895:40 1.64583e-05
30 *869:10 *2419:B 3.20153e-05
31 *869:10 *881:31 8.16036e-05
32 *869:10 *919:29 0
33 *869:19 *2419:B 8.37335e-05
34 *869:19 *899:85 0.000129515
35 *869:29 *2419:B 3.97657e-05
36 *869:29 *881:39 0
37 *869:29 *919:29 0
38 *869:33 *881:39 0
39 *869:33 *933:10 0.000252751
40 *869:33 *933:18 0.000233309
41 *869:35 *2464:A2 0.000397911
42 *869:35 *895:40 4.35421e-05
43 *869:66 *897:29 0.000604776
44 *869:66 *917:62 5.55136e-05
45 *869:74 *917:62 2.09072e-05
46 *869:106 *897:29 4.8843e-05
47 *2495:B2 *869:19 4.43256e-05
48 *2496:A1 *869:33 9.49928e-05
49 *2499:A1 *869:35 9.05384e-05
50 *2503:B *869:66 2.72695e-05
51 *2503:B *869:106 4.43256e-05
52 *2914:GATE_N *3042:D 1.82685e-05
53 *2914:GATE_N *869:74 1.08359e-05
54 *2930:GATE_N *869:66 0.000225609
55 *2930:GATE_N *869:106 9.49337e-05
56 *3111:A *3042:D 0.00020727
57 *3127:A *3042:D 3.47319e-05
58 *3127:A *869:106 0.000140159
59 *3128:A *869:29 4.49722e-05
60 *3129:A *869:29 8.60539e-05
61 *3129:A *869:33 0.000122936
62 *3138:A *2898:D 8.57485e-05
63 *3138:A *869:68 4.30452e-05
64 *3138:A *869:74 0.000166911
65 *3205:A *869:29 6.21521e-06
66 *3205:A *869:33 1.49363e-05
67 *477:30 *869:66 4.58194e-05
68 *651:26 *3042:D 0.000106147
69 *808:78 *3074:D 5.49544e-05
70 *808:78 *869:35 0.000411462
71 *810:84 *3042:D 0.00012186
72 *810:106 *869:33 0.000213865
73 *826:10 *2898:D 0
74 *828:48 *869:74 5.47398e-05
75 *828:60 *2898:D 9.97669e-05
76 *828:60 *869:68 5.1588e-05
77 *828:60 *869:74 0.00014101
78 *829:10 *2898:D 2.83284e-06
79 *829:20 *2898:D 1.26701e-05
80 *829:20 *2946:D 0
81 *839:50 *2914:D 4.52124e-05
82 *839:50 *869:74 3.05045e-05
83 *839:75 *2914:D 6.0382e-05
84 *841:21 *2898:D 0
85 *841:21 *3042:D 0.000223399
86 *866:35 *3042:D 7.30916e-05
*RES
1 *3164:X *869:10 20.2464 
2 *869:10 *2866:D 13.1214 
3 *869:10 *869:19 3.41071 
4 *869:19 *869:29 10.4821 
5 *869:29 *869:33 12.2143 
6 *869:33 *869:35 8.33929 
7 *869:35 *2882:D 10.2464 
8 *869:35 *2946:D 21.1571 
9 *869:33 *3074:D 9.83571 
10 *869:29 *869:66 14.875 
11 *869:66 *869:68 0.732143 
12 *869:68 *869:74 7.69643 
13 *869:74 *2834:D 9.3 
14 *869:74 *2914:D 12.8357 
15 *869:68 *869:106 7.21429 
16 *869:106 *3042:D 33.4017 
17 *869:106 *2930:D 9.3 
18 *869:66 *2898:D 16.05 
19 *869:19 *3026:D 9.3 
*END

*D_NET *870 0.0192718
*CONN
*I *3058:D I *D sky130_fd_sc_hd__dlxtn_1
*I *3164:A I *D sky130_fd_sc_hd__clkbuf_2
*I *2994:D I *D sky130_fd_sc_hd__dlxtn_1
*I *3010:D I *D sky130_fd_sc_hd__dlxtn_1
*I *2962:D I *D sky130_fd_sc_hd__dlxtn_1
*I *2978:D I *D sky130_fd_sc_hd__dlxtn_1
*I *2850:D I *D sky130_fd_sc_hd__dlxtn_1
*I *3165:X O *D sky130_fd_sc_hd__clkbuf_2
*CAP
1 *3058:D 0.000979374
2 *3164:A 0
3 *2994:D 0.000343891
4 *3010:D 0
5 *2962:D 0.000110328
6 *2978:D 3.55127e-05
7 *2850:D 0.000169754
8 *3165:X 0
9 *870:85 0.00116272
10 *870:43 0.000231475
11 *870:41 0.000157587
12 *870:26 0.000348523
13 *870:24 0.00107995
14 *870:18 0.00309952
15 *870:4 0.00265363
16 *2850:D *2512:B1 5.33005e-05
17 *2850:D *903:102 0
18 *2850:D *907:48 0.000148911
19 *2850:D *929:10 0.000223592
20 *2850:D *929:18 0.00017309
21 *2962:D *2501:C1 0
22 *3058:D *2496:A2 0
23 *3058:D *895:63 8.18868e-05
24 *3058:D *917:62 4.30454e-05
25 *3058:D *919:29 0.000230475
26 *870:18 *2402:A 6.09889e-05
27 *870:18 *2402:C 1.82549e-05
28 *870:18 *2599:A2 0.000139913
29 *870:18 *3211:A 5.38072e-05
30 *870:18 *938:14 1.39841e-05
31 *870:18 *939:23 0.000155611
32 *870:18 *955:59 2.24763e-05
33 *870:24 *2399:B 0
34 *870:24 *3211:A 0.000358971
35 *870:24 *925:33 3.06878e-06
36 *870:24 *929:10 0.000138158
37 *870:26 *904:10 0
38 *870:26 *929:10 0.000159689
39 *870:85 *881:31 0.000146474
40 *870:85 *889:56 0
41 *870:85 *919:29 0.00018372
42 *870:85 *955:59 3.67142e-05
43 *2500:A1 *2850:D 0
44 *2500:B2 *870:41 0.000183713
45 *2500:B2 *870:43 0.000229456
46 *2501:B2 *870:43 4.8843e-05
47 *2502:B1 *2850:D 6.48863e-05
48 *2503:A *3058:D 3.58934e-05
49 *2503:B *3058:D 1.50181e-05
50 *2504:B1 *3058:D 0
51 *2504:B2 *3058:D 0.000142103
52 *2597:B2 *870:18 0.000136958
53 *2599:C1 *870:18 0.00014183
54 *2786:CLK *3058:D 4.46186e-06
55 *2978:GATE_N *2962:D 0.0002253
56 *2978:GATE_N *2978:D 5.52238e-05
57 *3019:D *870:18 1.24368e-05
58 *3019:D *870:24 1.54142e-05
59 *3019:GATE_N *870:24 1.39841e-05
60 *3113:A *3058:D 0.00077788
61 *3113:A *870:85 0.000185643
62 *3146:A *870:18 9.90367e-05
63 *3165:A *870:18 0.000912531
64 *3193:A *870:18 5.01213e-05
65 *3194:A *2994:D 9.76491e-05
66 *3197:A *870:18 0.000108603
67 *3213:A *870:24 8.06331e-05
68 *3305:A *870:18 0.000126629
69 *477:26 *3058:D 4.17721e-05
70 *485:12 *3058:D 0
71 *489:10 *870:18 0.000130079
72 *647:10 *870:18 0.000396898
73 *753:12 *870:18 2.6554e-05
74 *808:78 *3058:D 0.00022459
75 *812:10 *3058:D 0.000117621
76 *815:12 *2962:D 0
77 *815:12 *2994:D 0.000313235
78 *815:22 *2978:D 3.14048e-05
79 *815:22 *870:43 0.000302017
80 *817:28 *2978:D 1.98839e-05
81 *817:28 *870:43 0.000143635
82 *826:10 *3058:D 0.000320436
83 *826:12 *3058:D 0.000550007
84 *837:27 *2850:D 1.58163e-05
85 *849:10 *870:18 5.52302e-05
*RES
1 *3165:X *870:4 9.3 
2 *870:4 *870:18 46.7679 
3 *870:18 *870:24 14.25 
4 *870:24 *870:26 2.25 
5 *870:26 *2850:D 19.3179 
6 *870:26 *870:41 6.26786 
7 *870:41 *870:43 4.64286 
8 *870:43 *2978:D 10.2464 
9 *870:43 *2962:D 21.1571 
10 *870:41 *3010:D 9.3 
11 *870:24 *2994:D 20.9071 
12 *870:4 *870:85 13.6607 
13 *870:85 *3164:A 9.3 
14 *870:85 *3058:D 42.6929 
*END

*D_NET *871 0.0134714
*CONN
*I *3041:D I *D sky130_fd_sc_hd__dlxtn_1
*I *3073:D I *D sky130_fd_sc_hd__dlxtn_1
*I *2881:D I *D sky130_fd_sc_hd__dlxtn_1
*I *3009:D I *D sky130_fd_sc_hd__dlxtn_1
*I *2993:D I *D sky130_fd_sc_hd__dlxtn_1
*I *2977:D I *D sky130_fd_sc_hd__dlxtn_1
*I *2849:D I *D sky130_fd_sc_hd__dlxtn_1
*I *2961:D I *D sky130_fd_sc_hd__dlxtn_1
*I *2865:D I *D sky130_fd_sc_hd__dlxtn_1
*I *2929:D I *D sky130_fd_sc_hd__dlxtn_1
*I *3166:X O *D sky130_fd_sc_hd__clkbuf_2
*CAP
1 *3041:D 0.000497708
2 *3073:D 2.23854e-05
3 *2881:D 0
4 *3009:D 0
5 *2993:D 0
6 *2977:D 0.000215359
7 *2849:D 0.00011028
8 *2961:D 9.58174e-05
9 *2865:D 1.79664e-05
10 *2929:D 7.07976e-05
11 *3166:X 0
12 *871:118 0.000743827
13 *871:90 0.000215359
14 *871:77 0.000176757
15 *871:75 0.000148388
16 *871:53 0.000171871
17 *871:51 0.000377298
18 *871:33 0.00103605
19 *871:10 0.00148399
20 *871:4 0.000838171
21 *2849:D *2576:A2 9.60939e-05
22 *2849:D *921:109 0.000223592
23 *3041:D *2833:D 5.33005e-05
24 *3041:D *892:105 0.000435839
25 *871:10 *914:10 3.4323e-05
26 *871:10 *914:16 1.78353e-05
27 *871:33 *872:18 0.000109832
28 *871:51 *921:109 5.66157e-05
29 *871:51 *923:36 8.15095e-05
30 *871:75 *921:109 0.000221671
31 *871:77 *921:109 0.000167872
32 *2486:A1 *2929:D 0.000147833
33 *2486:A1 *871:10 9.25014e-06
34 *2490:B2 *2977:D 0.000177815
35 *2493:A1 *3041:D 4.62539e-05
36 *2493:B2 *2929:D 5.52238e-05
37 *2564:C1 *871:33 2.61292e-05
38 *2881:GATE_N *871:51 2.91601e-05
39 *2887:GATE_N *2849:D 0.000223592
40 *2887:GATE_N *871:75 0.000212123
41 *2887:GATE_N *871:77 0.000158622
42 *2913:GATE_N *871:33 0.000560739
43 *2917:GATE_N *871:33 0.000268396
44 *2929:GATE_N *2929:D 1.58163e-05
45 *2993:GATE_N *2961:D 0.00017309
46 *3166:A *871:10 5.52302e-05
47 *3166:A *871:118 5.52238e-05
48 *381:16 *2929:D 0.000149412
49 *381:16 *871:10 0.000186304
50 *590:24 *3041:D 0.000126626
51 *590:24 *871:118 1.32724e-05
52 *615:12 *2865:D 4.01768e-05
53 *615:12 *871:33 0.000801694
54 *615:12 *871:51 5.40661e-05
55 *615:12 *871:53 5.5671e-05
56 *805:18 *871:10 0.000224409
57 *805:18 *871:118 2.77258e-05
58 *811:52 *871:10 1.31516e-05
59 *811:143 *3041:D 0.000145753
60 *831:28 *871:33 0.000759536
61 *831:28 *871:51 5.33005e-05
62 *831:30 *871:51 6.26944e-05
63 *831:30 *871:53 4.08637e-05
64 *831:40 *2865:D 9.90367e-05
65 *831:40 *871:53 0.000137983
66 *833:12 *2961:D 0
67 *851:20 *3041:D 0.000353079
68 *855:20 *2977:D 0.000191687
*RES
1 *3166:X *871:4 9.3 
2 *871:4 *871:10 13.75 
3 *871:10 *2929:D 16.2821 
4 *871:10 *871:33 25.3393 
5 *871:33 *871:51 14.1607 
6 *871:51 *871:53 1.76786 
7 *871:53 *2865:D 10.2464 
8 *871:53 *2961:D 20.55 
9 *871:51 *871:75 7.35714 
10 *871:75 *871:77 2.25 
11 *871:77 *2849:D 17.6036 
12 *871:77 *871:90 4.5 
13 *871:90 *2977:D 14.3536 
14 *871:90 *2993:D 9.3 
15 *871:75 *3009:D 13.8 
16 *871:33 *2881:D 9.3 
17 *871:4 *871:118 3.01786 
18 *871:118 *3073:D 9.72857 
19 *871:118 *3041:D 29.4071 
*END

*D_NET *872 0.00712428
*CONN
*I *2833:D I *D sky130_fd_sc_hd__dlxtn_1
*I *2897:D I *D sky130_fd_sc_hd__dlxtn_1
*I *3025:D I *D sky130_fd_sc_hd__dlxtn_1
*I *2913:D I *D sky130_fd_sc_hd__dlxtn_1
*I *3057:D I *D sky130_fd_sc_hd__dlxtn_1
*I *2945:D I *D sky130_fd_sc_hd__dlxtn_1
*I *3167:X O *D sky130_fd_sc_hd__buf_1
*CAP
1 *2833:D 0.000114158
2 *2897:D 0
3 *3025:D 0
4 *2913:D 0
5 *3057:D 0.000176274
6 *2945:D 0.00010082
7 *3167:X 0.000573325
8 *872:62 0.000541238
9 *872:55 0.00055809
10 *872:24 0.000350111
11 *872:18 0.000286425
12 *872:12 0.000917744
13 *2833:D *2485:B1 0.000123295
14 *2833:D *892:88 4.56437e-05
15 *872:12 *894:29 0.000189908
16 *872:12 *894:37 3.34366e-05
17 *872:12 *916:15 9.46929e-05
18 *872:12 *916:95 0.000171231
19 *872:18 *2487:A2 3.28686e-05
20 *872:24 *898:50 0.000224236
21 *872:62 *898:118 4.43256e-05
22 *2484:A1 *872:62 7.32272e-05
23 *2485:B2 *2833:D 7.80714e-06
24 *2487:B2 *872:12 3.34366e-05
25 *2487:B2 *872:55 1.28809e-05
26 *2492:A *2945:D 7.50473e-05
27 *2493:B2 *2945:D 0.000175271
28 *2493:B2 *3057:D 0.000170385
29 *2564:C1 *872:18 0.000481906
30 *2564:C1 *872:55 0.000237103
31 *2564:C1 *872:62 9.60875e-05
32 *2833:GATE_N *2833:D 0.000130294
33 *2833:GATE_N *872:62 5.71472e-05
34 *3025:GATE_N *872:55 4.27438e-05
35 *3041:D *2833:D 5.33005e-05
36 *381:16 *3057:D 7.85465e-05
37 *590:24 *2833:D 1.58163e-05
38 *805:12 *872:12 5.52302e-05
39 *807:22 *3057:D 7.85465e-05
40 *807:22 *872:24 0.000116657
41 *811:36 *872:12 0.000102893
42 *811:52 *872:18 0.000218685
43 *811:52 *872:55 0.000123617
44 *871:33 *872:18 0.000109832
*RES
1 *3167:X *872:12 28.1393 
2 *872:12 *872:18 6.42857 
3 *872:18 *872:24 11.8571 
4 *872:24 *2945:D 12.3 
5 *872:24 *3057:D 22.3179 
6 *872:18 *2913:D 9.3 
7 *872:12 *872:55 3.55357 
8 *872:55 *3025:D 9.3 
9 *872:55 *872:62 7.51786 
10 *872:62 *2897:D 9.3 
11 *872:62 *2833:D 21.6214 
*END

*D_NET *873 0.0146384
*CONN
*I *3024:D I *D sky130_fd_sc_hd__dlxtn_1
*I *3008:D I *D sky130_fd_sc_hd__dlxtn_1
*I *2992:D I *D sky130_fd_sc_hd__dlxtn_1
*I *2848:D I *D sky130_fd_sc_hd__dlxtn_1
*I *2976:D I *D sky130_fd_sc_hd__dlxtn_1
*I *2880:D I *D sky130_fd_sc_hd__dlxtn_1
*I *2960:D I *D sky130_fd_sc_hd__dlxtn_1
*I *2864:D I *D sky130_fd_sc_hd__dlxtn_1
*I *2928:D I *D sky130_fd_sc_hd__dlxtn_1
*I *3056:D I *D sky130_fd_sc_hd__dlxtn_1
*I *3168:X O *D sky130_fd_sc_hd__clkbuf_2
*CAP
1 *3024:D 0
2 *3008:D 0
3 *2992:D 0.000152127
4 *2848:D 0
5 *2976:D 0.000149137
6 *2880:D 0
7 *2960:D 3.47624e-05
8 *2864:D 0
9 *2928:D 0.000179563
10 *3056:D 0
11 *3168:X 0
12 *873:104 0.000175912
13 *873:84 0.000318358
14 *873:73 0.000455088
15 *873:60 0.000954034
16 *873:54 0.00100652
17 *873:50 0.000429068
18 *873:44 0.00284108
19 *873:28 0.00289269
20 *873:10 0.000436526
21 *873:4 0.000457841
22 *873:10 *2654:A1 0
23 *873:28 *2654:A1 0
24 *873:44 *2455:A2 1.40415e-05
25 *873:44 *2654:A1 0
26 *873:44 *877:18 3.48705e-05
27 *873:44 *877:38 0.000222723
28 *873:44 *1016:22 9.90096e-05
29 *873:50 *2479:A2 6.18969e-06
30 *873:50 *904:61 0.00014499
31 *2455:A1 *873:60 0
32 *2456:A1 *2992:D 0
33 *2476:B2 *2928:D 4.35336e-05
34 *2477:B2 *873:73 2.8266e-06
35 *2479:A1 *873:50 1.98839e-05
36 *2479:A1 *873:54 0.00018372
37 *2479:B2 *873:50 0.000165271
38 *2480:B1 *873:44 1.1979e-05
39 *2846:GATE_N *873:60 0.000141734
40 *2864:GATE_N *2976:D 0
41 *2864:GATE_N *873:60 9.25014e-06
42 *2864:GATE_N *873:73 0.000166983
43 *2864:GATE_N *873:84 0
44 *2871:D *873:44 1.74352e-05
45 *2871:GATE_N *873:44 8.07313e-05
46 *2903:D *873:10 0.000373393
47 *2928:GATE_N *2928:D 0.000142856
48 *2968:GATE_N *2976:D 0
49 *2968:GATE_N *873:84 0
50 *2999:D *873:44 0.000139482
51 *2999:GATE_N *873:44 0.000146565
52 *3001:D *873:44 4.01768e-05
53 *3006:GATE_N *873:50 0
54 *3024:GATE_N *873:44 0.000231391
55 *3054:GATE_N *2928:D 0.0001399
56 *3070:GATE_N *873:44 0.000151628
57 *3168:A *873:10 2.34337e-05
58 *3169:A *873:10 7.89616e-05
59 *3172:A *873:28 0.000140933
60 *381:16 *873:10 0.000629804
61 *381:16 *873:28 0
62 *814:120 *873:50 1.58163e-05
63 *814:120 *873:54 3.78636e-05
64 *818:30 *2976:D 1.76135e-05
65 *818:43 *2976:D 5.52238e-05
66 *833:69 *2976:D 0
67 *836:67 *2992:D 0.000110523
68 *836:67 *873:60 8.42609e-05
69 *858:15 *2928:D 0.000177371
70 *858:19 *2928:D 5.33005e-05
*RES
1 *3168:X *873:4 9.3 
2 *873:4 *873:10 17.3214 
3 *873:10 *3056:D 9.3 
4 *873:10 *2928:D 14.3536 
5 *873:4 *873:28 7.5 
6 *873:28 *873:44 47 
7 *873:44 *873:50 8.19643 
8 *873:50 *873:54 5.48214 
9 *873:54 *873:60 16 
10 *873:60 *2864:D 13.8 
11 *873:60 *873:73 9.33929 
12 *873:73 *2960:D 9.83571 
13 *873:73 *873:84 7.35714 
14 *873:84 *2880:D 13.8 
15 *873:84 *2976:D 16.5857 
16 *873:54 *873:104 0.428571 
17 *873:104 *2848:D 9.3 
18 *873:104 *2992:D 21.6929 
19 *873:50 *3008:D 9.3 
20 *873:28 *3024:D 13.8 
*END

*D_NET *874 0.0113839
*CONN
*I *2896:D I *D sky130_fd_sc_hd__dlxtn_1
*I *3040:D I *D sky130_fd_sc_hd__dlxtn_1
*I *2912:D I *D sky130_fd_sc_hd__dlxtn_1
*I *3072:D I *D sky130_fd_sc_hd__dlxtn_1
*I *2944:D I *D sky130_fd_sc_hd__dlxtn_1
*I *2832:D I *D sky130_fd_sc_hd__dlxtn_1
*I *3169:X O *D sky130_fd_sc_hd__buf_1
*CAP
1 *2896:D 0.000206817
2 *3040:D 5.18204e-05
3 *2912:D 9.84279e-05
4 *3072:D 2.91823e-05
5 *2944:D 0
6 *2832:D 0.00021437
7 *3169:X 0.000166922
8 *874:53 0.000238879
9 *874:44 0.000255632
10 *874:24 0.000231304
11 *874:20 0.002458
12 *874:10 0.00267698
13 *2832:D *2473:A2 0.000312209
14 *2832:D *2474:B1 8.20176e-05
15 *2832:D *2559:A2 0
16 *2896:D *2646:A0 0.000181796
17 *3040:D *2474:A2 0.000122101
18 *874:10 *884:44 2.41865e-05
19 *874:10 *884:57 0.000220253
20 *874:20 *2473:B1 1.40131e-05
21 *874:20 *2652:A0 0.000353079
22 *874:20 *2800:GATE_N 4.19371e-05
23 *874:20 *2894:D 2.89114e-05
24 *874:20 *3174:A 0.000145009
25 *874:20 *880:23 0.000272371
26 *874:20 *881:79 0.000259133
27 *874:20 *884:44 5.58941e-05
28 *874:24 *2473:A2 2.14757e-05
29 *874:24 *2474:B1 1.92905e-05
30 *874:53 *2474:A2 7.32173e-05
31 *2473:B2 *874:20 0
32 *2473:B2 *874:44 0
33 *2559:A1 *874:20 0
34 *2560:B *3040:D 4.70078e-05
35 *2560:B *3072:D 1.92789e-05
36 *2560:B *874:53 9.40278e-05
37 *2800:D *874:20 0
38 *2803:D *874:20 0.000125057
39 *2944:GATE_N *874:44 0.000103507
40 *3040:GATE_N *2912:D 0.000172674
41 *3040:GATE_N *3040:D 8.76257e-05
42 *3040:GATE_N *874:44 0
43 *3040:GATE_N *874:53 5.52302e-05
44 *3047:GATE_N *874:10 3.06878e-06
45 *3079:D *874:20 0.000136958
46 *3079:GATE_N *874:20 1.36875e-05
47 *3157:A *874:20 0
48 *3157:A *874:44 0
49 *3172:A *2896:D 0.000569554
50 *3172:A *874:20 5.33005e-05
51 *3173:A *874:10 0.000146319
52 *3173:A *874:20 2.24646e-05
53 *3316:A *874:20 9.25014e-06
54 *376:10 *874:20 3.17148e-05
55 *390:12 *874:20 0
56 *829:113 *2896:D 0.00052138
57 *829:113 *874:20 8.60626e-05
58 *838:44 *2912:D 0
59 *838:44 *874:44 0
60 *838:54 *2832:D 0.000230482
*RES
1 *3169:X *874:10 17.1036 
2 *874:10 *874:20 40.9107 
3 *874:20 *874:24 5.03571 
4 *874:24 *2832:D 15.2107 
5 *874:24 *2944:D 9.3 
6 *874:20 *874:44 7.35714 
7 *874:44 *3072:D 9.83571 
8 *874:44 *874:53 2.58929 
9 *874:53 *2912:D 20.55 
10 *874:53 *3040:D 11.4786 
11 *874:10 *2896:D 22.425 
*END

*D_NET *875 0.0124671
*CONN
*I *2831:D I *D sky130_fd_sc_hd__dlxtn_1
*I *2895:D I *D sky130_fd_sc_hd__dlxtn_1
*I *3055:D I *D sky130_fd_sc_hd__dlxtn_1
*I *2863:D I *D sky130_fd_sc_hd__dlxtn_1
*I *2911:D I *D sky130_fd_sc_hd__dlxtn_1
*I *2959:D I *D sky130_fd_sc_hd__dlxtn_1
*I *2975:D I *D sky130_fd_sc_hd__dlxtn_1
*I *2991:D I *D sky130_fd_sc_hd__dlxtn_1
*I *3071:D I *D sky130_fd_sc_hd__dlxtn_1
*I *3007:D I *D sky130_fd_sc_hd__dlxtn_1
*I *3170:X O *D sky130_fd_sc_hd__clkbuf_2
*CAP
1 *2831:D 0
2 *2895:D 0.000266812
3 *3055:D 0
4 *2863:D 3.59657e-05
5 *2911:D 0.000197811
6 *2959:D 0
7 *2975:D 0
8 *2991:D 0.000118123
9 *3071:D 0
10 *3007:D 0.000295669
11 *3170:X 0.00032196
12 *875:122 0.000853167
13 *875:103 0.000598526
14 *875:81 0.000314221
15 *875:34 0.000399141
16 *875:30 0.000315596
17 *875:24 0.000218211
18 *875:14 0.000408826
19 *875:12 0.000418012
20 *875:10 0.000387083
21 *2895:D *2520:A2 9.71197e-05
22 *2895:D *911:25 8.78312e-05
23 *2911:D *922:47 4.87953e-05
24 *2991:D *905:10 0.000215448
25 *2991:D *929:58 2.79421e-05
26 *2991:D *936:49 9.41642e-05
27 *3007:D *2462:B1 5.52302e-05
28 *875:10 *892:33 0
29 *875:10 *925:72 0
30 *875:12 *925:72 2.59355e-05
31 *875:14 *925:72 0.000479496
32 *875:24 *2469:A2 1.39726e-05
33 *875:24 *905:20 1.33343e-05
34 *875:24 *905:94 2.14658e-05
35 *875:24 *925:72 1.92905e-05
36 *875:30 *2469:A2 2.27416e-05
37 *875:30 *905:10 0.000122439
38 *875:30 *905:20 5.52302e-05
39 *875:34 *2462:B1 0.000263524
40 *875:81 *892:33 0
41 *875:81 *925:72 5.58941e-05
42 *875:122 *2466:B1 5.71472e-05
43 *875:122 *911:25 0.000249835
44 *875:122 *917:34 0.000272521
45 *2465:B2 *2911:D 0
46 *2470:A *875:122 6.74911e-05
47 *2470:C *875:12 6.4443e-05
48 *2470:C *875:103 1.92905e-05
49 *2470:C *875:122 0.000560227
50 *2831:GATE_N *875:122 5.52302e-05
51 *2939:GATE_N *875:122 0.000180496
52 *2948:GATE_N *2911:D 0.00021367
53 *2948:GATE_N *875:81 0.000164554
54 *3007:GATE_N *3007:D 2.40059e-05
55 *3007:GATE_N *875:34 0.00013107
56 *3035:GATE_N *875:10 0.000177676
57 *3055:GATE_N *875:10 0.000102071
58 *3130:A *875:12 0.000215096
59 *3130:A *875:14 0.00101129
60 *3130:A *875:24 5.71472e-05
61 *3130:A *875:103 4.38128e-05
62 *3130:A *875:122 0.000283452
63 *3171:A *875:10 0.00033242
64 *491:12 *875:122 2.1527e-05
65 *496:16 *875:24 0.000115072
66 *496:16 *875:30 0
67 *499:38 *875:122 0.000197977
68 *580:20 *2895:D 3.67257e-05
69 *805:54 *3007:D 4.16204e-05
70 *826:26 *875:122 0.000254049
71 *829:20 *2895:D 0.000174092
72 *829:37 *2895:D 4.46186e-06
73 *830:31 *2895:D 0
74 *832:33 *2991:D 0.000206905
75 *832:33 *875:24 7.5425e-05
76 *832:33 *875:30 0.000171526
77 *834:66 *2863:D 1.58163e-05
*RES
1 *3170:X *875:10 25.4071 
2 *875:10 *875:12 2.17857 
3 *875:12 *875:14 9.98214 
4 *875:14 *875:24 12.9286 
5 *875:24 *875:30 7.28571 
6 *875:30 *875:34 7.5 
7 *875:34 *3007:D 14.1393 
8 *875:34 *3071:D 9.3 
9 *875:30 *2991:D 17.6036 
10 *875:24 *2975:D 9.3 
11 *875:14 *2959:D 9.3 
12 *875:12 *875:81 6.75 
13 *875:81 *2911:D 17.6036 
14 *875:81 *2863:D 14.3357 
15 *875:10 *875:103 0.535714 
16 *875:103 *3055:D 9.3 
17 *875:103 *875:122 27.1429 
18 *875:122 *2895:D 24.2286 
19 *875:122 *2831:D 9.3 
*END

*D_NET *876 0.00580792
*CONN
*I *3039:D I *D sky130_fd_sc_hd__dlxtn_1
*I *2927:D I *D sky130_fd_sc_hd__dlxtn_1
*I *2847:D I *D sky130_fd_sc_hd__dlxtn_1
*I *2943:D I *D sky130_fd_sc_hd__dlxtn_1
*I *2879:D I *D sky130_fd_sc_hd__dlxtn_1
*I *3023:D I *D sky130_fd_sc_hd__dlxtn_1
*I *3171:X O *D sky130_fd_sc_hd__buf_1
*CAP
1 *3039:D 0.000175172
2 *2927:D 0
3 *2847:D 0
4 *2943:D 0
5 *2879:D 0.00014176
6 *3023:D 0
7 *3171:X 0.000162617
8 *876:48 0.000416278
9 *876:41 0.000495062
10 *876:34 0.000253956
11 *876:21 0.000486267
12 *876:10 0.000507123
13 *2879:D *892:33 0.000167626
14 *876:21 *892:33 0.000574482
15 *2464:A1 *3039:D 0.000513983
16 *2464:A1 *876:48 0.000185643
17 *2464:B2 *3039:D 6.97494e-05
18 *2466:B2 *876:41 1.55885e-05
19 *2847:GATE_N *876:41 0.000265453
20 *2932:GATE_N *2879:D 3.69047e-06
21 *2943:GATE_N *876:41 0.000113073
22 *3023:GATE_N *876:10 4.61698e-05
23 *3160:A *876:41 0.000268577
24 *3160:A *876:48 0.00021275
25 *3171:A *876:10 6.05161e-06
26 *812:76 *876:10 3.69047e-06
27 *812:76 *876:21 2.42516e-05
28 *831:18 *2879:D 0
29 *831:18 *876:21 0
30 *834:66 *876:21 0.000422943
31 *837:83 *2879:D 5.33005e-05
32 *864:10 *2879:D 0
33 *864:10 *876:41 0.000222666
*RES
1 *3171:X *876:10 11.925 
2 *876:10 *3023:D 9.3 
3 *876:10 *876:21 13.1607 
4 *876:21 *2879:D 16.5857 
5 *876:21 *876:34 4.5 
6 *876:34 *2943:D 9.3 
7 *876:34 *876:41 7.10714 
8 *876:41 *2847:D 9.3 
9 *876:41 *876:48 5.05357 
10 *876:48 *2927:D 9.3 
11 *876:48 *3039:D 14.3536 
*END

*D_NET *877 0.0115364
*CONN
*I *2910:D I *D sky130_fd_sc_hd__dlxtn_1
*I *3022:D I *D sky130_fd_sc_hd__dlxtn_1
*I *3070:D I *D sky130_fd_sc_hd__dlxtn_1
*I *2846:D I *D sky130_fd_sc_hd__dlxtn_1
*I *2958:D I *D sky130_fd_sc_hd__dlxtn_1
*I *2862:D I *D sky130_fd_sc_hd__dlxtn_1
*I *2974:D I *D sky130_fd_sc_hd__dlxtn_1
*I *2878:D I *D sky130_fd_sc_hd__dlxtn_1
*I *2990:D I *D sky130_fd_sc_hd__dlxtn_1
*I *3006:D I *D sky130_fd_sc_hd__dlxtn_1
*I *3172:X O *D sky130_fd_sc_hd__clkbuf_2
*CAP
1 *2910:D 0.000244307
2 *3022:D 0
3 *3070:D 0
4 *2846:D 0
5 *2958:D 0.000109248
6 *2862:D 0
7 *2974:D 0.000107262
8 *2878:D 0
9 *2990:D 0
10 *3006:D 0.000125339
11 *3172:X 0.000130054
12 *877:81 0.000294652
13 *877:79 0.000398399
14 *877:68 0.000371171
15 *877:51 0.000336566
16 *877:40 0.000284634
17 *877:38 0.00178786
18 *877:18 0.0018659
19 *877:8 0.000227234
20 *877:6 0.000431423
21 *2910:D *2657:S 0
22 *2910:D *884:71 0
23 *877:6 *2645:S 6.81335e-05
24 *877:8 *2645:S 5.41494e-05
25 *877:18 *2645:A1 0
26 *877:18 *2645:S 1.92905e-05
27 *877:18 *2657:S 0
28 *877:38 *928:63 0
29 *877:68 *2477:B1 9.11048e-06
30 *877:79 *2477:B1 0.000207853
31 *2453:A1 *2910:D 0
32 *2454:A1 *877:6 1.92789e-05
33 *2454:B2 *2910:D 0
34 *2455:B2 *3006:D 2.89016e-05
35 *2455:B2 *877:40 2.59355e-05
36 *2455:B2 *877:51 0.000125731
37 *2455:B2 *877:68 0.000146451
38 *2477:B2 *2974:D 3.71496e-05
39 *2478:A1 *877:68 0.000191855
40 *2478:B2 *2974:D 0.00010137
41 *2554:A1 *877:38 0.000229456
42 *2556:B2 *877:38 5.71472e-05
43 *2578:B2 *877:38 5.71472e-05
44 *2846:GATE_N *877:40 5.49544e-05
45 *2846:GATE_N *877:51 0.000173097
46 *2846:GATE_N *877:68 1.02504e-05
47 *2871:D *877:38 5.52302e-05
48 *2873:GATE_N *877:38 9.33105e-05
49 *2888:GATE_N *2974:D 0
50 *2958:GATE_N *877:79 4.23019e-05
51 *2999:D *877:38 0.00049041
52 *2999:GATE_N *877:38 0.000276211
53 *3001:D *877:38 9.60337e-06
54 *3006:GATE_N *3006:D 0.000114437
55 *3006:GATE_N *877:40 5.94199e-05
56 *3024:GATE_N *877:18 0.000166528
57 *3024:GATE_N *877:38 2.37575e-05
58 *3070:GATE_N *877:38 0.000399841
59 *811:60 *2910:D 0
60 *816:44 *877:68 8.26816e-05
61 *816:54 *877:38 0.000448558
62 *816:54 *877:68 1.00375e-05
63 *820:38 *877:79 6.27272e-06
64 *833:52 *2958:D 0.000276015
65 *833:52 *877:81 0.000392848
66 *836:67 *877:68 0
67 *836:67 *877:79 0
68 *873:44 *877:18 3.48705e-05
69 *873:44 *877:38 0.000222723
*RES
1 *3172:X *877:6 11.8893 
2 *877:6 *877:8 1.35714 
3 *877:8 *877:18 12.7321 
4 *877:18 *877:38 37.5488 
5 *877:38 *877:40 2.17857 
6 *877:40 *3006:D 12.3 
7 *877:40 *877:51 6.75 
8 *877:51 *2990:D 13.8 
9 *877:51 *877:68 6.30357 
10 *877:68 *2878:D 13.8 
11 *877:68 *877:79 7.35714 
12 *877:79 *877:81 3.82143 
13 *877:81 *2974:D 20.55 
14 *877:81 *2862:D 9.3 
15 *877:79 *2958:D 12.4429 
16 *877:38 *2846:D 9.3 
17 *877:18 *3070:D 9.3 
18 *877:8 *3022:D 9.3 
19 *877:6 *2910:D 21.8893 
*END

*D_NET *878 0.00839939
*CONN
*I *3038:D I *D sky130_fd_sc_hd__dlxtn_1
*I *3054:D I *D sky130_fd_sc_hd__dlxtn_1
*I *2942:D I *D sky130_fd_sc_hd__dlxtn_1
*I *2926:D I *D sky130_fd_sc_hd__dlxtn_1
*I *2894:D I *D sky130_fd_sc_hd__dlxtn_1
*I *2830:D I *D sky130_fd_sc_hd__dlxtn_1
*I *3173:X O *D sky130_fd_sc_hd__buf_1
*CAP
1 *3038:D 0
2 *3054:D 0.000168416
3 *2942:D 0
4 *2926:D 0.00146988
5 *2894:D 1.79896e-05
6 *2830:D 0.000189405
7 *3173:X 0.000222438
8 *878:59 0.000201243
9 *878:38 0.00158392
10 *878:16 0.000371418
11 *878:12 0.000245238
12 *878:10 0.000222438
13 *2830:D *884:38 0.000186669
14 *2830:D *1055:16 0
15 *2894:D *881:79 1.92905e-05
16 *2926:D *2453:B1 1.55953e-05
17 *2926:D *2454:A2 7.13226e-06
18 *2926:D *2552:A2 0.000533379
19 *2926:D *918:55 0.000642466
20 *3054:D *894:69 3.14048e-05
21 *878:10 *2460:A2 4.51611e-05
22 *878:16 *1055:16 0
23 *2452:B2 *878:10 4.55215e-05
24 *2454:B2 *2926:D 1.403e-05
25 *2460:B1 *878:38 0
26 *2460:B2 *878:10 5.03772e-05
27 *2460:B2 *878:16 0
28 *2552:B2 *2926:D 0.00026737
29 *2830:GATE_N *2830:D 5.76121e-05
30 *3038:GATE_N *878:10 0
31 *3173:A *878:10 0.000725039
32 *376:10 *2830:D 0
33 *389:10 *2830:D 0
34 *389:10 *878:16 0
35 *521:12 *878:10 9.90367e-05
36 *809:44 *3054:D 0
37 *809:44 *878:10 0.000141973
38 *809:44 *878:38 0
39 *809:44 *878:59 0
40 *825:51 *2926:D 0.000185873
41 *829:100 *3054:D 0.000208065
42 *829:100 *878:16 0.000194227
43 *829:100 *878:38 0.000112875
44 *829:100 *878:59 4.62147e-05
45 *858:15 *3054:D 4.87854e-05
46 *874:20 *2894:D 2.89114e-05
*RES
1 *3173:X *878:10 18.0857 
2 *878:10 *878:12 4.5 
3 *878:12 *878:16 3.39286 
4 *878:16 *2830:D 17.8179 
5 *878:16 *2894:D 14.3357 
6 *878:12 *878:38 1.64286 
7 *878:38 *2926:D 35.4786 
8 *878:38 *878:59 0.732143 
9 *878:59 *2942:D 13.8 
10 *878:59 *3054:D 17.6036 
11 *878:10 *3038:D 9.3 
*END

*D_NET *879 0.000506517
*CONN
*I *2751:A1 I *D sky130_fd_sc_hd__a221o_1
*I *3251:X O *D sky130_fd_sc_hd__clkbuf_1
*CAP
1 *2751:A1 0.000140019
2 *3251:X 0.000140019
3 *2751:A1 *2753:B1 2.78608e-05
4 *2751:A1 *882:44 3.69697e-05
5 *2751:B1 *2751:A1 4.28365e-05
6 *2759:B1 *2751:A1 5.52302e-05
7 *2760:A2 *2751:A1 0
8 *505:57 *2751:A1 6.35819e-05
*RES
1 *3251:X *2751:A1 29.8857 
*END

*D_NET *880 0.0103927
*CONN
*I *2797:GATE_N I *D sky130_fd_sc_hd__dlxtn_1
*I *2794:GATE_N I *D sky130_fd_sc_hd__dlxtn_1
*I *2801:GATE_N I *D sky130_fd_sc_hd__dlxtn_1
*I *2799:GATE_N I *D sky130_fd_sc_hd__dlxtn_1
*I *2791:GATE_N I *D sky130_fd_sc_hd__dlxtn_1
*I *2802:GATE_N I *D sky130_fd_sc_hd__dlxtn_1
*I *2798:GATE_N I *D sky130_fd_sc_hd__dlxtn_1
*I *2793:GATE_N I *D sky130_fd_sc_hd__dlxtn_1
*I *2806:GATE_N I *D sky130_fd_sc_hd__dlxtn_1
*I *2800:GATE_N I *D sky130_fd_sc_hd__dlxtn_1
*I *3174:X O *D sky130_fd_sc_hd__clkbuf_2
*CAP
1 *2797:GATE_N 6.81149e-05
2 *2794:GATE_N 0.000136011
3 *2801:GATE_N 9.79578e-05
4 *2799:GATE_N 0.000197302
5 *2791:GATE_N 7.40101e-05
6 *2802:GATE_N 9.98712e-05
7 *2798:GATE_N 1.72982e-05
8 *2793:GATE_N 4.86218e-05
9 *2806:GATE_N 2.03441e-05
10 *2800:GATE_N 5.3799e-05
11 *3174:X 0.000139066
12 *880:99 0.000418434
13 *880:86 0.000465243
14 *880:62 0.000464071
15 *880:56 0.000373665
16 *880:54 0.000210869
17 *880:38 0.000177919
18 *880:32 0.000403973
19 *880:23 0.000557613
20 *880:12 0.000580914
21 *2794:GATE_N *888:34 0.000200413
22 *2794:GATE_N *888:36 0.000192585
23 *2797:GATE_N *2638:A 2.44266e-05
24 *2797:GATE_N *3329:A 1.32552e-05
25 *2797:GATE_N *888:42 0.000174232
26 *2799:GATE_N *1054:28 2.59355e-05
27 *2800:GATE_N *2473:B1 2.95726e-05
28 *2806:GATE_N *888:78 5.7661e-06
29 *880:23 *2473:B1 0.00015235
30 *880:23 *3356:A 0.00014285
31 *880:32 *888:78 6.87811e-05
32 *880:38 *1013:12 9.8958e-05
33 *880:54 *888:42 5.33005e-05
34 *880:54 *888:78 0.000200716
35 *880:62 *2627:A 0
36 *880:62 *888:42 3.17148e-05
37 *880:86 *888:36 0.000246064
38 *880:86 *888:42 2.24646e-05
39 *880:99 *888:36 0.000718444
40 PWDATA[5] *2802:GATE_N 4.53834e-05
41 PWDATA[5] *880:62 0
42 PWDATA[5] *880:86 0
43 rdata[3] *2802:GATE_N 5.53052e-05
44 *2627:B *2791:GATE_N 6.37237e-05
45 *2627:B *880:62 9.90367e-05
46 *2629:B *880:32 0.000184745
47 *2629:B *880:54 9.60939e-05
48 *2791:D *2791:GATE_N 1.21258e-05
49 *2793:D *880:32 5.33005e-05
50 *2801:D *2801:GATE_N 0.00010096
51 *3079:D *2800:GATE_N 0
52 *3079:GATE_N *2800:GATE_N 6.63909e-06
53 *3313:A *880:38 9.20464e-06
54 *3313:A *880:54 9.71197e-05
55 *3313:A *880:62 0
56 *3314:A *2802:GATE_N 0.000128146
57 *3314:A *880:62 5.52238e-05
58 *3315:A *880:38 0
59 *3316:A *880:23 9.90431e-05
60 *77:20 *2797:GATE_N 5.30637e-06
61 *77:20 *2799:GATE_N 2.47724e-05
62 *390:12 *880:12 0.000100831
63 *426:10 *2794:GATE_N 0.000390575
64 *426:10 *880:86 0.000247771
65 *426:10 *880:99 0.000725987
66 *427:10 *880:62 0
67 *521:18 *2793:GATE_N 0.00014285
68 *521:18 *2798:GATE_N 5.52302e-05
69 *521:18 *880:12 9.80173e-05
70 *521:18 *880:62 9.47712e-05
71 *551:40 *2794:GATE_N 2.59355e-05
72 *791:14 *2802:GATE_N 5.33334e-05
73 *874:20 *2800:GATE_N 4.19371e-05
74 *874:20 *880:23 0.000272371
*RES
1 *3174:X *880:12 20.5857 
2 *880:12 *2800:GATE_N 10.6616 
3 *880:12 *880:23 9.16071 
4 *880:23 *2806:GATE_N 9.72857 
5 *880:23 *880:32 3 
6 *880:32 *880:38 10.9464 
7 *880:38 *2793:GATE_N 10.6571 
8 *880:38 *2798:GATE_N 9.83571 
9 *880:32 *880:54 3.41071 
10 *880:54 *880:56 4.5 
11 *880:56 *880:62 9.64286 
12 *880:62 *2802:GATE_N 21.1929 
13 *880:62 *2791:GATE_N 10.675 
14 *880:56 *880:86 3.46429 
15 *880:86 *2799:GATE_N 16.8179 
16 *880:86 *880:99 9.23214 
17 *880:99 *2801:GATE_N 15.5679 
18 *880:99 *2794:GATE_N 19.3179 
19 *880:54 *2797:GATE_N 11.4964 
*END

*D_NET *881 0.036373
*CONN
*I *2795:GATE_N I *D sky130_fd_sc_hd__dlxtn_1
*I *2805:GATE_N I *D sky130_fd_sc_hd__dlxtn_1
*I *2804:GATE_N I *D sky130_fd_sc_hd__dlxtn_1
*I *2796:GATE_N I *D sky130_fd_sc_hd__dlxtn_1
*I *2792:GATE_N I *D sky130_fd_sc_hd__dlxtn_1
*I *2803:GATE_N I *D sky130_fd_sc_hd__dlxtn_1
*I *3174:A I *D sky130_fd_sc_hd__clkbuf_2
*I *2678:A I *D sky130_fd_sc_hd__or2_1
*I *3175:X O *D sky130_fd_sc_hd__buf_2
*CAP
1 *2795:GATE_N 0.000118886
2 *2805:GATE_N 5.88362e-05
3 *2804:GATE_N 1.99857e-05
4 *2796:GATE_N 0
5 *2792:GATE_N 2.22008e-05
6 *2803:GATE_N 0
7 *3174:A 0.00029454
8 *2678:A 0.000446225
9 *3175:X 0
10 *881:154 0.00107914
11 *881:144 0.00173404
12 *881:131 0.000890798
13 *881:120 0.00162003
14 *881:79 0.00121864
15 *881:57 0.00286739
16 *881:55 0.00242147
17 *881:39 0.00135999
18 *881:31 0.00323402
19 *881:4 0.00147657
20 *2678:A *3104:A 9.77956e-05
21 *3174:A *2473:B1 0.000178051
22 *881:31 *2495:B1 0
23 *881:31 *2594:B1 0
24 *881:31 *2783:RESET_B 0
25 *881:31 *2784:RESET_B 0
26 *881:31 *889:56 0
27 *881:31 *919:29 0
28 *881:31 *931:14 0.000497939
29 *881:39 *895:40 0.000188965
30 *881:39 *918:147 0
31 *881:39 *919:29 1.94945e-05
32 *881:39 *919:35 0.00027008
33 *881:39 *933:10 4.30379e-05
34 *881:55 *2464:A2 0.000191818
35 *881:55 *918:147 0
36 *881:57 *2484:B1 6.71264e-05
37 *881:57 *2486:B1 0
38 *881:57 *2541:A2 0.000119876
39 *881:57 *2608:A2 4.03318e-05
40 *881:57 *898:93 1.50087e-05
41 *881:57 *898:95 5.18797e-05
42 *881:57 *919:55 0.000131628
43 *881:79 *2473:B1 1.3701e-05
44 *881:79 *2652:A0 0.000353079
45 *881:79 *1055:16 0.000329935
46 *881:120 *889:56 0.000472496
47 *881:144 *885:26 0.000304526
48 *881:144 *887:22 0.000442785
49 *881:154 *2538:A 0.000736576
50 *881:154 *885:26 0.000530959
51 *881:154 *885:32 0.000252623
52 *881:154 *886:30 7.80714e-06
53 *881:154 *887:22 0.000355454
54 *881:154 *887:28 0.000550027
55 *881:154 *887:30 0.0010025
56 *881:154 *1041:10 0
57 *2463:A1 *881:57 2.67601e-05
58 *2463:B2 *881:57 0.000109028
59 *2464:B2 *881:55 0.000181803
60 *2481:A *881:57 2.11419e-05
61 *2484:A1 *881:57 0.000164258
62 *2485:C1 *881:57 0.000149878
63 *2495:A1 *881:31 0.000103775
64 *2503:C *881:39 0.000149045
65 *2539:A1 *881:57 7.8327e-05
66 *2539:B2 *881:57 0.000119449
67 *2540:A1 *881:57 0.000138703
68 *2541:A1 *881:57 0
69 *2545:C *881:57 0.000194037
70 *2594:A1 *881:31 0
71 *2641:B *881:154 0.000387432
72 *2761:A3 *2678:A 0.000178847
73 *2761:A3 *881:31 8.46829e-05
74 *2763:A1 *881:31 0.000196581
75 *2763:A2 *881:31 2.06112e-05
76 *2764:A *2678:A 4.53515e-05
77 *2764:D *881:31 2.30846e-05
78 *2792:D *881:39 0.000113038
79 *2792:D *881:55 1.02504e-05
80 *2796:D *2804:GATE_N 1.04232e-05
81 *2796:D *881:131 0.00037833
82 *2796:D *881:144 0.000141743
83 *2803:D *881:79 0.000100351
84 *2821:D *881:154 0.000127439
85 *2894:D *881:79 1.92905e-05
86 *2934:GATE_N *881:57 2.30116e-06
87 *3031:GATE_N *3174:A 0.000167862
88 *3039:GATE_N *2792:GATE_N 3.67257e-05
89 *3079:D *3174:A 9.41642e-05
90 *3137:A *881:39 0.000109369
91 *3140:A *881:154 2.59355e-05
92 *3188:A *881:39 0.000535043
93 *3188:A *881:55 9.32764e-05
94 *3188:A *881:57 0
95 *3205:A *881:39 7.53238e-05
96 *3294:A *3174:A 5.52302e-05
97 *389:10 *881:57 0.00214949
98 *390:12 *3174:A 0
99 *391:12 *881:79 0.000125746
100 *433:16 *881:144 0.000117175
101 *521:18 *3174:A 0.000186669
102 *531:18 *2792:GATE_N 9.90431e-05
103 *672:84 *881:31 0
104 *801:14 *2678:A 4.59075e-05
105 *807:18 *881:57 7.6644e-05
106 *812:28 *881:120 2.74457e-05
107 *822:39 *881:57 0
108 *828:60 *881:120 3.69047e-06
109 *829:20 *881:31 0.000445375
110 *829:20 *881:120 0.000671563
111 *829:100 *881:57 0
112 *829:113 *881:79 0.000230475
113 *830:31 *881:55 0
114 *830:31 *881:57 0.00010125
115 *841:15 *881:120 0.000106944
116 *842:12 *881:154 6.05161e-06
117 *843:14 *881:154 0.000628962
118 *843:16 *881:154 8.89289e-05
119 *843:20 *881:154 3.22834e-05
120 *856:60 *881:57 0
121 *869:10 *881:31 8.16036e-05
122 *869:29 *881:39 0
123 *869:33 *881:39 0
124 *870:85 *881:31 0.000146474
125 *874:20 *3174:A 0.000145009
126 *874:20 *881:79 0.000259133
*RES
1 *3175:X *881:4 9.3 
2 *881:4 *2678:A 24.2821 
3 *881:4 *881:31 25.7752 
4 *881:31 *881:39 23.7761 
5 *881:39 *881:55 16.5268 
6 *881:55 *881:57 47.0268 
7 *881:57 *881:79 23.7857 
8 *881:79 *3174:A 26.1571 
9 *881:79 *2803:GATE_N 9.3 
10 *881:39 *2792:GATE_N 14.7464 
11 *881:31 *881:120 12.1917 
12 *881:120 *2796:GATE_N 9.3 
13 *881:120 *881:131 5.59375 
14 *881:131 *2804:GATE_N 9.72857 
15 *881:131 *881:144 18.0179 
16 *881:144 *881:154 47.1429 
17 *881:154 *2805:GATE_N 14.7464 
18 *881:144 *2795:GATE_N 15.5679 
*END

*D_NET *882 0.0105575
*CONN
*I *2718:A2 I *D sky130_fd_sc_hd__a221o_1
*I *2659:S I *D sky130_fd_sc_hd__mux2_1
*I *3361:A I *D sky130_fd_sc_hd__dlygate4sd1_1
*I *2431:A I *D sky130_fd_sc_hd__nor2_4
*I *2751:A2 I *D sky130_fd_sc_hd__a221o_1
*I *2710:A2 I *D sky130_fd_sc_hd__a221o_1
*I *3176:X O *D sky130_fd_sc_hd__buf_8
*CAP
1 *2718:A2 0.000738126
2 *2659:S 0.000279999
3 *3361:A 9.56447e-05
4 *2431:A 0
5 *2751:A2 3.67076e-05
6 *2710:A2 0
7 *3176:X 0.000110872
8 *882:52 0.000321982
9 *882:44 0.000973385
10 *882:25 0.000839287
11 *882:19 0.00139328
12 *882:8 0.000430499
13 *2718:A2 *2788:RESET_B 2.48681e-05
14 *2751:A2 *2751:B2 2.61387e-05
15 *882:8 *979:10 0.000445016
16 *882:8 *1047:111 9.90367e-05
17 *882:19 *3348:A 0.000160421
18 *882:19 *979:10 7.19677e-05
19 *882:19 *1050:37 9.86413e-05
20 *882:25 *2751:B2 6.76856e-05
21 *882:25 *891:127 1.78536e-05
22 *882:25 *1050:37 1.4867e-05
23 *882:44 *2751:B2 1.3025e-05
24 *882:52 *3322:A 4.40809e-05
25 PADDR[2] *3361:A 0.000161947
26 rdata[13] *882:19 5.7248e-05
27 rdata[5] *882:8 2.2233e-05
28 *2444:A *2659:S 0.000221634
29 *2445:B *882:52 9.9974e-05
30 *2446:A *2659:S 0.000207274
31 *2446:B *2659:S 9.46929e-05
32 *2710:B1 *882:19 0
33 *2710:B2 *2718:A2 0
34 *2710:B2 *882:8 1.38106e-05
35 *2710:C1 *882:8 6.87574e-05
36 *2718:B1 *2718:A2 0.000498833
37 *2718:C1 *2718:A2 9.75337e-06
38 *2750:A *882:25 5.72597e-05
39 *2751:A1 *882:44 3.69697e-05
40 *2751:C1 *882:25 4.00679e-05
41 *2755:A2_N *882:44 0.000226554
42 *2755:A2_N *882:52 0.000105682
43 *2755:B1 *882:44 0.000180336
44 *2756:B *2659:S 0.000325918
45 *2757:B1 *882:52 2.16719e-05
46 *2758:B *3361:A 0.000136958
47 *2758:B *882:52 2.09495e-05
48 *2760:A2 *882:44 0.00013021
49 *2823:D *882:52 0.00014101
50 *3178:A *882:52 0.000212548
51 *3239:A *882:19 6.74911e-05
52 *3261:A *882:8 7.00853e-05
53 *3261:A *882:19 0.000184281
54 *3278:A *2718:A2 0
55 *115:16 *2751:A2 0
56 *116:10 *882:44 4.66203e-05
57 *116:10 *882:52 4.46186e-06
58 *505:10 *3361:A 0.000439685
59 *505:38 *882:44 0
60 *505:57 *882:44 6.8646e-06
61 *505:61 *2718:A2 0.000154555
62 *674:18 *2718:A2 4.75911e-05
63 *786:47 *2718:A2 4.38265e-05
64 *788:16 *882:19 7.51095e-05
65 *788:16 *882:25 2.12859e-05
*RES
1 *3176:X *882:8 13.983 
2 *882:8 *2710:A2 9.3 
3 *882:8 *882:19 13.5045 
4 *882:19 *882:25 9.09821 
5 *882:25 *2751:A2 10.1795 
6 *882:25 *882:44 14.7321 
7 *882:44 *882:52 10.75 
8 *882:52 *2431:A 9.3 
9 *882:52 *3361:A 13.5321 
10 *882:44 *2659:S 20.5143 
11 *882:19 *2718:A2 23.5235 
*END

*D_NET *883 0.00662433
*CONN
*I *3364:A I *D sky130_fd_sc_hd__dlygate4sd1_1
*I *3365:A I *D sky130_fd_sc_hd__dlygate4sd1_1
*I *2730:A2 I *D sky130_fd_sc_hd__o22a_1
*I *2726:A I *D sky130_fd_sc_hd__nand2_1
*I *3358:X O *D sky130_fd_sc_hd__dlygate4sd1_1
*CAP
1 *3364:A 0.000166087
2 *3365:A 0.000400382
3 *2730:A2 0
4 *2726:A 0.000217885
5 *3358:X 4.53527e-05
6 *883:32 0.00071301
7 *883:10 0.00115437
8 *883:6 0.00112838
9 *2726:A *2728:B2 0
10 *2726:A *3347:A 0
11 *3364:A *957:77 0.000171334
12 *3364:A *968:24 8.6229e-06
13 *3364:A *1012:12 6.3113e-05
14 *3365:A *2432:B 2.59355e-05
15 *3365:A *2721:A 9.61542e-05
16 *3365:A *2734:B1 9.09605e-05
17 *3365:A *2738:C 7.60306e-05
18 *3365:A *957:54 1.02936e-05
19 *3365:A *968:40 2.44318e-05
20 *3365:A *981:18 1.17968e-05
21 *883:10 *2704:A1_N 2.89955e-05
22 *883:10 *2745:A1 8.27184e-06
23 *883:32 *2704:A1_N 0
24 *883:32 *957:77 2.61337e-05
25 *883:32 *1012:12 2.6949e-05
26 *883:32 *1047:8 0
27 *2390:B *2726:A 9.25014e-06
28 *2704:B2 *883:6 3.67257e-05
29 *2704:B2 *883:10 8.65057e-05
30 *2704:B2 *883:32 6.42242e-05
31 *2705:A2 *3365:A 0.000363193
32 *2721:B *3365:A 0.0001399
33 *2723:B1 *3365:A 0.000354111
34 *2740:A2 *883:10 0.000492333
35 *2741:B1 *2726:A 4.58976e-05
36 *2741:B1 *883:10 7.3237e-05
37 *3358:A *883:10 2.89016e-05
38 *3358:A *883:32 1.76039e-05
39 *506:10 *3365:A 0.000127446
40 *718:25 *2726:A 5.80706e-06
41 *718:47 *2726:A 7.38556e-05
42 *737:26 *2726:A 9.90431e-05
43 *786:10 *3364:A 8.91726e-05
44 *786:10 *883:32 2.26327e-05
*RES
1 *3358:X *883:6 10.2464 
2 *883:6 *883:10 12.875 
3 *883:10 *2726:A 22.0143 
4 *883:10 *2730:A2 9.3 
5 *883:6 *883:32 7.66071 
6 *883:32 *3365:A 33.2286 
7 *883:32 *3364:A 18.4786 
*END

*D_NET *884 0.0211278
*CONN
*I *2649:S I *D sky130_fd_sc_hd__mux2_1
*I *2651:S I *D sky130_fd_sc_hd__mux2_1
*I *2652:S I *D sky130_fd_sc_hd__mux2_1
*I *2643:S I *D sky130_fd_sc_hd__mux2_1
*I *2650:S I *D sky130_fd_sc_hd__mux2_1
*I *2654:S I *D sky130_fd_sc_hd__mux2_1
*I *2653:S I *D sky130_fd_sc_hd__mux2_1
*I *2645:S I *D sky130_fd_sc_hd__mux2_1
*I *2657:S I *D sky130_fd_sc_hd__mux2_1
*I *2646:S I *D sky130_fd_sc_hd__mux2_1
*I *3177:X O *D sky130_fd_sc_hd__clkbuf_4
*CAP
1 *2649:S 0.000120029
2 *2651:S 0
3 *2652:S 0.000114739
4 *2643:S 0.000148551
5 *2650:S 0
6 *2654:S 1.91209e-05
7 *2653:S 0
8 *2645:S 0.000629159
9 *2657:S 0.000163567
10 *2646:S 0
11 *3177:X 0
12 *884:109 0.00020541
13 *884:71 0.000914267
14 *884:65 0.000993563
15 *884:57 0.00111061
16 *884:44 0.0005306
17 *884:38 0.0006722
18 *884:34 0.00101436
19 *884:24 0.00095236
20 *884:16 0.00233702
21 *884:4 0.0021001
22 *2643:S *2650:A0 7.80714e-06
23 *2643:S *1055:16 0
24 *2645:S *2645:A0 3.05446e-05
25 *2649:S *2649:A0 2.84109e-05
26 *2649:S *885:36 4.35048e-05
27 *2652:S *1055:16 0
28 *2657:S *2653:A1 0.000136475
29 *884:16 *2473:B1 0
30 *884:16 *2547:A2 0.000708066
31 *884:16 *2658:A0 0.000942705
32 *884:16 *3356:A 0
33 *884:16 *888:86 0.000200406
34 *884:24 *2658:A0 1.43349e-05
35 *884:24 *1007:8 0.000922646
36 *884:34 *2651:A0 9.61455e-05
37 *884:34 *1003:14 0.00040765
38 *884:34 *1055:16 0
39 *884:65 *2653:A1 2.59355e-05
40 *884:65 *2654:A1 0.000221641
41 *884:71 *2653:A1 5.98502e-05
42 *2474:A1 *884:16 4.84486e-05
43 *2474:C1 *884:16 0.000431136
44 *2476:C1 *884:44 3.34687e-05
45 *2476:C1 *884:57 6.3532e-05
46 *2547:B2 *884:16 0.000153054
47 *2548:B2 *884:16 9.97744e-05
48 *2635:B *2649:S 0.000128146
49 *2642:B *884:16 0
50 *2646:A1 *884:44 0.000103775
51 *2649:A1 *2649:S 5.52238e-05
52 *2650:A1 *2643:S 6.74911e-05
53 *2651:A1 *884:24 0.00124896
54 *2652:A1 *2652:S 6.25515e-05
55 *2652:A1 *884:34 0.000143459
56 *2793:D *884:16 0.000122226
57 *2806:D *884:16 5.80217e-05
58 *2830:D *884:38 0.000186669
59 *2830:GATE_N *884:38 8.45419e-05
60 *2830:GATE_N *884:109 3.99614e-06
61 *2840:D *884:16 8.58946e-05
62 *2910:D *2657:S 0
63 *2910:D *884:71 0
64 *2910:GATE_N *884:65 3.25477e-05
65 *3047:GATE_N *884:57 4.47762e-05
66 *3151:A *884:65 5.33005e-05
67 *3169:A *884:57 7.16452e-05
68 *3169:A *884:65 0.000165877
69 *3281:A *2643:S 1.02504e-05
70 *3284:A *884:34 5.52302e-05
71 *3288:A *884:24 4.14279e-05
72 *3288:A *884:34 5.52302e-05
73 *3296:A *884:34 5.52302e-05
74 *3298:A *884:34 0.000142856
75 *3309:A *884:16 9.87983e-06
76 *3309:A *884:24 7.86262e-05
77 *376:10 *884:44 4.59085e-05
78 *377:12 *884:65 5.71472e-05
79 *382:10 *884:16 0.000215953
80 *389:10 *884:57 6.21521e-06
81 *390:12 *884:24 0.00010096
82 *515:34 *884:65 6.22626e-05
83 *515:34 *884:71 5.52302e-05
84 *521:12 *2652:S 0
85 *811:60 *2645:S 5.06983e-05
86 *813:26 *884:16 0.000222504
87 *838:40 *884:16 0
88 *838:44 *884:16 0
89 *874:10 *884:44 2.41865e-05
90 *874:10 *884:57 0.000220253
91 *874:20 *884:44 5.58941e-05
92 *877:6 *2645:S 6.81335e-05
93 *877:8 *2645:S 5.41494e-05
94 *877:18 *2645:S 1.92905e-05
95 *877:18 *2657:S 0
*RES
1 *3177:X *884:4 9.3 
2 *884:4 *884:16 49.1875 
3 *884:16 *884:24 18.8482 
4 *884:24 *884:34 18 
5 *884:34 *884:38 10.375 
6 *884:38 *884:44 10.1607 
7 *884:44 *2646:S 13.8 
8 *884:44 *884:57 9.44643 
9 *884:57 *884:65 12.5 
10 *884:65 *884:71 6.67857 
11 *884:71 *2657:S 17.2643 
12 *884:71 *2645:S 22.05 
13 *884:65 *2653:S 9.3 
14 *884:57 *2654:S 9.72857 
15 *884:38 *884:109 1.39286 
16 *884:109 *2650:S 9.3 
17 *884:109 *2643:S 21.0857 
18 *884:34 *2652:S 16.05 
19 *884:24 *2651:S 9.3 
20 *884:4 *2649:S 21.3 
*END

*D_NET *885 0.0324974
*CONN
*I *2389:B I *D sky130_fd_sc_hd__nand2_1
*I *2656:S I *D sky130_fd_sc_hd__mux2_1
*I *2647:S I *D sky130_fd_sc_hd__mux2_1
*I *2644:S I *D sky130_fd_sc_hd__mux2_1
*I *2439:A I *D sky130_fd_sc_hd__or2_1
*I *2648:S I *D sky130_fd_sc_hd__mux2_1
*I *3177:A I *D sky130_fd_sc_hd__clkbuf_4
*I *2658:S I *D sky130_fd_sc_hd__mux2_1
*I *2655:S I *D sky130_fd_sc_hd__mux2_1
*I *3178:X O *D sky130_fd_sc_hd__clkbuf_4
*CAP
1 *2389:B 6.37446e-05
2 *2656:S 2.38199e-05
3 *2647:S 6.34823e-05
4 *2644:S 0
5 *2439:A 0
6 *2648:S 0.000392888
7 *3177:A 0
8 *2658:S 0
9 *2655:S 0.00197517
10 *3178:X 4.75554e-05
11 *885:126 0.000209241
12 *885:115 0.00208782
13 *885:97 0.00401054
14 *885:36 0.00233641
15 *885:32 0.00147675
16 *885:26 0.00219483
17 *885:14 0.00109792
18 *885:8 0.00243995
19 *2389:B *931:34 5.52238e-05
20 *2647:S *2647:A0 0.000136951
21 *2647:S *992:16 0.000117533
22 *2655:S *2561:B1 0.000151816
23 *2655:S *2658:A0 0.000149695
24 *2655:S *2658:A1 2.89114e-05
25 *2655:S *916:111 0.000154576
26 *2655:S *916:115 0.000148903
27 *2655:S *932:49 1.82549e-05
28 *2655:S *994:18 4.45751e-05
29 *2656:S *2647:A0 0.000130419
30 *2656:S *992:16 7.77751e-05
31 *885:14 *982:8 0.00018372
32 *885:14 *988:14 0
33 *885:26 *1050:10 3.68995e-05
34 *885:32 *2515:A2 0
35 *885:32 *887:28 0
36 *885:32 *887:30 0
37 *885:32 *932:14 0
38 *885:32 *962:60 0
39 *885:36 *2649:A0 4.8476e-05
40 *885:36 *888:19 0.000582445
41 *885:97 *887:99 0.000323044
42 *885:97 *887:105 0.00059584
43 *885:115 *2644:A1 5.80706e-06
44 *885:115 *887:105 0.000307731
45 *885:115 *955:24 0
46 *885:115 *955:26 0
47 *885:115 *955:28 0
48 *885:115 *955:30 0
49 *885:126 *2644:A0 0.000148903
50 *885:126 *2644:A1 3.22738e-05
51 *2389:A *2389:B 2.83284e-06
52 *2516:A *2648:S 1.61893e-05
53 *2516:A *885:26 0.000109929
54 *2516:B *2648:S 5.52302e-05
55 *2516:B *885:26 0.000254937
56 *2516:B *885:32 1.52978e-05
57 *2526:A1 *885:32 0
58 *2529:B2 *2655:S 8.46044e-06
59 *2561:B2 *2655:S 7.49499e-05
60 *2632:B *885:26 0.000107503
61 *2633:B *885:32 4.1331e-06
62 *2633:B *885:36 6.39262e-05
63 *2635:B *885:32 0
64 *2635:B *885:36 0
65 *2647:A1 *2647:S 5.71472e-05
66 *2649:S *885:36 4.35048e-05
67 *2676:B *885:97 0.000182611
68 *2685:A *2389:B 8.79856e-06
69 *2697:A *885:115 5.58905e-06
70 *2701:A *885:115 0.000116646
71 *2748:B *885:26 0.000362001
72 *2758:B *885:8 0.000110238
73 *2758:B *885:14 1.90936e-05
74 *2812:D *2648:S 5.52238e-05
75 *2823:D *885:8 9.98928e-05
76 *2823:D *885:14 0.000207379
77 *2829:GATE_N *885:115 5.52238e-05
78 *2936:GATE_N *2655:S 2.72887e-05
79 *3093:D *885:115 0.000392657
80 *3161:A *885:32 0
81 *3162:A *2648:S 0.000271395
82 *3163:A *2648:S 0.000169213
83 *3178:A *885:14 0.000139351
84 *3178:A *885:26 5.47391e-05
85 *3214:A *885:32 0
86 *3228:A *885:115 3.30352e-05
87 *382:10 *2655:S 9.6087e-05
88 *383:10 *885:115 0.000654228
89 *386:10 *885:115 0
90 *386:10 *885:126 0
91 *426:10 *885:36 0.000423235
92 *433:10 *885:26 0.00032495
93 *433:16 *885:26 0.000443792
94 *503:16 *885:97 0.00113377
95 *510:46 *885:115 0.000108045
96 *551:22 *2655:S 6.79379e-05
97 *581:10 *885:32 0.000123049
98 *661:26 *885:32 0.000293498
99 *671:26 *885:36 0.000143684
100 *738:12 *885:26 0
101 *751:16 *885:115 2.09826e-05
102 *801:14 *885:115 1.94879e-05
103 *868:62 *885:97 0.00184498
104 *868:62 *885:115 0.000168416
105 *868:70 *885:115 0.00051888
106 *881:144 *885:26 0.000304526
107 *881:154 *885:26 0.000530959
108 *881:154 *885:32 0.000252623
*RES
1 *3178:X *885:8 15.2911 
2 *885:8 *885:14 13.8304 
3 *885:14 *885:26 27.5 
4 *885:26 *885:32 22.9464 
5 *885:32 *885:36 16.7679 
6 *885:36 *2655:S 46.0857 
7 *885:36 *2658:S 9.3 
8 *885:32 *3177:A 13.8 
9 *885:26 *2648:S 22.0321 
10 *885:14 *2439:A 9.3 
11 *885:8 *885:97 9.79887 
12 *885:97 *885:115 44.9602 
13 *885:115 *2644:S 13.8 
14 *885:115 *885:126 7.35714 
15 *885:126 *2647:S 11.4786 
16 *885:126 *2656:S 10.6571 
17 *885:97 *2389:B 18.3261 
*END

*D_NET *886 0.00965469
*CONN
*I *2527:A I *D sky130_fd_sc_hd__nor2_1
*I *2615:A I *D sky130_fd_sc_hd__nor2_1
*I *2494:A I *D sky130_fd_sc_hd__nor2_1
*I *2626:A I *D sky130_fd_sc_hd__nor2_1
*I *2593:A I *D sky130_fd_sc_hd__nor2_1
*I *2571:A I *D sky130_fd_sc_hd__nor2_1
*I *2582:A I *D sky130_fd_sc_hd__nor2_1
*I *2560:A I *D sky130_fd_sc_hd__nor2_1
*I *2483:A I *D sky130_fd_sc_hd__nor2_1
*I *2461:A I *D sky130_fd_sc_hd__nor2_1
*I *3179:X O *D sky130_fd_sc_hd__buf_2
*CAP
1 *2527:A 0
2 *2615:A 1.45368e-05
3 *2494:A 3.61859e-05
4 *2626:A 0
5 *2593:A 1.55834e-05
6 *2571:A 0
7 *2582:A 3.41793e-05
8 *2560:A 0
9 *2483:A 2.9238e-05
10 *2461:A 0.000675453
11 *3179:X 0.000194685
12 *886:62 0.000854508
13 *886:54 0.000212428
14 *886:50 0.000428258
15 *886:46 0.00052825
16 *886:44 0.000628031
17 *886:40 0.000616474
18 *886:30 0.000431476
19 *886:18 0.000309139
20 *886:14 0.000294807
21 *2461:A *3340:A 6.21846e-05
22 *2461:A *1054:28 6.09773e-05
23 *2494:A *2641:A 0
24 *2593:A *994:18 1.92789e-05
25 *886:14 *2538:A 0.00012401
26 *886:14 *2549:A 2.59355e-05
27 *886:30 *1041:10 0.000199258
28 *886:40 *2538:A 0.000347347
29 *886:40 *2641:A 6.37237e-05
30 *886:44 *2538:A 1.02504e-05
31 *886:44 *1041:10 0
32 *886:46 *1041:10 0.000146648
33 *886:50 *1041:10 0.000195985
34 PWDATA[0] *2461:A 1.85932e-05
35 *2461:B *2461:A 0.000394975
36 *2494:B *2494:A 5.7661e-06
37 *2494:B *886:40 0.00040059
38 *2494:B *886:44 0.000605917
39 *2560:B *886:54 1.85392e-05
40 *2633:B *886:14 1.02504e-05
41 *2638:B *2461:A 3.75052e-05
42 *2638:B *886:50 3.22325e-05
43 *2638:B *886:62 0.000122213
44 *2641:B *886:18 5.33005e-05
45 *2641:B *886:30 0.000269139
46 *2794:D *886:46 4.35048e-05
47 *2801:D *886:50 0
48 *2805:D *2494:A 4.18895e-05
49 *2805:D *886:40 0.00010096
50 *2809:D *2461:A 5.52302e-05
51 *2809:D *2483:A 5.33005e-05
52 *2810:D *2494:A 1.58163e-05
53 *2810:D *886:40 3.69047e-06
54 *2813:D *886:14 3.69047e-06
55 *2813:GATE_N *886:30 0.000150625
56 *2815:D *886:14 5.20359e-06
57 *2816:D *886:54 2.24079e-05
58 *2816:D *886:62 2.89114e-05
59 *2818:D *2582:A 2.89114e-05
60 *2818:D *886:54 6.05161e-06
61 *2819:D *2593:A 5.52238e-05
62 *2821:D *886:14 6.05161e-06
63 *426:10 *2461:A 0.000125724
64 *426:10 *886:46 0
65 *426:10 *886:50 0
66 *426:10 *886:62 0.000114128
67 *551:40 *886:44 1.02504e-05
68 *551:40 *886:46 0
69 *581:10 *886:14 0.000127446
70 *631:18 *886:50 2.11419e-05
71 *661:26 *2615:A 5.7661e-06
72 *661:26 *886:14 5.33005e-05
73 *661:26 *886:18 2.42554e-05
74 *842:36 *886:50 1.55485e-05
75 *843:20 *886:30 0
76 *881:154 *886:30 7.80714e-06
*RES
1 *3179:X *886:14 21.8357 
2 *886:14 *886:18 1.78571 
3 *886:18 *886:30 14.7679 
4 *886:30 *886:40 11.6071 
5 *886:40 *886:44 9.07143 
6 *886:44 *886:46 4.98214 
7 *886:46 *886:50 11.9107 
8 *886:50 *886:54 1.375 
9 *886:54 *886:62 8.42857 
10 *886:62 *2461:A 25.3 
11 *886:62 *2483:A 14.3357 
12 *886:54 *2560:A 9.3 
13 *886:50 *2582:A 10.2643 
14 *886:46 *2571:A 13.8 
15 *886:44 *2593:A 14.3357 
16 *886:40 *2626:A 13.8 
17 *886:30 *2494:A 10.2643 
18 *886:18 *2615:A 9.72857 
19 *886:14 *2527:A 9.3 
*END

*D_NET *887 0.0249899
*CONN
*I *2702:B1 I *D sky130_fd_sc_hd__o32a_1
*I *2701:B I *D sky130_fd_sc_hd__nor2_1
*I *2767:B I *D sky130_fd_sc_hd__nand2_1
*I *2671:A2 I *D sky130_fd_sc_hd__o31a_1
*I *2505:A I *D sky130_fd_sc_hd__nor2_1
*I *2604:A I *D sky130_fd_sc_hd__nor2_1
*I *2472:A I *D sky130_fd_sc_hd__nor2_1
*I *3179:A I *D sky130_fd_sc_hd__buf_2
*I *2549:A I *D sky130_fd_sc_hd__nor2_1
*I *2538:A I *D sky130_fd_sc_hd__nor2_1
*I *3180:X O *D sky130_fd_sc_hd__buf_2
*CAP
1 *2702:B1 1.38487e-05
2 *2701:B 0
3 *2767:B 0.000550626
4 *2671:A2 5.81026e-05
5 *2505:A 0.000133361
6 *2604:A 2.75644e-05
7 *2472:A 0
8 *3179:A 0
9 *2549:A 2.17374e-05
10 *2538:A 0.000442884
11 *3180:X 0
12 *887:105 0.00291777
13 *887:99 0.00322154
14 *887:64 0.000160925
15 *887:43 2.17374e-05
16 *887:30 0.0008148
17 *887:28 0.000773433
18 *887:22 0.00170828
19 *887:12 0.00168165
20 *887:6 0.00115734
21 *2538:A *2633:A 0.000150625
22 *2538:A *1041:10 0
23 *2702:B1 *956:26 4.5539e-05
24 *2702:B1 *1048:31 1.76352e-05
25 *2767:B *2766:S 0
26 *2767:B *889:56 5.52238e-05
27 *2767:B *889:62 0.000186669
28 *2767:B *889:75 0
29 *2767:B *955:59 0.000490416
30 *887:12 *2447:C 0.000213478
31 *887:12 *954:40 0.000343946
32 *887:22 *2388:A 2.89114e-05
33 *887:22 *2447:C 0.000222878
34 *887:22 *1050:10 8.81471e-06
35 *887:99 *2679:B 1.08601e-05
36 *887:99 *954:40 1.83317e-05
37 *887:105 *3104:A 0
38 *887:105 *889:75 0
39 *2381:A *887:99 0.00104931
40 *2388:B *887:22 5.17614e-05
41 *2438:A *887:22 9.71197e-05
42 *2438:B *887:22 1.21258e-05
43 *2494:B *2538:A 1.81709e-05
44 *2505:B *2505:A 5.52302e-05
45 *2505:B *887:22 0.000161015
46 *2505:B *887:28 9.25014e-06
47 *2631:B *887:22 1.1594e-05
48 *2633:B *2538:A 4.96531e-05
49 *2671:A1 *2671:A2 1.33343e-05
50 *2671:A1 *887:12 0.000156392
51 *2671:A1 *887:99 9.94004e-05
52 *2671:A3 *2671:A2 6.37665e-05
53 *2671:B1 *2671:A2 5.71472e-05
54 *2671:B1 *887:12 0.00013257
55 *2676:B *2671:A2 3.84717e-05
56 *2701:A *2767:B 5.80706e-06
57 *2701:A *887:105 5.76014e-05
58 *2749:A4 *887:99 4.79453e-05
59 *2764:A *887:105 6.08789e-05
60 *2811:D *2505:A 2.89114e-05
61 *2813:D *2538:A 0.00012401
62 *2815:D *2549:A 1.92789e-05
63 *2820:D *2505:A 1.4966e-05
64 *2820:D *2604:A 1.92905e-05
65 *2820:D *887:28 1.3142e-05
66 *2825:D *887:22 0
67 *2828:D *887:22 0.000150618
68 *2829:GATE_N *887:105 5.92181e-05
69 *3140:A *887:28 0.000330048
70 *3165:A *2767:B 0.000145019
71 *3178:A *887:22 8.52901e-05
72 *3180:A *887:12 0
73 *3180:A *887:22 0
74 *426:10 *2538:A 5.90443e-06
75 *431:10 *887:22 0
76 *433:10 *887:22 5.74562e-05
77 *433:16 *887:22 0.000110386
78 *503:16 *887:99 0.000317265
79 *510:46 *887:105 6.20217e-05
80 *581:10 *2538:A 2.82057e-05
81 *581:10 *887:30 0.000249333
82 *671:26 *2538:A 0.00011927
83 *671:26 *887:30 0.000122062
84 *672:21 *887:12 9.41918e-05
85 *751:16 *2767:B 2.88424e-05
86 *751:22 *2767:B 5.9483e-05
87 *843:12 *887:28 4.98055e-06
88 *868:20 *2702:B1 1.02504e-05
89 *868:35 *887:99 0.000161433
90 *881:144 *887:22 0.000442785
91 *881:154 *2538:A 0.000736576
92 *881:154 *887:22 0.000355454
93 *881:154 *887:28 0.000550027
94 *881:154 *887:30 0.0010025
95 *885:32 *887:28 0
96 *885:32 *887:30 0
97 *885:97 *887:99 0.000323044
98 *885:97 *887:105 0.00059584
99 *885:115 *887:105 0.000307731
100 *886:14 *2538:A 0.00012401
101 *886:14 *2549:A 2.59355e-05
102 *886:40 *2538:A 0.000347347
103 *886:44 *2538:A 1.02504e-05
*RES
1 *3180:X *887:6 13.8 
2 *887:6 *887:12 9.39286 
3 *887:12 *887:22 35.0714 
4 *887:22 *887:28 10.9107 
5 *887:28 *887:30 12.5714 
6 *887:30 *2538:A 26.7107 
7 *887:30 *887:43 4.5 
8 *887:43 *2549:A 9.83571 
9 *887:43 *3179:A 9.3 
10 *887:28 *2472:A 13.8 
11 *887:22 *887:64 4.5 
12 *887:64 *2604:A 9.83571 
13 *887:64 *2505:A 11.925 
14 *887:12 *2671:A2 15.5857 
15 *887:6 *887:99 7.4704 
16 *887:99 *887:105 12.6681 
17 *887:105 *2767:B 26.2821 
18 *887:105 *2701:B 13.8 
19 *887:99 *2702:B1 17.7904 
*END

*D_NET *888 0.011658
*CONN
*I *2633:A I *D sky130_fd_sc_hd__nor2_1
*I *2634:A I *D sky130_fd_sc_hd__nor2_1
*I *2637:A I *D sky130_fd_sc_hd__nor2_1
*I *2629:A I *D sky130_fd_sc_hd__nor2_1
*I *2642:A I *D sky130_fd_sc_hd__nor2_1
*I *2636:A I *D sky130_fd_sc_hd__nor2_1
*I *2638:A I *D sky130_fd_sc_hd__nor2_1
*I *2627:A I *D sky130_fd_sc_hd__nor2_1
*I *2630:A I *D sky130_fd_sc_hd__nor2_1
*I *2635:A I *D sky130_fd_sc_hd__nor2_1
*I *3181:X O *D sky130_fd_sc_hd__buf_2
*CAP
1 *2633:A 0.000199165
2 *2634:A 0
3 *2637:A 5.37304e-05
4 *2629:A 0
5 *2642:A 2.23854e-05
6 *2636:A 0.000274515
7 *2638:A 5.53612e-05
8 *2627:A 0.000120159
9 *2630:A 4.59965e-05
10 *2635:A 0
11 *3181:X 0.000172805
12 *888:86 0.000425293
13 *888:78 0.000421289
14 *888:42 0.000386156
15 *888:36 0.000895556
16 *888:34 0.000610625
17 *888:21 0.000301015
18 *888:19 0.000370667
19 *888:15 0.000501884
20 *888:8 0.000195004
21 *2633:A *2641:A 0.000209204
22 *2638:A *1054:28 5.52238e-05
23 *888:8 *2641:A 6.3922e-05
24 *888:15 *2641:A 5.49489e-05
25 *888:19 *2649:A0 0.000219954
26 *888:21 *2649:A0 1.5942e-05
27 *888:34 *2482:A2 1.91317e-05
28 *888:36 *2482:A2 0.000505649
29 *888:86 *2658:A0 0.000198698
30 PWDATA[5] *2627:A 5.44215e-05
31 *2473:A1 *2636:A 5.62995e-05
32 *2474:C1 *2636:A 5.71472e-05
33 *2474:C1 *888:86 0.000173328
34 *2494:B *2633:A 8.50152e-05
35 *2538:A *2633:A 0.000150625
36 *2593:B *2630:A 9.60939e-05
37 *2593:B *888:21 1.94945e-05
38 *2629:B *888:78 0.000269422
39 *2634:B *888:19 0.000161449
40 *2634:B *888:21 5.80706e-06
41 *2642:B *888:86 0.000180764
42 *2649:A1 *2633:A 3.99614e-06
43 *2794:GATE_N *888:34 0.000200413
44 *2794:GATE_N *888:36 0.000192585
45 *2797:GATE_N *2638:A 2.44266e-05
46 *2797:GATE_N *888:42 0.000174232
47 *2802:D *2638:A 6.56118e-05
48 *2806:GATE_N *888:78 5.7661e-06
49 *2807:GATE_N *2638:A 0
50 *2813:D *2633:A 5.52238e-05
51 *3315:A *888:86 4.13496e-05
52 *77:20 *2638:A 1.74352e-05
53 *77:20 *888:42 7.48301e-06
54 *426:10 *2633:A 6.39901e-05
55 *426:10 *888:19 6.98669e-05
56 *426:10 *888:21 7.67315e-05
57 *426:10 *888:34 0.000100735
58 *427:10 *888:21 7.87026e-05
59 *427:10 *888:34 6.57431e-05
60 *427:10 *888:36 0.000138774
61 *427:10 *888:42 1.87955e-05
62 *621:20 *2637:A 9.41642e-05
63 *621:20 *888:34 0.00015134
64 *671:26 *888:19 8.23597e-06
65 *838:54 *2636:A 0.000173921
66 *880:32 *888:78 6.87811e-05
67 *880:54 *888:42 5.33005e-05
68 *880:54 *888:78 0.000200716
69 *880:62 *2627:A 0
70 *880:62 *888:42 3.17148e-05
71 *880:86 *888:36 0.000246064
72 *880:86 *888:42 2.24646e-05
73 *880:99 *888:36 0.000718444
74 *884:16 *888:86 0.000200406
75 *885:36 *888:19 0.000582445
*RES
1 *3181:X *888:8 11.8 
2 *888:8 *2635:A 9.3 
3 *888:8 *888:15 0.535714 
4 *888:15 *888:19 14.3393 
5 *888:19 *888:21 2.85714 
6 *888:21 *2630:A 14.7464 
7 *888:21 *888:34 5.51786 
8 *888:34 *888:36 14.6964 
9 *888:36 *888:42 7.82143 
10 *888:42 *2627:A 19.9429 
11 *888:42 *2638:A 11.2286 
12 *888:36 *888:78 11.0714 
13 *888:78 *888:86 14.1429 
14 *888:86 *2636:A 15.1929 
15 *888:86 *2642:A 9.72857 
16 *888:78 *2629:A 9.3 
17 *888:34 *2637:A 14.7464 
18 *888:19 *2634:A 13.8 
19 *888:15 *2633:A 23.3893 
*END

*D_NET *889 0.0214672
*CONN
*I *2767:A I *D sky130_fd_sc_hd__nand2_1
*I *3104:A I *D sky130_fd_sc_hd__clkinvlp_2
*I *2442:A I *D sky130_fd_sc_hd__inv_12
*I *2666:S I *D sky130_fd_sc_hd__mux2_1
*I *3181:A I *D sky130_fd_sc_hd__buf_2
*I *2641:A I *D sky130_fd_sc_hd__nor2_1
*I *3182:X O *D sky130_fd_sc_hd__buf_12
*CAP
1 *2767:A 0
2 *3104:A 0.0005503
3 *2442:A 0
4 *2666:S 0
5 *3181:A 0
6 *2641:A 0.000283284
7 *3182:X 0
8 *889:75 0.000908758
9 *889:62 0.000572824
10 *889:56 0.00334738
11 *889:26 0.00254201
12 *889:6 0.00539173
13 *3104:A *972:36 3.9846e-05
14 *889:26 *2515:A2 0.000158603
15 *889:26 *2632:A 1.49084e-05
16 *889:26 *932:14 0.000137622
17 *889:26 *932:22 2.11419e-05
18 *889:56 *2498:A2 0.000121188
19 *889:56 *2594:B1 0
20 *889:56 *2632:A 2.19791e-05
21 *889:56 *899:23 0
22 *889:56 *919:35 0.00044929
23 *2392:A *3104:A 5.52238e-05
24 *2392:C *3104:A 0.000266369
25 *2494:A *2641:A 0
26 *2494:B *2641:A 2.54619e-05
27 *2594:B2 *889:56 7.70385e-05
28 *2595:C1 *889:56 0
29 *2596:A1 *889:56 0
30 *2602:A *889:56 0
31 *2633:A *2641:A 0.000209204
32 *2677:A3 *3104:A 9.39045e-05
33 *2678:A *3104:A 9.77956e-05
34 *2697:A *3104:A 8.65632e-05
35 *2764:A *3104:A 0.000523238
36 *2764:D *889:62 0
37 *2764:D *889:75 0
38 *2767:B *889:56 5.52238e-05
39 *2767:B *889:62 0.000186669
40 *2767:B *889:75 0
41 *2804:D *889:26 0
42 *2804:D *889:56 0
43 *3042:D *889:56 3.39834e-06
44 *3111:A *889:56 0.00035074
45 *3136:A *889:26 1.8995e-06
46 *3165:A *889:56 4.18895e-05
47 *3165:A *889:62 0.000188586
48 *3175:A *889:75 0
49 *3205:A *889:56 0.000101601
50 *3214:A *889:56 4.8817e-05
51 *382:10 *889:26 0.000149257
52 *428:16 *2641:A 0.000142856
53 *483:8 *3104:A 1.02821e-05
54 *651:26 *889:26 1.30293e-05
55 *651:26 *889:56 0
56 *671:26 *889:26 0.000546329
57 *680:10 *3104:A 0.000239403
58 *751:16 *3104:A 3.26628e-05
59 *751:16 *889:75 7.57518e-05
60 *783:26 *3104:A 5.33005e-05
61 *783:37 *3104:A 5.82076e-05
62 *784:14 *3104:A 5.33005e-05
63 *785:14 *3104:A 0.000182694
64 *795:26 *889:56 2.09057e-05
65 *804:10 *3104:A 0.000163989
66 *813:26 *889:26 0.00126054
67 *828:18 *889:56 0
68 *829:20 *889:56 0.000708655
69 *839:16 *889:56 0.000126437
70 *870:85 *889:56 0
71 *881:31 *889:56 0
72 *881:120 *889:56 0.000472496
73 *886:40 *2641:A 6.37237e-05
74 *887:105 *3104:A 0
75 *887:105 *889:75 0
76 *888:8 *2641:A 6.3922e-05
77 *888:15 *2641:A 5.49489e-05
*RES
1 *3182:X *889:6 13.8 
2 *889:6 *889:26 25.4612 
3 *889:26 *2641:A 15.6214 
4 *889:26 *3181:A 9.3 
5 *889:6 *889:56 28.7286 
6 *889:56 *889:62 8.82143 
7 *889:62 *2666:S 13.8 
8 *889:62 *889:75 5.94643 
9 *889:75 *2442:A 13.8 
10 *889:75 *3104:A 30.675 
11 *889:56 *2767:A 9.3 
*END

*D_NET *890 0.00167273
*CONN
*I *2659:A1 I *D sky130_fd_sc_hd__mux2_1
*I *3252:X O *D sky130_fd_sc_hd__clkbuf_1
*CAP
1 *2659:A1 0.000426095
2 *3252:X 0.000426095
3 *2659:A1 *2757:A1 0.000316887
4 *2659:A1 *2759:A2 7.90375e-06
5 *2659:A1 *3327:A 0.000178412
6 *2659:A1 *1024:12 0.000204277
7 *3092:D *2659:A1 0.000113061
*RES
1 *3252:X *2659:A1 36.6893 
*END

*D_NET *891 0.0170043
*CONN
*I *2703:A1 I *D sky130_fd_sc_hd__o211a_4
*I *2750:B I *D sky130_fd_sc_hd__nor2_1
*I *2717:B1 I *D sky130_fd_sc_hd__a21oi_1
*I *2753:B1 I *D sky130_fd_sc_hd__a21o_1
*I *2756:A I *D sky130_fd_sc_hd__and2_1
*I *2696:B I *D sky130_fd_sc_hd__nor3_1
*I *2709:B1 I *D sky130_fd_sc_hd__a21oi_1
*I *2432:B I *D sky130_fd_sc_hd__nand2_1
*I *2704:B1 I *D sky130_fd_sc_hd__o2bb2a_1
*I *2762:A1 I *D sky130_fd_sc_hd__a31o_1
*I *3183:X O *D sky130_fd_sc_hd__buf_2
*CAP
1 *2703:A1 2.03441e-05
2 *2750:B 5.45696e-05
3 *2717:B1 0
4 *2753:B1 0.000260962
5 *2756:A 5.19326e-05
6 *2696:B 0.000132396
7 *2709:B1 0.000651432
8 *2432:B 2.04426e-05
9 *2704:B1 0
10 *2762:A1 0.000860233
11 *3183:X 0
12 *891:127 0.000107112
13 *891:110 0.000582298
14 *891:84 0.00027951
15 *891:80 0.000918721
16 *891:72 0.00142597
17 *891:32 0.000906932
18 *891:23 0.000723737
19 *891:6 0.0015839
20 *891:4 0.00108586
21 *2432:B *2721:A 5.33005e-05
22 *2696:B *2696:A 9.77414e-05
23 *2696:B *954:38 0.000141131
24 *2709:B1 *3235:A 0.000501833
25 *2709:B1 *957:54 4.78056e-05
26 *2709:B1 *968:24 0
27 *2709:B1 *981:18 0.000355043
28 *2709:B1 *1018:12 0
29 *2756:A *982:52 7.17235e-05
30 *891:23 *2378:A 0
31 *891:23 *2700:A2_N 4.48206e-05
32 *891:23 *982:75 0
33 *891:23 *1018:12 0
34 *891:23 *1047:8 0
35 *891:32 *2745:A1 0.000144038
36 *891:32 *2745:B1 6.8646e-06
37 *891:32 *981:18 0.000189455
38 *891:32 *1018:12 0
39 *891:32 *1047:8 0
40 *891:72 *2702:A1 0.000147995
41 *891:72 *950:80 0.000123295
42 *891:72 *1048:31 1.08359e-05
43 *891:84 *997:20 4.43698e-05
44 *891:110 *997:20 0
45 *891:110 *1050:37 0
46 *2381:A *2696:B 2.12005e-05
47 *2384:A *2762:A1 0.000138797
48 *2680:A *891:72 9.91086e-05
49 *2680:C *2756:A 7.02611e-05
50 *2703:B1 *891:72 9.71197e-05
51 *2703:C1 *891:72 6.05161e-06
52 *2710:C1 *2709:B1 1.33343e-05
53 *2717:A1 *891:80 0.000182647
54 *2717:A1 *891:110 0.000280581
55 *2718:C1 *2750:B 5.30637e-06
56 *2723:A2 *2703:A1 5.7661e-06
57 *2723:A2 *891:72 4.94726e-05
58 *2723:A2 *891:80 3.14078e-05
59 *2750:A *2753:B1 8.43932e-05
60 *2750:A *891:110 3.2006e-05
61 *2750:A *891:127 2.83786e-05
62 *2751:A1 *2753:B1 2.78608e-05
63 *2751:C1 *2750:B 0
64 *2754:A *891:110 0.000117189
65 *2754:B *2753:B1 1.00073e-05
66 *2754:B *891:110 7.80929e-05
67 *2759:B1 *2753:B1 0.00010096
68 *2762:A2 *2762:A1 0.000331501
69 *3100:A *2762:A1 0.000706531
70 *3100:A *891:6 0.000269428
71 *3101:A *891:6 8.46829e-05
72 *3233:A *891:72 0.000682951
73 *3251:A *2753:B1 5.33005e-05
74 *3274:A *2709:B1 3.34295e-05
75 *3277:A *2709:B1 0.00010096
76 *3299:A *2709:B1 0
77 *3365:A *2432:B 2.59355e-05
78 *115:26 *2753:B1 0
79 *115:34 *2753:B1 3.481e-05
80 *471:20 *2762:A1 0
81 *472:14 *891:23 3.57163e-05
82 *475:38 *2762:A1 7.79446e-05
83 *501:8 *891:72 7.6644e-05
84 *501:17 *891:23 0
85 *504:12 *2696:B 0.000118585
86 *672:43 *2696:B 0.000240797
87 *672:43 *2756:A 5.33005e-05
88 *672:43 *891:84 3.17148e-05
89 *674:30 *891:80 0.000357279
90 *675:10 *891:80 5.52238e-05
91 *701:34 *891:72 5.74499e-06
92 *730:25 *891:32 6.74815e-05
93 *739:10 *2756:A 1.56e-05
94 *739:10 *891:84 0
95 *739:10 *891:110 0.000105696
96 *770:10 *891:72 3.92757e-05
97 *772:43 *891:80 2.07491e-05
98 *772:43 *891:110 3.14078e-05
99 *788:16 *891:110 3.34366e-05
100 *788:16 *891:127 0.000116332
101 *868:20 *891:72 5.34742e-05
102 *882:25 *891:127 1.78536e-05
*RES
1 *3183:X *891:4 9.3 
2 *891:4 *891:6 3.41071 
3 *891:6 *2762:A1 32.2464 
4 *891:6 *891:23 12.5179 
5 *891:23 *2704:B1 13.8 
6 *891:23 *891:32 5.28571 
7 *891:32 *2432:B 14.3357 
8 *891:32 *2709:B1 27.9786 
9 *891:4 *891:72 32.0893 
10 *891:72 *891:80 9.32143 
11 *891:80 *891:84 6.44643 
12 *891:84 *2696:B 18.3179 
13 *891:84 *2756:A 15.5679 
14 *891:80 *891:110 12.5714 
15 *891:110 *2753:B1 18.5857 
16 *891:110 *891:127 6.14286 
17 *891:127 *2717:B1 9.3 
18 *891:127 *2750:B 10.2643 
19 *891:72 *2703:A1 9.72857 
*END

*D_NET *892 0.0319613
*CONN
*I *2530:B1 I *D sky130_fd_sc_hd__a22o_1
*I *2539:B1 I *D sky130_fd_sc_hd__a22o_1
*I *2584:B1 I *D sky130_fd_sc_hd__a221o_1
*I *2550:B1 I *D sky130_fd_sc_hd__a22o_1
*I *2473:B1 I *D sky130_fd_sc_hd__a22o_1
*I *2485:B1 I *D sky130_fd_sc_hd__a221o_1
*I *2564:B1 I *D sky130_fd_sc_hd__a221o_1
*I *2575:B1 I *D sky130_fd_sc_hd__a221o_1
*I *2454:B1 I *D sky130_fd_sc_hd__a221o_1
*I *2468:B1 I *D sky130_fd_sc_hd__a221o_1
*I *3184:X O *D sky130_fd_sc_hd__clkbuf_4
*CAP
1 *2530:B1 0
2 *2539:B1 0.000287707
3 *2584:B1 8.1561e-05
4 *2550:B1 1.1624e-05
5 *2473:B1 0.0010623
6 *2485:B1 0.000372122
7 *2564:B1 0.000152243
8 *2575:B1 8.49089e-05
9 *2454:B1 0.000225385
10 *2468:B1 0.000217461
11 *3184:X 0
12 *892:121 0.00191528
13 *892:105 0.00191016
14 *892:88 0.00151596
15 *892:86 0.0017286
16 *892:49 0.0010371
17 *892:43 0.00110521
18 *892:39 0.00195906
19 *892:33 0.00234982
20 *892:4 0.00211867
21 *2454:B1 *2453:A2 0
22 *2454:B1 *2475:B1 5.80706e-06
23 *2454:B1 *898:50 0.000169867
24 *2468:B1 *2598:B1 1.90936e-05
25 *2468:B1 *936:20 3.07101e-05
26 *2468:B1 *936:24 1.59145e-05
27 *2473:B1 *2473:A2 5.80706e-06
28 *2485:B1 *896:92 1.96517e-05
29 *2485:B1 *896:98 6.55592e-05
30 *2564:B1 *2564:A2 3.75052e-05
31 *2564:B1 *898:31 1.19402e-05
32 *2564:B1 *898:50 0.000228558
33 *2575:B1 *916:50 6.2198e-05
34 *2584:B1 *916:103 2.59089e-05
35 *2584:B1 *916:111 0
36 *892:33 *2585:B1 0
37 *892:33 *898:20 0
38 *892:33 *922:47 9.15466e-05
39 *892:39 *2531:A2 4.11175e-05
40 *892:39 *2531:B1 4.35881e-05
41 *892:43 *898:31 0
42 *892:49 *898:50 0.000637065
43 *892:86 *2484:A2 0.000481568
44 *892:86 *2531:A2 0.000243771
45 *892:86 *916:95 0.000235891
46 *892:86 *918:21 0.000654896
47 *892:88 *898:118 0
48 *892:121 *2550:A2 5.11007e-05
49 *892:121 *2551:B1 3.22745e-05
50 *892:121 *896:48 5.37102e-05
51 *892:121 *896:50 0.000363248
52 *892:121 *932:49 0.000353106
53 *2454:B2 *2454:B1 9.25014e-06
54 *2454:C1 *2454:B1 3.98694e-05
55 *2465:B2 *892:33 1.83266e-05
56 *2473:B2 *2473:B1 5.80706e-06
57 *2474:C1 *2473:B1 0
58 *2485:A1 *2485:B1 1.82896e-05
59 *2485:B2 *2485:B1 0
60 *2492:A *2564:B1 0
61 *2492:A *892:49 0.00019384
62 *2493:B1 *2485:B1 0.000120506
63 *2530:A1 *892:33 1.02504e-05
64 *2530:A1 *892:39 0.000341632
65 *2531:A1 *892:43 1.19309e-05
66 *2531:B2 *892:39 0.000137223
67 *2531:C1 *892:43 0
68 *2540:A1 *2539:B1 5.71472e-05
69 *2540:C1 *2539:B1 5.71472e-05
70 *2550:A1 *2473:B1 0.000102315
71 *2550:B2 *2473:B1 0.000177815
72 *2550:B2 *892:121 9.25014e-06
73 *2551:B2 *892:121 0.00012553
74 *2551:C1 *892:121 0.000120267
75 *2564:A1 *2564:B1 1.02504e-05
76 *2564:A1 *892:49 0
77 *2575:B2 *2575:B1 3.04785e-05
78 *2575:B2 *892:49 0.000108478
79 *2575:C1 *2575:B1 5.52238e-05
80 *2581:A1 *892:121 0.000146063
81 *2584:B2 *2584:B1 1.38106e-05
82 *2584:B2 *892:105 3.30237e-05
83 *2585:B2 *892:33 0.000156776
84 *2800:GATE_N *2473:B1 2.95726e-05
85 *2806:D *2473:B1 0
86 *2833:D *2485:B1 0.000123295
87 *2833:D *892:88 4.56437e-05
88 *2879:D *892:33 0.000167626
89 *2891:D *892:33 0.000194052
90 *2891:GATE_N *892:33 4.70078e-05
91 *2900:GATE_N *892:33 4.13477e-05
92 *2932:GATE_N *892:33 0.000309465
93 *2937:GATE_N *892:49 0
94 *2938:GATE_N *892:33 0
95 *2944:GATE_N *892:121 8.32242e-05
96 *2948:GATE_N *892:33 0
97 *3035:GATE_N *892:33 0.000209647
98 *3041:D *892:105 0.000435839
99 *3066:GATE_N *892:33 0.00011586
100 *3067:D *892:33 0.000213201
101 *3079:D *2473:B1 1.15281e-05
102 *3079:GATE_N *2473:B1 5.52238e-05
103 *3082:D *892:105 0.000181879
104 *3154:A *2550:B1 5.52238e-05
105 *3174:A *2473:B1 0.000178051
106 *3185:A *2468:B1 8.86413e-05
107 *3185:A *892:33 5.52302e-05
108 *3196:A *2468:B1 0
109 *3304:A *892:33 9.60939e-05
110 *499:18 *892:33 8.6229e-06
111 *551:22 *892:121 0.000147833
112 *585:24 *892:43 1.90936e-05
113 *590:24 *2564:B1 6.38036e-05
114 *631:18 *892:121 2.75651e-06
115 *805:34 *892:39 4.38567e-05
116 *805:148 *892:105 2.90655e-05
117 *805:148 *892:121 0
118 *807:22 *892:43 0
119 *809:20 *2539:B1 0.000350588
120 *809:20 *892:88 7.80096e-05
121 *822:117 *892:121 0.000714294
122 *822:176 *892:49 0
123 *825:61 *2454:B1 0
124 *829:69 *2485:B1 0.000113038
125 *829:69 *2539:B1 0.000354523
126 *829:69 *892:88 0.000307986
127 *829:73 *2485:B1 0.000177227
128 *831:18 *892:33 5.31113e-05
129 *831:22 *892:33 0.000293419
130 *831:28 *892:33 0.000105513
131 *831:28 *892:39 0.000343346
132 *834:66 *892:33 0.000236623
133 *838:70 *2550:B1 5.52238e-05
134 *840:44 *892:33 0.000243142
135 *851:20 *2539:B1 5.31541e-05
136 *851:20 *892:105 6.71755e-05
137 *854:25 *892:49 0.00017309
138 *854:42 *892:49 4.73656e-05
139 *856:60 *2485:B1 3.64727e-05
140 *859:56 *892:121 8.32171e-05
141 *859:69 *2473:B1 0
142 *864:10 *892:33 0
143 *866:39 *892:33 4.05247e-05
144 *874:20 *2473:B1 1.40131e-05
145 *875:10 *892:33 0
146 *875:81 *892:33 0
147 *876:21 *892:33 0.000574482
148 *880:23 *2473:B1 0.00015235
149 *881:79 *2473:B1 1.3701e-05
150 *884:16 *2473:B1 0
*RES
1 *3184:X *892:4 9.3 
2 *892:4 *2468:B1 21.4071 
3 *892:4 *892:33 46.9107 
4 *892:33 *892:39 13.5179 
5 *892:39 *892:43 8.26786 
6 *892:43 *892:49 15.3571 
7 *892:49 *2454:B1 18.4786 
8 *892:49 *2575:B1 15.5679 
9 *892:43 *2564:B1 26.925 
10 *892:39 *892:86 22.2857 
11 *892:86 *892:88 4.07143 
12 *892:88 *2485:B1 21.4786 
13 *892:88 *892:105 17.3571 
14 *892:105 *892:121 27.5536 
15 *892:121 *2473:B1 38.9607 
16 *892:121 *2550:B1 14.3357 
17 *892:105 *2584:B1 10.675 
18 *892:86 *2539:B1 21.8893 
19 *892:33 *2530:B1 13.8 
*END

*D_NET *893 0.0227149
*CONN
*I *2496:B1 I *D sky130_fd_sc_hd__a22o_1
*I *2518:B1 I *D sky130_fd_sc_hd__a221o_1
*I *2606:B1 I *D sky130_fd_sc_hd__a221o_1
*I *2619:B1 I *D sky130_fd_sc_hd__a221o_1
*I *2506:B1 I *D sky130_fd_sc_hd__a22o_1
*I *2425:B I *D sky130_fd_sc_hd__nand2_1
*I *2598:B1 I *D sky130_fd_sc_hd__a221o_1
*I *3185:X O *D sky130_fd_sc_hd__buf_2
*CAP
1 *2496:B1 0
2 *2518:B1 0.000473911
3 *2606:B1 0.000428717
4 *2619:B1 0.000199758
5 *2506:B1 0.000854798
6 *2425:B 0
7 *2598:B1 0.000227285
8 *3185:X 6.43687e-05
9 *893:114 0.00118657
10 *893:97 0.00107822
11 *893:63 0.000891723
12 *893:59 0.00163225
13 *893:37 0.00213288
14 *893:12 0.00142371
15 *2506:B1 *2506:A2 5.33005e-05
16 *2506:B1 *917:73 0
17 *2598:B1 *930:20 0
18 *2598:B1 *936:18 2.16719e-05
19 *2598:B1 *936:20 5.67079e-05
20 *2606:B1 *2606:A2 1.89507e-06
21 *2606:B1 *898:161 0
22 *893:12 *936:20 9.60337e-06
23 *893:37 *895:40 0.00177362
24 *893:37 *912:10 0.000139485
25 *893:59 *2405:B 0.000496444
26 *893:59 *2496:A2 2.59355e-05
27 *893:63 *915:48 8.49755e-06
28 *893:97 *2409:B 0.00011746
29 *893:97 *915:48 0.000170381
30 *2468:B1 *2598:B1 1.90936e-05
31 *2496:B2 *893:37 0.000222666
32 *2504:B1 *893:59 3.13687e-05
33 *2504:B2 *893:59 2.89016e-05
34 *2518:A1 *2518:B1 0.00018831
35 *2518:B2 *2518:B1 0.00011938
36 *2526:B2 *2518:B1 3.39935e-05
37 *2598:A1 *2598:B1 1.02504e-05
38 *2614:B1 *2606:B1 0
39 *2619:B2 *2619:B1 3.04785e-05
40 *2619:C1 *2619:B1 4.60282e-05
41 *2899:GATE_N *893:97 0.000368814
42 *2911:GATE_N *893:37 0.000777911
43 *2914:GATE_N *893:59 0
44 *2916:D *2518:B1 0.000187282
45 *2916:GATE_N *2518:B1 0.000186669
46 *2941:GATE_N *893:97 7.83587e-05
47 *3044:GATE_N *2606:B1 3.38136e-05
48 *3060:GATE_N *2606:B1 0.000220441
49 *3076:GATE_N *2606:B1 0.000161693
50 *3083:GATE_N *893:12 0.000258131
51 *3083:GATE_N *893:37 0.00126351
52 *3106:A *893:59 4.86178e-05
53 *3106:A *893:97 9.60337e-06
54 *3107:A *2506:B1 0.000226088
55 *3111:A *2506:B1 6.57026e-05
56 *3111:A *893:59 4.54637e-05
57 *3112:A *2506:B1 0
58 *3127:A *893:59 5.4528e-05
59 *3138:A *893:59 1.27324e-05
60 *3196:A *2598:B1 1.33434e-05
61 *3196:A *893:12 0.000249244
62 *3196:A *893:37 0.000162407
63 *3201:A *893:37 4.08637e-05
64 *441:31 *2606:B1 0
65 *492:14 *893:37 0.000270917
66 *496:16 *893:12 1.21955e-05
67 *499:18 *893:37 0.000266479
68 *500:10 *2598:B1 0
69 *580:20 *2518:B1 5.73015e-05
70 *580:20 *2619:B1 0.000440435
71 *580:20 *893:114 0.000189337
72 *651:26 *893:59 9.43675e-06
73 *806:14 *893:59 2.72228e-05
74 *806:48 *893:63 1.94054e-05
75 *806:48 *893:97 0.000214002
76 *806:50 *2619:B1 5.83304e-05
77 *806:50 *893:97 0.000321779
78 *808:20 *2506:B1 0.00027174
79 *808:54 *893:59 0.00024888
80 *810:14 *2506:B1 0.00030574
81 *810:16 *2506:B1 9.82592e-05
82 *810:84 *893:59 8.17274e-05
83 *810:106 *893:59 0.000367241
84 *811:20 *2619:B1 0
85 *811:20 *893:97 0
86 *830:20 *893:37 6.30931e-05
87 *834:66 *893:37 6.46173e-05
88 *840:10 *893:59 6.90348e-06
89 *849:87 *893:37 5.47001e-05
90 *849:98 *893:37 8.36572e-05
91 *865:6 *2518:B1 3.37041e-05
92 *866:35 *893:37 0.000268017
93 *866:35 *893:59 5.74499e-06
94 *866:39 *893:37 0.000209133
*RES
1 *3185:X *893:12 17.8941 
2 *893:12 *2598:B1 20.8261 
3 *893:12 *893:37 32.8945 
4 *893:37 *893:59 23.5258 
5 *893:59 *893:63 5.08036 
6 *893:63 *2425:B 9.3 
7 *893:63 *2506:B1 33.5321 
8 *893:59 *893:97 15.1339 
9 *893:97 *2619:B1 19.1929 
10 *893:97 *893:114 9.55357 
11 *893:114 *2606:B1 26.8536 
12 *893:114 *2518:B1 18.8714 
13 *893:37 *2496:B1 9.3 
*END

*D_NET *894 0.0235162
*CONN
*I *2528:B1 I *D sky130_fd_sc_hd__a22o_1
*I *2562:B1 I *D sky130_fd_sc_hd__a221o_1
*I *2546:B1 I *D sky130_fd_sc_hd__a22o_1
*I *2608:B1 I *D sky130_fd_sc_hd__a221o_1
*I *2487:B1 I *D sky130_fd_sc_hd__a221o_1
*I *2551:B1 I *D sky130_fd_sc_hd__a221o_1
*I *2451:B1 I *D sky130_fd_sc_hd__a22o_1
*I *2476:B1 I *D sky130_fd_sc_hd__a221o_1
*I *2574:B1 I *D sky130_fd_sc_hd__a22o_1
*I *2586:B1 I *D sky130_fd_sc_hd__a221o_1
*I *3186:X O *D sky130_fd_sc_hd__clkbuf_4
*CAP
1 *2528:B1 0
2 *2562:B1 0.000658721
3 *2546:B1 2.23854e-05
4 *2608:B1 0
5 *2487:B1 0
6 *2551:B1 0.000628683
7 *2451:B1 2.88281e-05
8 *2476:B1 9.02601e-05
9 *2574:B1 0.000130264
10 *2586:B1 0.000321392
11 *3186:X 0
12 *894:142 0.00137807
13 *894:127 0.00160991
14 *894:112 0.0022905
15 *894:69 0.00126
16 *894:50 0.00133241
17 *894:37 0.00109432
18 *894:29 0.000828113
19 *894:21 0.00196161
20 *894:4 0.000356965
21 *2451:B1 *2451:A2 5.04841e-06
22 *2476:B1 *2476:A2 3.10819e-05
23 *2551:B1 *2451:A2 0.000174361
24 *2551:B1 *2452:B1 8.54097e-05
25 *2551:B1 *2473:A2 1.37319e-05
26 *2551:B1 *2550:A2 7.33708e-05
27 *2551:B1 *2559:A2 0.000219711
28 *2551:B1 *911:92 1.97387e-05
29 *2562:B1 *2529:B1 9.7659e-05
30 *2562:B1 *2561:B1 0
31 *2562:B1 *2562:A2 2.59355e-05
32 *2562:B1 *916:111 3.75052e-05
33 *2562:B1 *994:18 1.67389e-05
34 *2574:B1 *2574:A2 5.52238e-05
35 *2586:B1 *2586:A2 0.000117508
36 *894:29 *914:95 0.000469255
37 *894:29 *918:109 1.5381e-05
38 *894:37 *2486:B1 1.59689e-05
39 *894:37 *916:32 0
40 *894:50 *2553:B1 0.000362524
41 *894:112 *2540:A2 6.25848e-05
42 *894:112 *2608:A2 0.00016182
43 *894:112 *914:118 0.000232208
44 *894:112 *914:151 0.000387439
45 *894:127 *2605:A2 4.38604e-05
46 *894:127 *914:151 0.000137042
47 *894:142 *2561:B1 4.46186e-06
48 *894:142 *914:157 0
49 *2451:B2 *2451:B1 1.49785e-05
50 *2451:B2 *894:69 2.23628e-05
51 *2452:C1 *2551:B1 0.00014285
52 *2476:A1 *2476:B1 0.000147325
53 *2476:A1 *894:69 5.33005e-05
54 *2476:B2 *2476:B1 0
55 *2486:B2 *894:37 0.000121573
56 *2487:A1 *894:37 0.000148196
57 *2487:B2 *894:37 0.000107432
58 *2528:A1 *2562:B1 0
59 *2528:B2 *2562:B1 4.78056e-05
60 *2528:B2 *894:142 5.80706e-06
61 *2529:C1 *2562:B1 0.00018372
62 *2546:B2 *894:127 2.22999e-05
63 *2546:B2 *894:142 5.53417e-05
64 *2547:C1 *894:142 3.28802e-05
65 *2551:B2 *2551:B1 0.000110001
66 *2553:B2 *2476:B1 3.0305e-05
67 *2553:B2 *894:50 5.99053e-05
68 *2562:B2 *2562:B1 6.00341e-05
69 *2562:C1 *2562:B1 6.05161e-06
70 *2581:A1 *2551:B1 0.000119506
71 *2606:C1 *894:127 8.6229e-06
72 *2607:B2 *894:112 0.000185432
73 *2608:A1 *894:112 2.2549e-05
74 *2608:A1 *894:127 0.00022459
75 *2608:B2 *894:127 3.04785e-05
76 *2613:A *894:112 1.61703e-05
77 *2614:A1 *894:127 0.000130544
78 *3030:D *894:29 0
79 *3030:GATE_N *894:29 0
80 *3040:GATE_N *2562:B1 0.000145724
81 *3046:GATE_N *894:142 4.43698e-05
82 *3054:D *894:69 3.14048e-05
83 *3054:GATE_N *894:69 6.09889e-05
84 *3084:D *894:127 0.00026546
85 *3145:A *2586:B1 9.56491e-05
86 *3156:A *894:142 6.05161e-06
87 *3202:A *2586:B1 9.56491e-05
88 *389:10 *2476:B1 9.15621e-06
89 *389:10 *894:50 0.000283981
90 *631:18 *2551:B1 0.000259549
91 *811:20 *894:127 0.000109139
92 *811:36 *894:29 0
93 *822:49 *894:112 0
94 *825:41 *894:29 0.000967154
95 *825:43 *894:37 0.00043094
96 *827:44 *894:127 2.13481e-06
97 *838:34 *2562:B1 0.000105465
98 *838:34 *894:142 0
99 *838:40 *2562:B1 0.000307098
100 *847:125 *2586:B1 0.000144768
101 *847:125 *894:21 2.84026e-05
102 *847:125 *894:112 9.7659e-05
103 *847:131 *894:112 5.22592e-05
104 *848:16 *894:112 1.32552e-05
105 *848:27 *894:112 3.65069e-05
106 *854:42 *2574:B1 8.40933e-05
107 *854:42 *894:50 0.000398683
108 *858:15 *2551:B1 4.55244e-05
109 *858:15 *894:69 5.90208e-05
110 *860:16 *894:142 0
111 *860:34 *894:127 0.000112418
112 *872:12 *894:29 0.000189908
113 *872:12 *894:37 3.34366e-05
114 *892:121 *2551:B1 3.22745e-05
*RES
1 *3186:X *894:4 9.3 
2 *894:4 *2586:B1 23.5857 
3 *894:4 *894:21 0.535714 
4 *894:21 *894:29 18.9464 
5 *894:29 *894:37 13.1786 
6 *894:37 *2574:B1 11.4786 
7 *894:37 *894:50 19.0179 
8 *894:50 *2476:B1 16.05 
9 *894:50 *894:69 13 
10 *894:69 *2451:B1 10.0321 
11 *894:69 *2551:B1 32.0143 
12 *894:29 *2487:B1 13.8 
13 *894:21 *894:112 30.6964 
14 *894:112 *2608:B1 9.3 
15 *894:112 *894:127 25.2143 
16 *894:127 *2546:B1 9.72857 
17 *894:127 *894:142 18.8393 
18 *894:142 *2562:B1 33.0857 
19 *894:142 *2528:B1 9.3 
*END

*D_NET *895 0.0189079
*CONN
*I *2423:B I *D sky130_fd_sc_hd__nand2_1
*I *2506:A2 I *D sky130_fd_sc_hd__a22o_1
*I *2617:B1 I *D sky130_fd_sc_hd__a221o_1
*I *2517:B1 I *D sky130_fd_sc_hd__a22o_1
*I *2496:A2 I *D sky130_fd_sc_hd__a22o_1
*I *2600:B1 I *D sky130_fd_sc_hd__a22o_1
*I *2467:B1 I *D sky130_fd_sc_hd__a22o_1
*I *3187:X O *D sky130_fd_sc_hd__clkbuf_2
*CAP
1 *2423:B 0
2 *2506:A2 0.000494197
3 *2617:B1 0.000107332
4 *2517:B1 0.000457728
5 *2496:A2 0.000160712
6 *2600:B1 0.000143172
7 *2467:B1 9.73992e-05
8 *3187:X 0
9 *895:81 0.000924289
10 *895:71 0.00154482
11 *895:63 0.00144792
12 *895:40 0.00247596
13 *895:8 0.000428522
14 *895:4 0.00174666
15 *2467:B1 *922:27 0.000142725
16 *2517:B1 *898:161 0.000279902
17 *2600:B1 *2600:A2 5.33005e-05
18 *2600:B1 *922:16 4.08637e-05
19 *2600:B1 *922:27 3.17148e-05
20 *2617:B1 *917:90 5.01795e-05
21 *895:81 *898:161 8.0089e-05
22 *895:81 *962:10 5.80706e-06
23 *2405:A *895:63 0.00022266
24 *2425:A *895:63 2.59355e-05
25 *2503:C *895:40 0.000187258
26 *2504:B1 *2496:A2 9.25014e-06
27 *2506:B1 *2506:A2 5.33005e-05
28 *2506:B2 *2506:A2 0.000259744
29 *2509:C1 *895:81 7.48301e-06
30 *2517:B2 *2517:B1 0.000181359
31 *2600:A1 *2600:B1 5.52302e-05
32 *2600:A1 *895:8 1.54952e-05
33 *2617:B2 *2617:B1 2.85551e-05
34 *2617:C1 *2617:B1 5.33005e-05
35 *2859:GATE_N *2467:B1 8.36987e-05
36 *2859:GATE_N *895:8 6.93424e-05
37 *2915:D *895:81 3.69047e-06
38 *2915:GATE_N *895:81 2.14658e-05
39 *2950:GATE_N *2517:B1 0.000948715
40 *3058:D *2496:A2 0
41 *3058:D *895:63 8.18868e-05
42 *3059:D *2506:A2 3.42121e-05
43 *3074:D *895:40 1.64583e-05
44 *3074:GATE_N *2496:A2 6.24939e-05
45 *3105:A *895:81 2.77258e-05
46 *3109:A *895:63 0.000158233
47 *3109:A *895:71 5.35475e-05
48 *3122:A *895:71 9.58181e-05
49 *3123:A *895:71 0.000549828
50 *3129:A *2496:A2 0.000234241
51 *3138:A *895:63 2.40354e-05
52 *3162:A *895:71 5.52238e-05
53 *3209:A *2600:B1 0.000180777
54 *440:8 *895:63 5.52302e-05
55 *448:8 *895:63 5.33005e-05
56 *449:24 *895:71 9.54798e-06
57 *499:38 *2600:B1 6.57603e-05
58 *499:38 *895:8 0.000123812
59 *806:48 *895:63 0.000167781
60 *806:48 *895:71 5.20298e-05
61 *808:54 *895:63 1.8366e-05
62 *808:78 *2600:B1 7.48301e-06
63 *808:78 *895:40 1.76096e-05
64 *808:78 *895:63 0.000101791
65 *810:22 *2506:A2 0
66 *810:22 *895:81 0
67 *810:106 *2496:A2 5.33005e-05
68 *823:8 *895:71 7.33786e-06
69 *823:51 *895:71 2.95726e-05
70 *823:68 *2517:B1 0.000157368
71 *823:68 *895:81 0.000168939
72 *826:12 *2496:A2 0
73 *828:60 *2506:A2 0.00074297
74 *828:60 *895:81 0.000141447
75 *828:70 *895:81 2.89114e-05
76 *839:75 *895:81 2.49484e-05
77 *840:10 *895:63 1.57414e-05
78 *849:31 *2600:B1 0
79 *849:31 *895:8 2.04825e-05
80 *849:35 *895:8 3.99093e-05
81 *866:8 *2506:A2 8.15939e-05
82 *866:19 *2506:A2 8.0716e-05
83 *867:28 *2506:A2 1.95625e-05
84 *867:28 *895:71 2.14757e-05
85 *867:28 *895:81 5.45686e-05
86 *869:35 *895:40 4.35421e-05
87 *881:39 *895:40 0.000188965
88 *893:37 *895:40 0.00177362
89 *893:59 *2496:A2 2.59355e-05
*RES
1 *3187:X *895:4 9.3 
2 *895:4 *895:8 8.41964 
3 *895:8 *2467:B1 16.2018 
4 *895:8 *2600:B1 17.3982 
5 *895:4 *895:40 31.5179 
6 *895:40 *2496:A2 21.9964 
7 *895:40 *895:63 17.2857 
8 *895:63 *895:71 18.4821 
9 *895:71 *895:81 15.9821 
10 *895:81 *2517:B1 28.1929 
11 *895:81 *2617:B1 15.5679 
12 *895:71 *2506:A2 25.7286 
13 *895:63 *2423:B 13.8 
*END

*D_NET *896 0.0229902
*CONN
*I *2546:A2 I *D sky130_fd_sc_hd__a22o_1
*I *2529:B1 I *D sky130_fd_sc_hd__a221o_1
*I *2572:B1 I *D sky130_fd_sc_hd__a22o_1
*I *2485:A2 I *D sky130_fd_sc_hd__a221o_1
*I *2553:B1 I *D sky130_fd_sc_hd__a221o_1
*I *2563:B1 I *D sky130_fd_sc_hd__a22o_1
*I *2474:B1 I *D sky130_fd_sc_hd__a221o_1
*I *2452:B1 I *D sky130_fd_sc_hd__a221o_1
*I *2583:B1 I *D sky130_fd_sc_hd__a22o_1
*I *2607:B1 I *D sky130_fd_sc_hd__a22o_1
*I *3188:X O *D sky130_fd_sc_hd__clkbuf_4
*CAP
1 *2546:A2 0.00024645
2 *2529:B1 0.000358999
3 *2572:B1 0
4 *2485:A2 0
5 *2553:B1 0.000347557
6 *2563:B1 3.43197e-05
7 *2474:B1 0.00143844
8 *2452:B1 0.000419712
9 *2583:B1 0
10 *2607:B1 9.41259e-05
11 *3188:X 0.000446519
12 *896:98 0.000586402
13 *896:92 0.000960397
14 *896:82 0.000941322
15 *896:50 0.00227892
16 *896:48 0.00108036
17 *896:44 0.00094936
18 *896:40 0.000643441
19 *896:33 0.000508412
20 *896:12 0.000768288
21 *2452:B1 *2559:A2 5.62962e-05
22 *2452:B1 *2573:A2 0.000114363
23 *2452:B1 *911:92 0.000559931
24 *2474:B1 *2473:A2 2.4613e-05
25 *2474:B1 *2559:A2 0.000513585
26 *2474:B1 *2649:A0 2.97387e-05
27 *2474:B1 *1013:12 6.5919e-05
28 *2529:B1 *2529:A2 0.00115503
29 *2529:B1 *914:157 0.000137983
30 *2553:B1 *2486:B1 2.8266e-06
31 *2553:B1 *918:29 0
32 *896:33 *2605:A2 0
33 *896:33 *911:54 0
34 *896:40 *2529:A2 5.52238e-05
35 *896:40 *911:159 4.43256e-05
36 *896:44 *2605:A2 0.000114838
37 *896:48 *2605:A2 7.59771e-05
38 *896:48 *932:49 0.000636865
39 *2452:B2 *2452:B1 2.85616e-05
40 *2482:A1 *2474:B1 3.14163e-05
41 *2485:B1 *896:92 1.96517e-05
42 *2485:B1 *896:98 6.55592e-05
43 *2485:B2 *896:98 3.04785e-05
44 *2529:B2 *2529:B1 6.93579e-05
45 *2529:C1 *2529:B1 3.80195e-05
46 *2546:A1 *2546:A2 0.000156054
47 *2551:A1 *896:50 8.90232e-05
48 *2551:B1 *2452:B1 8.54097e-05
49 *2551:B2 *2452:B1 9.21765e-05
50 *2551:B2 *896:50 6.81083e-05
51 *2551:C1 *2452:B1 1.18064e-05
52 *2553:B2 *2553:B1 4.46186e-06
53 *2562:B1 *2529:B1 9.7659e-05
54 *2563:A1 *2563:B1 3.05411e-05
55 *2563:B2 *2563:B1 1.33343e-05
56 *2563:B2 *896:98 5.71472e-05
57 *2584:A1 *896:48 0.000337637
58 *2584:C1 *896:40 5.37963e-05
59 *2592:A1 *896:48 5.84267e-05
60 *2607:A1 *2607:B1 5.58941e-05
61 *2607:A1 *896:12 4.57473e-05
62 *2607:B2 *2607:B1 3.07555e-05
63 *2607:B2 *896:12 0
64 *2608:B2 *896:12 0.000144896
65 *2608:C1 *896:12 5.75874e-05
66 *2608:C1 *896:33 0.00010096
67 *2639:B *896:48 2.94555e-05
68 *2639:B *896:50 0
69 *2832:D *2474:B1 8.20176e-05
70 *2841:D *2452:B1 5.68722e-05
71 *2844:D *896:33 0
72 *2844:GATE_N *896:33 1.76039e-05
73 *2922:GATE_N *896:12 0
74 *2922:GATE_N *896:33 0
75 *2924:D *896:12 0
76 *2924:GATE_N *896:12 0
77 *2936:GATE_N *896:48 6.20277e-05
78 *3031:GATE_N *896:50 2.56219e-05
79 *3036:GATE_N *896:12 0.000486053
80 *3126:A *896:12 0
81 *3126:A *896:33 5.83233e-05
82 *3153:A *2563:B1 0
83 *3154:A *2452:B1 0.000101545
84 *3154:A *896:50 7.83659e-05
85 *389:10 *2553:B1 6.35303e-05
86 *428:16 *2474:B1 0.000149421
87 *641:10 *896:48 6.8089e-05
88 *811:20 *2529:B1 0.000184745
89 *811:20 *896:44 0
90 *811:20 *896:48 0
91 *825:18 *896:12 6.57026e-05
92 *825:130 *2546:A2 1.78447e-05
93 *825:130 *896:48 0
94 *827:8 *896:33 9.87672e-05
95 *827:44 *896:33 0.000125997
96 *827:48 *2546:A2 7.50601e-05
97 *827:62 *896:50 3.92757e-05
98 *838:54 *2474:B1 8.55687e-05
99 *855:113 *2563:B1 2.88255e-05
100 *855:113 *896:50 9.47456e-05
101 *855:113 *896:82 0.000345257
102 *855:113 *896:92 3.56253e-05
103 *855:113 *896:98 0.000245789
104 *856:60 *896:48 2.06178e-05
105 *856:60 *896:92 0.000935508
106 *856:60 *896:98 7.90536e-05
107 *859:56 *896:50 8.15095e-05
108 *859:67 *896:50 1.69115e-05
109 *860:34 *2546:A2 0.000224583
110 *860:34 *2607:B1 0.000139907
111 *860:34 *896:33 0.00029276
112 *860:34 *896:44 1.19309e-05
113 *863:38 *2529:B1 8.56752e-05
114 *865:59 *896:12 1.58163e-05
115 *874:24 *2474:B1 1.92905e-05
116 *892:121 *896:48 5.37102e-05
117 *892:121 *896:50 0.000363248
118 *894:50 *2553:B1 0.000362524
*RES
1 *3188:X *896:12 27.4607 
2 *896:12 *2607:B1 20.3893 
3 *896:12 *896:33 15.375 
4 *896:33 *2583:B1 9.3 
5 *896:33 *896:40 4.64286 
6 *896:40 *896:44 7.35714 
7 *896:44 *896:48 13.1071 
8 *896:48 *896:50 11.3571 
9 *896:50 *2452:B1 24.3 
10 *896:50 *2474:B1 41.7107 
11 *896:48 *896:82 8.33929 
12 *896:82 *896:92 11.9018 
13 *896:92 *896:98 5.8125 
14 *896:98 *2563:B1 10.3893 
15 *896:98 *2553:B1 25.8357 
16 *896:92 *2485:A2 9.3 
17 *896:82 *2572:B1 9.3 
18 *896:44 *2529:B1 25.8714 
19 *896:40 *2546:A2 23.6571 
*END

*D_NET *897 0.0195755
*CONN
*I *2507:B1 I *D sky130_fd_sc_hd__a221o_1
*I *2497:B1 I *D sky130_fd_sc_hd__a22o_1
*I *2421:B I *D sky130_fd_sc_hd__nand2_1
*I *2517:A2 I *D sky130_fd_sc_hd__a22o_1
*I *2618:B1 I *D sky130_fd_sc_hd__a22o_1
*I *2463:B1 I *D sky130_fd_sc_hd__a22o_1
*I *2595:B1 I *D sky130_fd_sc_hd__a221o_1
*I *3189:X O *D sky130_fd_sc_hd__clkbuf_2
*CAP
1 *2507:B1 0.000628629
2 *2497:B1 3.22337e-05
3 *2421:B 1.69531e-05
4 *2517:A2 0.00149029
5 *2618:B1 0
6 *2463:B1 0.000240263
7 *2595:B1 0.000142983
8 *3189:X 0
9 *897:97 0.00101858
10 *897:47 0.000436283
11 *897:45 0.0021621
12 *897:31 0.00068623
13 *897:29 0.00148519
14 *897:4 0.00107697
15 *2463:B1 *2520:A2 4.72818e-05
16 *2463:B1 *919:51 0.000786348
17 *2463:B1 *933:24 8.31093e-05
18 *2497:B1 *915:48 5.4826e-05
19 *2507:B1 *898:161 0.000276414
20 *2507:B1 *917:62 9.70295e-05
21 *2507:B1 *917:73 6.87146e-05
22 *2595:B1 *917:8 0.000142392
23 *2595:B1 *917:34 4.05152e-05
24 *2595:B1 *919:35 0
25 *897:29 *2498:A2 6.52124e-05
26 *897:29 *917:8 0.000297849
27 *897:29 *917:62 7.48301e-06
28 *897:47 *2618:A2 5.33005e-05
29 *897:47 *915:81 0.000135442
30 *897:97 *917:62 0.000526407
31 *2405:A *2421:B 5.33005e-05
32 *2409:A *897:31 8.6229e-06
33 *2409:A *897:45 0.00015936
34 *2423:A *897:45 0.000139913
35 *2503:B *897:29 2.13481e-06
36 *2506:A1 *2507:B1 2.28499e-05
37 *2507:A1 *2507:B1 9.41642e-05
38 *2507:B2 *2507:B1 1.28809e-05
39 *2509:A1 *897:45 0.000118545
40 *2595:A1 *2595:B1 5.5474e-05
41 *2619:A1 *897:47 0.000139478
42 *2899:GATE_N *2517:A2 0.000113073
43 *2930:GATE_N *897:29 4.27437e-05
44 *2950:GATE_N *2517:A2 0.000716533
45 *3042:D *897:29 9.11541e-06
46 *3059:D *2507:B1 5.33005e-05
47 *3059:GATE_N *2507:B1 5.52302e-05
48 *3069:GATE_N *2517:A2 5.41494e-05
49 *3111:A *897:29 1.04707e-05
50 *3111:A *897:31 0.000398021
51 *3111:A *897:45 7.25293e-05
52 *3112:A *2507:B1 4.48128e-06
53 *3126:A *897:45 0.000787169
54 *3138:A *2421:B 5.33005e-05
55 *3205:A *2595:B1 0.000144773
56 *3205:A *897:29 0.000224577
57 *441:31 *2497:B1 1.72079e-05
58 *448:28 *897:45 0.00072792
59 *580:20 *2463:B1 0.000874878
60 *808:14 *2507:B1 0.000171459
61 *808:20 *2507:B1 8.25843e-06
62 *811:10 *2507:B1 2.00038e-05
63 *812:36 *2463:B1 0.000171029
64 *823:8 *897:45 0.000137983
65 *828:60 *897:29 0
66 *830:90 *2517:A2 3.93346e-05
67 *830:90 *897:45 0
68 *838:28 *2517:A2 0.000358407
69 *841:21 *897:29 0.000190275
70 *841:21 *897:31 0.000398021
71 *844:6 *2517:A2 0.000161859
72 *869:66 *897:29 0.000604776
73 *869:106 *897:29 4.8843e-05
*RES
1 *3189:X *897:4 9.3 
2 *897:4 *2595:B1 21.3357 
3 *897:4 *897:29 20.0536 
4 *897:29 *897:31 5.58929 
5 *897:31 *897:45 27.9821 
6 *897:45 *897:47 3.82143 
7 *897:47 *2463:B1 29.3179 
8 *897:47 *2618:B1 9.3 
9 *897:45 *2517:A2 42.9964 
10 *897:31 *2421:B 14.3357 
11 *897:29 *897:97 9.55357 
12 *897:97 *2497:B1 19.0321 
13 *897:97 *2507:B1 22.8893 
*END

*D_NET *898 0.0364387
*CONN
*I *2507:A2 I *D sky130_fd_sc_hd__a221o_1
*I *2539:A2 I *D sky130_fd_sc_hd__a22o_1
*I *2572:A2 I *D sky130_fd_sc_hd__a22o_1
*I *2550:A2 I *D sky130_fd_sc_hd__a22o_1
*I *2484:B1 I *D sky130_fd_sc_hd__a22o_1
*I *2585:B1 I *D sky130_fd_sc_hd__a22o_1
*I *2454:A2 I *D sky130_fd_sc_hd__a221o_1
*I *2475:B1 I *D sky130_fd_sc_hd__a22o_1
*I *2564:A2 I *D sky130_fd_sc_hd__a221o_1
*I *2530:A2 I *D sky130_fd_sc_hd__a22o_1
*I *3190:X O *D sky130_fd_sc_hd__clkbuf_4
*CAP
1 *2507:A2 0
2 *2539:A2 0
3 *2572:A2 0
4 *2550:A2 0.000508645
5 *2484:B1 0.000114359
6 *2585:B1 7.32546e-05
7 *2454:A2 5.6217e-06
8 *2475:B1 0.000589043
9 *2564:A2 8.40188e-05
10 *2530:A2 2.36895e-05
11 *3190:X 5.51596e-05
12 *898:161 0.00227305
13 *898:118 0.00200537
14 *898:95 0.00180895
15 *898:93 0.000413874
16 *898:89 0.00299538
17 *898:50 0.00152231
18 *898:31 0.00133497
19 *898:20 0.000650287
20 *898:14 0.000522192
21 *898:10 0.000707123
22 *2475:B1 *2654:A0 0.000363848
23 *2475:B1 *2654:A1 9.21965e-05
24 *2550:A2 *1003:14 6.04795e-05
25 *898:118 *911:72 0
26 *898:118 *1003:14 7.4667e-05
27 *898:161 *914:157 0
28 *2454:A1 *2475:B1 0.000136358
29 *2454:B1 *2475:B1 5.80706e-06
30 *2454:B1 *898:50 0.000169867
31 *2454:B2 *2475:B1 4.97121e-06
32 *2460:B2 *2475:B1 0.000467873
33 *2482:B2 *2475:B1 0.000493994
34 *2484:A1 *2484:B1 1.02504e-05
35 *2484:A1 *898:118 3.10049e-05
36 *2485:B2 *898:118 7.83659e-05
37 *2485:C1 *898:118 0.000267807
38 *2506:A1 *898:161 0.000183726
39 *2507:B1 *898:161 0.000276414
40 *2507:B2 *898:161 1.28809e-05
41 *2517:B1 *898:161 0.000279902
42 *2517:B2 *898:161 0.000183674
43 *2530:A1 *898:31 0.000185519
44 *2531:B2 *898:31 0.000100831
45 *2531:C1 *898:31 0.000311165
46 *2539:A1 *898:95 0.000150618
47 *2540:A1 *898:93 0.000330112
48 *2540:B2 *898:93 7.08364e-05
49 *2540:C1 *898:93 6.21805e-05
50 *2545:C *898:14 0.000384077
51 *2545:C *898:89 0.00131086
52 *2545:C *898:93 4.99283e-06
53 *2548:B1 *898:161 0.000550233
54 *2550:A1 *2550:A2 4.46186e-06
55 *2551:B1 *2550:A2 7.33708e-05
56 *2564:A1 *2564:A2 4.46186e-06
57 *2564:B1 *2564:A2 3.75052e-05
58 *2564:B1 *898:31 1.19402e-05
59 *2564:B1 *898:50 0.000228558
60 *2564:B2 *2564:A2 6.67533e-05
61 *2572:A1 *2550:A2 0.000146992
62 *2581:A1 *2550:A2 2.70725e-06
63 *2585:A1 *2585:B1 0.00010377
64 *2586:C1 *2585:B1 1.07753e-05
65 *2586:C1 *898:20 2.75651e-06
66 *2606:B1 *898:161 0
67 *2613:A *898:14 0.000125508
68 *2613:A *898:89 0.000189566
69 *2614:B1 *898:161 3.92757e-05
70 *2639:B *2550:A2 0.000865301
71 *2833:GATE_N *898:118 0.000928002
72 *2842:D *898:118 0
73 *2844:GATE_N *898:161 0.000211771
74 *2906:GATE_N *898:20 4.01768e-05
75 *2913:GATE_N *2564:A2 3.52408e-05
76 *2916:GATE_N *898:161 0
77 *2926:D *2454:A2 7.13226e-06
78 *2938:D *898:20 0.000359542
79 *2938:GATE_N *2585:B1 1.12323e-05
80 *2938:GATE_N *898:20 0.000143671
81 *2944:GATE_N *2550:A2 3.10821e-05
82 *2950:GATE_N *898:161 0
83 *3044:GATE_N *898:161 0
84 *3076:GATE_N *898:161 0
85 *3105:A *898:161 0.000447951
86 *3151:A *2475:B1 3.83768e-05
87 *3154:A *2550:A2 5.52302e-05
88 *3202:A *898:10 5.6467e-05
89 *377:12 *2475:B1 0.000157454
90 *377:12 *898:50 0.000959248
91 *590:24 *898:50 1.6539e-05
92 *631:18 *2550:A2 4.23907e-05
93 *635:20 *2530:A2 5.52238e-05
94 *635:20 *898:20 0.000272371
95 *805:148 *2550:A2 0.000428013
96 *805:148 *898:118 0.000426414
97 *807:18 *898:10 5.6467e-05
98 *807:22 *898:50 7.98206e-05
99 *807:115 *898:161 0.00184832
100 *808:14 *898:161 2.87302e-05
101 *809:20 *898:93 0
102 *809:20 *898:95 0
103 *809:20 *898:118 0
104 *822:117 *2550:A2 4.3419e-05
105 *823:68 *898:161 3.01927e-05
106 *825:18 *898:89 2.86613e-05
107 *825:18 *898:161 0.000115842
108 *825:51 *2454:A2 1.46576e-05
109 *828:60 *898:161 0.000124088
110 *830:35 *898:89 0.000312103
111 *830:71 *898:89 0.000251377
112 *830:71 *898:161 0.00161036
113 *831:28 *2564:A2 0
114 *831:28 *898:31 0
115 *838:70 *2550:A2 3.18676e-05
116 *838:105 *898:118 0.000356209
117 *839:75 *898:161 0.000954356
118 *844:10 *898:161 1.31511e-05
119 *844:101 *898:161 2.63703e-05
120 *852:16 *898:20 9.25014e-06
121 *852:16 *898:31 0
122 *854:25 *898:50 0.00017309
123 *854:42 *898:50 5.58941e-05
124 *861:14 *898:161 7.97829e-05
125 *861:79 *898:161 4.38243e-05
126 *872:24 *898:50 0.000224236
127 *872:62 *898:118 4.43256e-05
128 *881:57 *2484:B1 6.71264e-05
129 *881:57 *898:93 1.50087e-05
130 *881:57 *898:95 5.18797e-05
131 *892:33 *2585:B1 0
132 *892:33 *898:20 0
133 *892:43 *898:31 0
134 *892:49 *898:50 0.000637065
135 *892:88 *898:118 0
136 *892:121 *2550:A2 5.11007e-05
137 *895:81 *898:161 8.0089e-05
*RES
1 *3190:X *898:10 18.7011 
2 *898:10 *898:14 4.03353 
3 *898:14 *898:20 12.2232 
4 *898:20 *2530:A2 9.83571 
5 *898:20 *898:31 12.8214 
6 *898:31 *2564:A2 15.7732 
7 *898:31 *898:50 31.7679 
8 *898:50 *2475:B1 29.5006 
9 *898:50 *2454:A2 13.9473 
10 *898:14 *2585:B1 15.5946 
11 *898:10 *898:89 2.28107 
12 *898:89 *898:93 8.54393 
13 *898:93 *898:95 4.22321 
14 *898:95 *2484:B1 15.6304 
15 *898:95 *898:118 33.1161 
16 *898:118 *2550:A2 29.0321 
17 *898:118 *2572:A2 13.8 
18 *898:93 *2539:A2 13.8 
19 *898:89 *898:161 47.3639 
20 *898:161 *2507:A2 9.3 
*END

*D_NET *899 0.0203707
*CONN
*I *2419:B I *D sky130_fd_sc_hd__nand2_1
*I *2495:B1 I *D sky130_fd_sc_hd__a22o_1
*I *2467:A2 I *D sky130_fd_sc_hd__a22o_1
*I *2618:A2 I *D sky130_fd_sc_hd__a22o_1
*I *2605:B1 I *D sky130_fd_sc_hd__a22o_1
*I *2520:B1 I *D sky130_fd_sc_hd__a221o_1
*I *2596:B1 I *D sky130_fd_sc_hd__a22o_1
*I *3191:X O *D sky130_fd_sc_hd__clkbuf_2
*CAP
1 *2419:B 0.00121212
2 *2495:B1 8.39605e-05
3 *2467:A2 0
4 *2618:A2 2.86933e-05
5 *2605:B1 0.000461132
6 *2520:B1 0.000126252
7 *2596:B1 8.13034e-05
8 *3191:X 0.000116583
9 *899:85 0.00166866
10 *899:52 0.00147969
11 *899:33 0.00134793
12 *899:29 0.00123213
13 *899:23 0.00144202
14 *899:6 0.000267016
15 *2419:B *2648:A0 0.000243219
16 *2419:B *919:29 3.66402e-05
17 *2495:B1 *919:29 6.8646e-06
18 *2520:B1 *2520:A2 1.58163e-05
19 *2605:B1 *919:49 3.93777e-05
20 *2605:B1 *933:24 0.00029711
21 *2618:A2 *915:81 5.33005e-05
22 *2618:A2 *919:49 7.69776e-06
23 *2618:A2 *933:24 1.04707e-05
24 *899:29 *2519:B1 0.000145876
25 *899:29 *912:10 0.000158977
26 *899:29 *912:12 0.000237493
27 *899:29 *920:26 0.000105824
28 *899:29 *929:83 4.19535e-05
29 *899:33 *922:27 0.000382573
30 *899:33 *922:47 7.46506e-05
31 *2466:A1 *2520:B1 1.62539e-05
32 *2466:A1 *899:33 6.40929e-05
33 *2495:A1 *2495:B1 0
34 *2495:B2 *2495:B1 5.13222e-05
35 *2495:B2 *899:85 0.00014285
36 *2594:A1 *899:85 0.000268396
37 *2596:A1 *2596:B1 5.59013e-05
38 *2596:A1 *899:23 0.000190155
39 *2596:A1 *899:29 0.00010326
40 *2602:A *899:23 9.24395e-05
41 *2602:A *899:29 0.000236571
42 *2602:C *899:29 4.35646e-05
43 *2619:C1 *2605:B1 7.72966e-05
44 *2624:A *2605:B1 2.60158e-05
45 *2624:A *899:52 0.00140839
46 *2831:GATE_N *899:29 0
47 *2866:D *899:85 0.000401764
48 *2866:GATE_N *899:85 8.53281e-05
49 *2911:GATE_N *899:29 9.60337e-06
50 *2939:GATE_N *899:29 0.000116147
51 *2943:GATE_N *2520:B1 7.55747e-05
52 *3036:GATE_N *2605:B1 6.27272e-06
53 *3112:A *2419:B 5.31101e-05
54 *3113:A *2419:B 0.000189448
55 *3125:A *2419:B 9.68236e-05
56 *3126:A *2605:B1 0
57 *3128:A *2419:B 0.000148165
58 *3190:A *899:29 0
59 *3191:A *2596:B1 1.87955e-05
60 *3203:A *2596:B1 9.41642e-05
61 *3203:A *899:6 0.000274294
62 *3205:A *899:29 6.52967e-05
63 *499:38 *2520:B1 0.000108353
64 *499:38 *899:33 0.000594719
65 *812:36 *2605:B1 0
66 *826:10 *2419:B 6.62761e-05
67 *828:18 *899:29 6.2153e-05
68 *830:20 *899:29 0.000559509
69 *844:20 *899:52 0.00256665
70 *865:59 *2605:B1 0.000258072
71 *869:10 *2419:B 3.20153e-05
72 *869:19 *2419:B 8.37335e-05
73 *869:19 *899:85 0.000129515
74 *869:29 *2419:B 3.97657e-05
75 *881:31 *2495:B1 0
76 *889:56 *899:23 0
77 *897:47 *2618:A2 5.33005e-05
*RES
1 *3191:X *899:6 11.8893 
2 *899:6 *2596:B1 19.9786 
3 *899:6 *899:23 7.05357 
4 *899:23 *899:29 26.4821 
5 *899:29 *899:33 12.3661 
6 *899:33 *2520:B1 16.2554 
7 *899:33 *899:52 10.9027 
8 *899:52 *2605:B1 23.5768 
9 *899:52 *2618:A2 14.6125 
10 *899:29 *2467:A2 9.3 
11 *899:23 *899:85 18.1607 
12 *899:85 *2495:B1 15.4429 
13 *899:85 *2419:B 41.3893 
*END

*D_NET *900 0.0219567
*CONN
*I *2590:A2 I *D sky130_fd_sc_hd__a211o_1
*I *2544:A2 I *D sky130_fd_sc_hd__a211o_1
*I *2533:B1 I *D sky130_fd_sc_hd__a221o_1
*I *2576:B1 I *D sky130_fd_sc_hd__a22o_1
*I *2554:B1 I *D sky130_fd_sc_hd__a22o_1
*I *2455:B1 I *D sky130_fd_sc_hd__a22o_1
*I *2480:A2 I *D sky130_fd_sc_hd__a211o_1
*I *2565:B1 I *D sky130_fd_sc_hd__a22o_1
*I *2489:B1 I *D sky130_fd_sc_hd__a221o_1
*I *2612:A2 I *D sky130_fd_sc_hd__a211o_1
*I *3192:X O *D sky130_fd_sc_hd__clkbuf_4
*CAP
1 *2590:A2 0
2 *2544:A2 0.000166661
3 *2533:B1 0.000524186
4 *2576:B1 0.000178982
5 *2554:B1 0.000236277
6 *2455:B1 0.000816846
7 *2480:A2 0
8 *2565:B1 0.000567564
9 *2489:B1 0.000290335
10 *2612:A2 1.41579e-05
11 *3192:X 0.000122963
12 *900:81 0.000816846
13 *900:79 0.000715768
14 *900:71 0.000782493
15 *900:52 0.00117895
16 *900:48 0.00141432
17 *900:42 0.000786072
18 *900:38 0.000555838
19 *900:21 0.000954247
20 *900:6 0.000461838
21 *2455:B1 *2455:A2 1.03037e-05
22 *2455:B1 *2456:A2 1.46576e-05
23 *2489:B1 *2611:B1 0.000103974
24 *2489:B1 *921:26 0.000226508
25 *2489:B1 *923:26 0.000212769
26 *2533:B1 *2587:A2 0.000100831
27 *2533:B1 *923:80 9.25014e-06
28 *2544:A2 *904:22 0.000142093
29 *2544:A2 *906:93 5.52302e-05
30 *2554:B1 *2554:A2 8.68261e-05
31 *2554:B1 *904:91 0.000619649
32 *2554:B1 *923:63 2.11419e-05
33 *2554:B1 *928:63 0.000716674
34 *2565:B1 *2565:A2 0.000136676
35 *2576:B1 *2576:A2 5.7661e-06
36 *900:6 *934:6 1.21289e-05
37 *900:6 *937:12 0.000142856
38 *900:21 *2611:B1 0.000112323
39 *900:21 *2612:C1 5.33072e-05
40 *900:21 *921:26 0.00010687
41 *900:21 *923:16 2.16719e-05
42 *900:21 *923:26 5.67225e-05
43 *900:38 *934:22 0.000317082
44 *900:42 *934:22 8.11273e-05
45 *900:48 *908:34 0
46 *900:52 *904:53 8.0089e-05
47 *900:52 *908:34 0
48 *900:52 *908:62 0
49 *900:52 *908:68 0
50 *900:52 *908:83 0.000362538
51 *900:79 *2480:C1 0
52 *900:79 *908:83 7.34634e-05
53 *900:79 *908:125 4.37485e-06
54 *2455:A1 *2455:B1 1.58163e-05
55 *2456:A1 *2455:B1 8.706e-05
56 *2456:B2 *2455:B1 1.28809e-05
57 *2456:C1 *2455:B1 0.000306338
58 *2459:A *2554:B1 6.41996e-05
59 *2459:B *2455:B1 6.03385e-05
60 *2459:C *900:79 0.000117457
61 *2480:A1 *900:79 1.02504e-05
62 *2481:A *900:79 4.51691e-05
63 *2481:B *900:79 0.000364967
64 *2481:C *2455:B1 9.90367e-05
65 *2481:C *900:79 8.43431e-05
66 *2489:A1 *2489:B1 1.02504e-05
67 *2542:B2 *2544:A2 0.00014576
68 *2544:A1 *2544:A2 4.46186e-06
69 *2545:C *2544:A2 6.2589e-06
70 *2554:B2 *2554:B1 5.52302e-05
71 *2565:A1 *2565:B1 2.36643e-05
72 *2569:B *900:52 0.000197984
73 *2569:C *900:52 0.000125724
74 *2576:B2 *2576:B1 7.15665e-05
75 *2576:B2 *900:71 0
76 *2579:B1 *2554:B1 5.71472e-05
77 *2591:C *900:38 1.39726e-05
78 *2611:B2 *900:38 0.000180764
79 *2612:A1 *2612:A2 3.57366e-05
80 *2612:A1 *900:21 9.71197e-05
81 *2612:B1 *900:21 0.000140852
82 *2613:C *900:6 0.000271352
83 *2855:GATE_N *2554:B1 4.64488e-06
84 *2965:D *900:52 0.000117144
85 *2972:GATE_N *900:38 0.000229456
86 *2972:GATE_N *900:42 1.04232e-05
87 *2977:GATE_N *900:79 0.000160498
88 *2983:GATE_N *900:79 9.14882e-05
89 *3002:D *900:48 0.000121573
90 *3002:D *900:52 5.54183e-05
91 *3002:GATE_N *2533:B1 5.06983e-05
92 *3017:D *900:79 9.24491e-05
93 *3192:A *2612:A2 0
94 *3192:A *900:6 0.000149489
95 *3192:A *900:21 1.02936e-05
96 *585:24 *2489:B1 0
97 *615:12 *900:52 2.49484e-05
98 *620:18 *900:52 0
99 *635:20 *900:38 0.000479645
100 *805:42 *2489:B1 0.000170519
101 *814:37 *2544:A2 5.52302e-05
102 *814:45 *2544:A2 1.80947e-05
103 *814:72 *2565:B1 8.25843e-06
104 *814:72 *2576:B1 0.00018359
105 *814:72 *900:71 4.58031e-05
106 *814:80 *2565:B1 0.00117673
107 *814:110 *900:52 8.07879e-05
108 *814:116 *900:52 3.34366e-05
109 *816:20 *900:48 0
110 *816:38 *2455:B1 0.000183445
111 *816:44 *2455:B1 4.4873e-05
112 *818:56 *900:79 4.00025e-05
113 *820:20 *2533:B1 0.000100831
114 *820:104 *900:38 1.02821e-05
115 *820:104 *900:42 0.000212512
116 *820:104 *900:48 0.000235174
117 *831:53 *900:52 4.98055e-06
118 *847:125 *900:21 2.97041e-05
119 *851:53 *2544:A2 9.88679e-05
120 *851:57 *2544:A2 0.000176234
121 *853:65 *900:79 0
122 *862:79 *900:48 4.33438e-05
123 *862:79 *900:52 0.000143009
124 *862:81 *900:52 8.5896e-05
*RES
1 *3192:X *900:6 13.5321 
2 *900:6 *2612:A2 9.72857 
3 *900:6 *900:21 11.5714 
4 *900:21 *2489:B1 22.1214 
5 *900:21 *900:38 13.8036 
6 *900:38 *900:42 4.66071 
7 *900:42 *900:48 12.8036 
8 *900:48 *900:52 17.9821 
9 *900:52 *2565:B1 22.6214 
10 *900:52 *900:71 2.32143 
11 *900:71 *900:79 17.125 
12 *900:79 *900:81 4.5 
13 *900:81 *2480:A2 9.3 
14 *900:81 *2455:B1 23.1571 
15 *900:79 *2554:B1 23.7926 
16 *900:71 *2576:B1 14.1036 
17 *900:48 *2533:B1 29.6036 
18 *900:42 *2544:A2 24.1214 
19 *900:38 *2590:A2 9.3 
*END

*D_NET *901 0.00150996
*CONN
*I *2653:A1 I *D sky130_fd_sc_hd__mux2_1
*I *3253:X O *D sky130_fd_sc_hd__clkbuf_1
*CAP
1 *2653:A1 0.000330028
2 *3253:X 0.000330028
3 *2653:A1 *2653:A0 1.81709e-05
4 *2653:A1 *2657:A0 0.000249156
5 *2454:B2 *2653:A1 0.000307016
6 *2657:S *2653:A1 0.000136475
7 *515:34 *2653:A1 5.33005e-05
8 *884:65 *2653:A1 2.59355e-05
9 *884:71 *2653:A1 5.98502e-05
*RES
1 *3253:X *2653:A1 35.5821 
*END

*D_NET *902 0.00316164
*CONN
*I *2759:A1 I *D sky130_fd_sc_hd__a221o_1
*I *3254:X O *D sky130_fd_sc_hd__clkbuf_1
*CAP
1 *2759:A1 0.000965831
2 *3254:X 0.000965831
3 *2759:A1 *2759:A2 2.46133e-05
4 *2759:A1 *2759:B2 0.000158981
5 *2759:A1 *3322:A 0.000153136
6 *2759:A1 *1047:123 6.60826e-05
7 PADDR[1] *2759:A1 5.52238e-05
8 arready *2759:A1 0
9 *2444:A *2759:A1 0.00026367
10 *2753:A2 *2759:A1 4.34249e-05
11 *2758:B *2759:A1 3.51442e-05
12 *2759:B1 *2759:A1 2.27189e-05
13 *2759:C1 *2759:A1 5.33005e-05
14 *2760:B2 *2759:A1 5.7704e-05
15 *3267:A *2759:A1 0
16 *3278:A *2759:A1 0
17 *115:22 *2759:A1 0.000100831
18 *116:57 *2759:A1 0.000195144
*RES
1 *3254:X *2759:A1 45.1357 
*END

*D_NET *903 0.0168538
*CONN
*I *2597:B1 I *D sky130_fd_sc_hd__a22o_1
*I *2417:B I *D sky130_fd_sc_hd__nand2_1
*I *2512:B1 I *D sky130_fd_sc_hd__a22o_1
*I *2502:A2 I *D sky130_fd_sc_hd__a211o_1
*I *2462:B1 I *D sky130_fd_sc_hd__a22o_1
*I *2622:B1 I *D sky130_fd_sc_hd__a22o_1
*I *2521:B1 I *D sky130_fd_sc_hd__a22o_1
*I *3193:X O *D sky130_fd_sc_hd__clkbuf_2
*CAP
1 *2597:B1 1.29868e-05
2 *2417:B 8.79334e-05
3 *2512:B1 0.000570369
4 *2502:A2 0
5 *2462:B1 0.000639116
6 *2622:B1 1.40355e-05
7 *2521:B1 0.00118745
8 *3193:X 0.000138971
9 *903:102 0.000753263
10 *903:91 0.00037637
11 *903:28 0.00140488
12 *903:24 0.00137443
13 *903:18 0.00133181
14 *903:12 0.000670443
15 *2417:B *2413:B 1.28786e-05
16 *2462:B1 *2462:A2 0.000440587
17 *2462:B1 *2622:A2 2.04825e-05
18 *2462:B1 *2623:C1 1.90936e-05
19 *2462:B1 *906:20 2.06112e-05
20 *2512:B1 *2512:A2 0.000269628
21 *2521:B1 *2521:A2 8.1579e-05
22 *2597:B1 *2597:A2 1.04232e-05
23 *903:12 *2597:A2 5.76599e-05
24 *903:12 *3211:A 5.23057e-05
25 *903:18 *2500:A2 4.06782e-05
26 *903:18 *2597:A2 0.000324215
27 *903:18 *3211:A 8.25843e-06
28 *903:18 *907:12 0.000524656
29 *903:24 *2500:A2 8.10007e-05
30 *903:24 *907:12 5.41794e-05
31 *903:24 *909:28 6.09256e-05
32 *903:24 *909:30 0.000131714
33 *903:91 *907:12 1.98839e-05
34 *903:91 *907:14 0.00015851
35 *903:102 *904:16 7.60306e-05
36 *903:102 *907:48 0
37 *2415:A *2417:B 5.52238e-05
38 *2462:B2 *2462:B1 4.43256e-05
39 *2500:A1 *903:91 3.5748e-06
40 *2501:A1 *2512:B1 0.000232399
41 *2502:A1 *903:102 1.02504e-05
42 *2502:C1 *903:91 0
43 *2512:A1 *2512:B1 2.07878e-05
44 *2513:B1 *2512:B1 9.47028e-05
45 *2514:A *2462:B1 0.00033475
46 *2599:B1 *903:12 5.52238e-05
47 *2622:A1 *2622:B1 2.89114e-05
48 *2850:D *2512:B1 5.33005e-05
49 *2850:D *903:102 0
50 *2852:GATE_N *2521:B1 0.000288564
51 *2991:GATE_N *903:18 0
52 *3007:D *2462:B1 5.52302e-05
53 *3007:GATE_N *2462:B1 3.63775e-05
54 *3007:GATE_N *903:24 7.49615e-05
55 *3019:D *903:18 8.04913e-05
56 *3116:A *2521:B1 0.000265243
57 *3116:A *903:28 0.000507976
58 *3121:A *903:91 5.52238e-05
59 *3132:A *2521:B1 0.000617525
60 *3135:A *2512:B1 0.000402784
61 *3209:A *2462:B1 0.000137983
62 *445:8 *2417:B 0.000118753
63 *570:18 *2462:B1 0.000337324
64 *819:23 *903:28 0.000172233
65 *821:6 *903:91 0.00022266
66 *821:10 *903:24 0.000380666
67 *832:33 *2521:B1 0.000114551
68 *832:33 *903:28 0.00017333
69 *832:37 *2521:B1 8.07951e-05
70 *834:44 *2622:B1 5.52302e-05
71 *837:27 *2512:B1 7.36029e-05
72 *840:87 *2417:B 4.61579e-05
73 *844:28 *2521:B1 0.000280871
74 *850:61 *903:18 5.08788e-05
75 *875:34 *2462:B1 0.000263524
*RES
1 *3193:X *903:12 12.4607 
2 *903:12 *903:18 15.6071 
3 *903:18 *903:24 17.125 
4 *903:24 *903:28 11.3036 
5 *903:28 *2521:B1 34.1214 
6 *903:28 *2622:B1 14.3357 
7 *903:24 *2462:B1 35.9215 
8 *903:18 *903:91 10.2857 
9 *903:91 *2502:A2 9.3 
10 *903:91 *903:102 10.9464 
11 *903:102 *2512:B1 22.2107 
12 *903:102 *2417:B 11.9205 
13 *903:12 *2597:B1 9.72857 
*END

*D_NET *904 0.0250059
*CONN
*I *2500:B1 I *D sky130_fd_sc_hd__a22o_1
*I *2542:B1 I *D sky130_fd_sc_hd__a22o_1
*I *2589:B1 I *D sky130_fd_sc_hd__a22o_1
*I *2535:A2 I *D sky130_fd_sc_hd__a211o_1
*I *2491:A2 I *D sky130_fd_sc_hd__a211o_1
*I *2554:A2 I *D sky130_fd_sc_hd__a22o_1
*I *2578:B1 I *D sky130_fd_sc_hd__a22o_1
*I *2479:B1 I *D sky130_fd_sc_hd__a22o_1
*I *2455:A2 I *D sky130_fd_sc_hd__a22o_1
*I *2568:A2 I *D sky130_fd_sc_hd__a211o_1
*I *3194:X O *D sky130_fd_sc_hd__clkbuf_4
*CAP
1 *2500:B1 0
2 *2542:B1 6.57158e-05
3 *2589:B1 1.16062e-05
4 *2535:A2 0
5 *2491:A2 0.000936392
6 *2554:A2 0.000166919
7 *2578:B1 7.9328e-05
8 *2479:B1 0
9 *2455:A2 0.000691526
10 *2568:A2 4.78438e-05
11 *3194:X 0.00036204
12 *904:91 0.000694529
13 *904:61 0.000912817
14 *904:53 0.0011037
15 *904:38 0.000950155
16 *904:28 0.00160505
17 *904:24 0.000350394
18 *904:22 0.000909899
19 *904:16 0.00178113
20 *904:10 0.00132908
21 *2491:A2 *2490:A2 1.21289e-05
22 *2491:A2 *2491:C1 0.000158587
23 *2554:A2 *2556:A2 6.19349e-05
24 *2554:A2 *928:59 2.78763e-05
25 *2554:A2 *928:63 9.55016e-05
26 *2568:A2 *2568:C1 4.27438e-05
27 *2578:B1 *923:63 1.90936e-05
28 *2589:B1 *908:28 5.52302e-05
29 *904:10 *925:33 2.6949e-05
30 *904:16 *2415:B 6.95112e-05
31 *904:16 *2609:B1 5.74562e-05
32 *904:22 *908:28 6.84279e-06
33 *904:22 *908:34 0
34 *904:24 *908:28 4.46689e-05
35 *904:24 *908:62 0
36 *904:28 *2534:A2 0.00012401
37 *904:28 *908:68 0
38 *904:38 *2568:C1 0.000431217
39 *904:38 *908:68 0.000105273
40 *904:38 *908:83 0
41 *904:53 *2456:B1 8.00842e-05
42 *904:61 *2456:A2 3.54188e-05
43 *904:61 *2456:B1 6.95627e-05
44 *904:61 *2479:A2 0.000121336
45 *904:91 *928:63 0.000172449
46 *2455:A1 *2455:A2 3.50166e-05
47 *2455:B1 *2455:A2 1.03037e-05
48 *2456:A1 *904:61 0
49 *2456:C1 *2455:A2 5.49489e-05
50 *2459:A *2578:B1 1.58163e-05
51 *2479:A1 *904:61 0.000100474
52 *2479:B2 *904:61 7.08622e-05
53 *2481:A *904:91 2.86703e-05
54 *2482:B2 *2554:A2 0.000386095
55 *2482:B2 *904:91 0.000532209
56 *2489:B2 *2491:A2 7.77751e-05
57 *2491:B1 *2491:A2 7.9277e-05
58 *2492:A *2491:A2 0
59 *2500:A1 *904:10 2.31791e-05
60 *2500:A1 *904:16 0.000150625
61 *2502:A1 *904:16 3.11166e-05
62 *2535:B1 *904:28 2.16719e-05
63 *2536:B *904:24 0
64 *2542:A1 *2542:B1 6.54691e-05
65 *2542:B2 *904:16 3.34366e-05
66 *2542:B2 *904:22 0.000493772
67 *2544:A2 *904:22 0.000142093
68 *2554:A1 *2554:A2 1.02504e-05
69 *2554:B1 *2554:A2 8.68261e-05
70 *2554:B1 *904:91 0.000619649
71 *2568:A1 *2568:A2 3.57366e-05
72 *2578:B2 *2578:B1 1.73088e-05
73 *2589:A1 *2589:B1 5.52302e-05
74 *2589:A1 *904:22 8.80644e-05
75 *2860:GATE_N *2542:B1 7.32272e-05
76 *2966:D *904:16 0
77 *2966:D *904:22 0
78 *2967:GATE_N *2554:A2 2.49299e-05
79 *3006:GATE_N *2455:A2 0.000132114
80 *3009:GATE_N *2491:A2 0.000191699
81 *3018:GATE_N *904:22 2.05938e-05
82 *3019:GATE_N *904:10 7.05216e-05
83 *3114:A *904:16 0.00162717
84 *3115:A *904:10 7.5474e-05
85 *3115:A *904:16 0.000357991
86 *3120:A *904:16 0.00158052
87 *3132:A *904:16 0
88 *3194:A *904:10 2.07382e-05
89 *3213:A *904:10 0.000226835
90 *620:18 *904:38 8.43894e-06
91 *637:20 *904:22 0.000138081
92 *814:12 *904:16 0
93 *814:37 *904:22 2.66026e-05
94 *814:45 *904:22 0
95 *814:66 *904:22 1.72872e-05
96 *814:66 *904:24 0.000115689
97 *814:66 *904:28 0.000154198
98 *814:66 *904:38 0
99 *814:72 *904:38 0
100 *814:110 *904:53 6.98302e-05
101 *814:116 *904:53 0.000868417
102 *814:116 *904:61 2.38697e-05
103 *815:12 *904:10 0.000444726
104 *816:38 *2455:A2 3.41517e-06
105 *816:44 *2455:A2 0.00012505
106 *816:54 *2455:A2 1.9416e-05
107 *816:54 *904:91 0
108 *831:53 *904:53 0.000412326
109 *831:63 *904:53 0.000529514
110 *833:18 *2578:B1 1.90936e-05
111 *836:67 *2455:A2 0.000169815
112 *837:31 *904:16 0
113 *851:57 *904:22 6.12813e-05
114 *861:47 *904:22 0
115 *870:26 *904:10 0
116 *873:44 *2455:A2 1.40415e-05
117 *873:50 *904:61 0.00014499
118 *900:52 *904:53 8.0089e-05
119 *903:102 *904:16 7.60306e-05
*RES
1 *3194:X *904:10 22.1214 
2 *904:10 *904:16 30.2321 
3 *904:16 *904:22 15.875 
4 *904:22 *904:24 2.85714 
5 *904:24 *904:28 8.57143 
6 *904:28 *904:38 17.4464 
7 *904:38 *2568:A2 10.2643 
8 *904:38 *904:53 19.2768 
9 *904:53 *904:61 10.5982 
10 *904:61 *2455:A2 31.4071 
11 *904:61 *2479:B1 9.3 
12 *904:53 *904:91 4.9704 
13 *904:91 *2578:B1 18.4511 
14 *904:91 *2554:A2 18.7175 
15 *904:28 *2491:A2 23.0321 
16 *904:24 *2535:A2 13.8 
17 *904:22 *2589:B1 14.3357 
18 *904:16 *2542:B1 15.5857 
19 *904:10 *2500:B1 13.8 
*END

*D_NET *905 0.0173769
*CONN
*I *2599:A2 I *D sky130_fd_sc_hd__a211o_1
*I *2462:A2 I *D sky130_fd_sc_hd__a22o_1
*I *2610:B1 I *D sky130_fd_sc_hd__a221o_1
*I *2524:A2 I *D sky130_fd_sc_hd__a211o_1
*I *2415:B I *D sky130_fd_sc_hd__nand2_1
*I *2510:B1 I *D sky130_fd_sc_hd__a22o_1
*I *2620:B1 I *D sky130_fd_sc_hd__a22o_1
*I *3195:X O *D sky130_fd_sc_hd__clkbuf_2
*CAP
1 *2599:A2 0.000772975
2 *2462:A2 0.000259357
3 *2610:B1 0.000634212
4 *2524:A2 0.000519507
5 *2415:B 0.000255175
6 *2510:B1 0
7 *2620:B1 0
8 *3195:X 0
9 *905:94 0.00127284
10 *905:47 0.000587728
11 *905:33 0.00108979
12 *905:20 0.000696853
13 *905:10 0.00106884
14 *905:6 0.00100343
15 *2415:B *2501:C1 0
16 *2415:B *907:48 0
17 *2415:B *909:66 0.000403708
18 *2462:A2 *2469:A2 2.41865e-05
19 *2462:A2 *906:20 4.02533e-05
20 *2462:A2 *930:20 0.00019299
21 *2599:A2 *907:12 0.000380328
22 *2599:A2 *938:14 3.17163e-05
23 *2610:B1 *2469:A2 5.66157e-05
24 *2610:B1 *2609:B1 9.77956e-05
25 *2610:B1 *906:20 0
26 *2610:B1 *921:10 0.000137939
27 *2610:B1 *921:14 6.77303e-05
28 *2610:B1 *921:26 0.000133481
29 *2610:B1 *928:14 9.22123e-05
30 *2610:B1 *930:20 0.000361466
31 *905:20 *2469:A2 1.74903e-05
32 *905:47 *2401:B 1.21258e-05
33 *905:47 *2513:A2 5.33005e-05
34 *905:94 *2469:A2 0.000213635
35 *2462:B1 *2462:A2 0.000440587
36 *2462:B2 *2462:A2 0.000137983
37 *2468:A1 *905:94 2.61099e-05
38 *2468:B2 *905:10 6.42242e-05
39 *2469:A1 *2610:B1 3.25078e-05
40 *2469:B1 *905:94 8.85532e-05
41 *2470:C *2610:B1 8.00806e-05
42 *2510:A1 *905:47 0.000148196
43 *2524:A1 *2524:A2 3.57366e-05
44 *2597:A1 *2599:A2 4.56642e-05
45 *2610:A1 *2610:B1 0.000146618
46 *2620:A1 *905:20 1.56e-05
47 *2620:A1 *905:33 0.000145451
48 *2620:B2 *2524:A2 7.8327e-05
49 *2620:B2 *905:33 0.00014886
50 *2624:A *2610:B1 0.000318001
51 *2624:B *2610:B1 6.16744e-05
52 *2625:B2 *2610:B1 2.22043e-05
53 *2850:GATE_N *2415:B 5.83304e-05
54 *2877:GATE_N *2524:A2 0.000125731
55 *2989:D *2524:A2 0.000122398
56 *2989:D *905:33 8.42609e-05
57 *2989:D *905:47 9.90367e-05
58 *2991:D *905:10 0.000215448
59 *3021:GATE_N *2524:A2 0.000196531
60 *3083:D *2599:A2 8.68665e-05
61 *3083:GATE_N *2599:A2 2.82057e-05
62 *3083:GATE_N *905:10 3.454e-05
63 *3117:A *2599:A2 2.14757e-05
64 *3119:A *2599:A2 0.000240484
65 *3120:A *2524:A2 0
66 *3134:A *2524:A2 3.55942e-05
67 *3134:A *905:47 0.000270635
68 *3135:A *2415:B 0.000195547
69 *3135:A *905:47 6.98302e-05
70 *3195:A *2599:A2 0.000527071
71 *3197:A *2599:A2 0.000139913
72 *437:26 *2524:A2 4.51691e-05
73 *496:16 *905:10 7.82674e-05
74 *570:18 *905:47 2.04825e-05
75 *817:24 *2599:A2 0.00013292
76 *819:23 *2599:A2 5.15808e-05
77 *819:27 *905:20 4.35421e-05
78 *819:27 *905:94 0
79 *819:35 *905:20 0.000429401
80 *819:35 *905:33 1.40034e-05
81 *832:25 *2415:B 0.000347362
82 *832:33 *2599:A2 5.08385e-05
83 *832:33 *905:10 5.97719e-05
84 *834:8 *2524:A2 0.000217034
85 *837:31 *2415:B 0.000121573
86 *837:31 *2524:A2 5.80911e-05
87 *837:31 *905:47 0
88 *844:56 *2524:A2 8.59056e-05
89 *850:31 *2599:A2 0
90 *850:33 *2599:A2 7.92879e-05
91 *850:57 *2599:A2 2.42516e-05
92 *864:47 *2524:A2 2.95726e-05
93 *870:18 *2599:A2 0.000139913
94 *875:24 *905:20 1.33343e-05
95 *875:24 *905:94 2.14658e-05
96 *875:30 *905:10 0.000122439
97 *875:30 *905:20 5.52302e-05
98 *904:16 *2415:B 6.95112e-05
*RES
1 *3195:X *905:6 13.8 
2 *905:6 *905:10 10.3929 
3 *905:10 *905:20 9.23214 
4 *905:20 *2620:B1 9.3 
5 *905:20 *905:33 4.39286 
6 *905:33 *905:47 19.8929 
7 *905:47 *2510:B1 13.8 
8 *905:47 *2415:B 31.3179 
9 *905:33 *2524:A2 30.6393 
10 *905:10 *905:94 11.5357 
11 *905:94 *2610:B1 30.925 
12 *905:94 *2462:A2 20.5857 
13 *905:6 *2599:A2 41.5321 
*END

*D_NET *906 0.0263923
*CONN
*I *2468:A2 I *D sky130_fd_sc_hd__a221o_1
*I *2543:B1 I *D sky130_fd_sc_hd__a221o_1
*I *2588:B1 I *D sky130_fd_sc_hd__a221o_1
*I *2565:A2 I *D sky130_fd_sc_hd__a22o_1
*I *2457:B1 I *D sky130_fd_sc_hd__a22o_1
*I *2477:B1 I *D sky130_fd_sc_hd__a22o_1
*I *2532:B1 I *D sky130_fd_sc_hd__a22o_1
*I *2490:B1 I *D sky130_fd_sc_hd__a22o_1
*I *2555:B1 I *D sky130_fd_sc_hd__a221o_1
*I *2577:B1 I *D sky130_fd_sc_hd__a221o_1
*I *3196:X O *D sky130_fd_sc_hd__clkbuf_4
*CAP
1 *2468:A2 0
2 *2543:B1 1.38423e-05
3 *2588:B1 0
4 *2565:A2 5.35939e-05
5 *2457:B1 0.000466583
6 *2477:B1 0.00043062
7 *2532:B1 0.000354687
8 *2490:B1 4.61168e-05
9 *2555:B1 0.000910526
10 *2577:B1 0.000399251
11 *3196:X 9.03011e-05
12 *906:116 0.00106387
13 *906:114 0.000799896
14 *906:99 0.00128639
15 *906:93 0.00146862
16 *906:75 0.00165376
17 *906:26 0.00145465
18 *906:22 0.00105202
19 *906:20 0.00236389
20 *906:10 0.0010698
21 *2457:B1 *923:71 0.000145753
22 *2477:B1 *2477:A2 0.000163072
23 *2555:B1 *2555:A2 0.000228558
24 *2555:B1 *923:36 0
25 *2577:B1 *2555:A2 0.000301824
26 *2577:B1 *2576:A2 0.00022459
27 *2577:B1 *928:51 5.01117e-05
28 *906:10 *2395:A 8.70435e-05
29 *906:20 *2395:A 7.13226e-06
30 *906:20 *2609:B1 0
31 *906:20 *921:26 0.000122122
32 *906:20 *930:20 0
33 *906:22 *2490:A2 0
34 *906:22 *908:12 8.12976e-05
35 *906:22 *921:26 0.000311186
36 *906:22 *923:36 0.000219944
37 *906:26 *923:36 0.000128214
38 *906:75 *2543:A2 3.28686e-05
39 *906:75 *2543:C1 0.000496214
40 *906:75 *928:33 2.57487e-05
41 *906:93 *2543:C1 1.58163e-05
42 *906:93 *2587:A2 0.000123673
43 *906:93 *2587:B1 0
44 *906:93 *2588:A2 5.37741e-06
45 *906:99 *2588:A2 0.000157716
46 *2462:A1 *906:10 0.000285478
47 *2462:A1 *906:20 7.13226e-06
48 *2462:A2 *906:20 4.02533e-05
49 *2462:B1 *906:20 2.06112e-05
50 *2468:A1 *906:20 0.000322041
51 *2468:B2 *906:10 0
52 *2469:A1 *906:20 7.85888e-05
53 *2469:C1 *906:20 2.72449e-05
54 *2477:A1 *2477:B1 2.17647e-05
55 *2478:A1 *2477:B1 0.000402467
56 *2488:A1 *906:22 0.00033763
57 *2489:B2 *906:22 0.000102893
58 *2489:C1 *906:22 4.23086e-05
59 *2490:A1 *906:22 0
60 *2490:A1 *906:26 0
61 *2490:B2 *2490:B1 3.46775e-05
62 *2491:A1 *2490:B1 3.48705e-05
63 *2491:A1 *906:22 0
64 *2532:A1 *2532:B1 3.1367e-05
65 *2533:C1 *2532:B1 1.71333e-05
66 *2543:A1 *906:93 0.00022266
67 *2543:B2 *2543:B1 5.09596e-06
68 *2544:A1 *906:93 9.91086e-05
69 *2544:A2 *906:93 5.52302e-05
70 *2544:B1 *906:93 9.91086e-05
71 *2555:B2 *2555:B1 7.29826e-05
72 *2555:C1 *2555:B1 0
73 *2565:A1 *2565:A2 5.49489e-05
74 *2565:A1 *906:114 2.14378e-05
75 *2565:B1 *2565:A2 0.000136676
76 *2566:C1 *906:114 0.00058838
77 *2566:C1 *906:116 5.83233e-05
78 *2581:B2 *2555:B1 0
79 *2588:B2 *906:99 0
80 *2588:C1 *906:93 3.55344e-05
81 *2588:C1 *906:99 3.4846e-06
82 *2610:B1 *906:20 0
83 *2623:B1 *906:20 0.000145618
84 *2624:A *906:20 0
85 *2624:B *906:20 4.16021e-05
86 *2624:C *906:20 3.27556e-05
87 *2849:GATE_N *2577:B1 0.000102545
88 *2853:GATE_N *2532:B1 3.42426e-05
89 *2854:D *906:93 9.90367e-05
90 *2878:GATE_N *2477:B1 3.08382e-06
91 *3000:GATE_N *906:114 4.04221e-05
92 *3004:D *906:75 9.60875e-05
93 *3070:GATE_N *2555:B1 4.28365e-05
94 *3070:GATE_N *906:26 0
95 *3134:A *906:93 6.21846e-05
96 *3196:A *906:10 9.90367e-05
97 *3196:A *906:20 4.46186e-06
98 *590:12 *906:22 7.83587e-05
99 *805:54 *906:20 0.00132607
100 *805:54 *906:22 0.000708012
101 *805:78 *906:26 0
102 *814:37 *906:93 0.000338159
103 *816:18 *906:93 4.58899e-05
104 *820:24 *2457:B1 7.17836e-05
105 *831:63 *2477:B1 3.35916e-05
106 *831:69 *2477:B1 0.000258536
107 *836:38 *906:114 0.000636273
108 *836:95 *2457:B1 0.000178847
109 *836:152 *906:93 3.48705e-05
110 *847:51 *906:75 0.000130419
111 *851:53 *906:22 9.87983e-06
112 *855:20 *2490:B1 9.14762e-05
113 *862:35 *2532:B1 1.58163e-05
114 *862:35 *906:99 7.83725e-05
115 *862:43 *906:114 0.000168939
116 *877:68 *2477:B1 9.11048e-06
117 *877:79 *2477:B1 0.000207853
*RES
1 *3196:X *906:10 12.8313 
2 *906:10 *906:20 28.308 
3 *906:20 *906:22 21.6786 
4 *906:22 *906:26 7.66071 
5 *906:26 *2577:B1 24.6929 
6 *906:26 *2555:B1 32.4071 
7 *906:22 *2490:B1 15.5857 
8 *906:20 *906:75 14.2143 
9 *906:75 *906:93 32.6607 
10 *906:93 *906:99 10.75 
11 *906:99 *2532:B1 14.2821 
12 *906:99 *906:114 20.1071 
13 *906:114 *906:116 3.16071 
14 *906:116 *2477:B1 25.4071 
15 *906:116 *2457:B1 29.3893 
16 *906:114 *2565:A2 15.1571 
17 *906:93 *2588:B1 13.8 
18 *906:75 *2543:B1 9.72857 
19 *906:10 *2468:A2 9.3 
*END

*D_NET *907 0.017395
*CONN
*I *2597:A2 I *D sky130_fd_sc_hd__a22o_1
*I *2413:B I *D sky130_fd_sc_hd__nand2_1
*I *2620:A2 I *D sky130_fd_sc_hd__a22o_1
*I *2522:B1 I *D sky130_fd_sc_hd__a221o_1
*I *2609:B1 I *D sky130_fd_sc_hd__a22o_1
*I *2501:B1 I *D sky130_fd_sc_hd__a221o_1
*I *2512:A2 I *D sky130_fd_sc_hd__a22o_1
*I *3197:X O *D sky130_fd_sc_hd__clkbuf_2
*CAP
1 *2597:A2 0.000165197
2 *2413:B 9.56614e-05
3 *2620:A2 0
4 *2522:B1 0.000286101
5 *2609:B1 0.0011513
6 *2501:B1 0
7 *2512:A2 0.000475936
8 *3197:X 0
9 *907:56 0.00210689
10 *907:48 0.00143212
11 *907:16 0.000594739
12 *907:14 0.00108578
13 *907:12 0.000567978
14 *907:6 0.000433166
15 *2512:A2 *2501:C1 9.90431e-05
16 *2522:B1 *2522:A2 7.90536e-05
17 *2597:A2 *3211:A 0.000118967
18 *2597:A2 *938:14 0.00019554
19 *2609:B1 *921:26 6.35819e-05
20 *907:12 *938:14 1.02504e-05
21 *907:16 *2501:A2 1.46576e-05
22 *907:48 *909:30 0
23 *907:48 *929:18 0.000312493
24 *907:48 *936:49 0.000431006
25 *907:56 *909:30 0
26 *2399:A *2413:B 0.000134127
27 *2401:A *907:48 0.000217877
28 *2415:B *907:48 0
29 *2417:B *2413:B 1.28786e-05
30 *2500:A1 *2512:A2 3.05446e-05
31 *2500:A1 *907:14 4.47364e-05
32 *2500:A1 *907:16 3.33302e-05
33 *2501:B2 *2512:A2 3.04785e-05
34 *2502:C1 *907:14 2.84109e-05
35 *2502:C1 *907:16 6.05161e-06
36 *2512:B1 *2512:A2 0.000269628
37 *2522:C1 *2522:B1 0.000158807
38 *2525:B *2522:B1 7.77001e-05
39 *2542:A1 *2609:B1 0.00010096
40 *2597:B1 *2597:A2 1.04232e-05
41 *2599:A2 *907:12 0.000380328
42 *2610:B1 *2609:B1 9.77956e-05
43 *2621:B2 *907:56 9.75072e-05
44 *2621:C1 *907:56 0.000148189
45 *2622:A1 *907:56 0
46 *2622:B2 *907:56 0
47 *2850:D *907:48 0.000148911
48 *2850:GATE_N *907:48 1.91512e-05
49 *2860:D *2609:B1 2.59355e-05
50 *2860:GATE_N *2609:B1 0.000195546
51 *2978:GATE_N *2512:A2 8.16036e-05
52 *3021:D *907:56 0.000170654
53 *3114:A *2609:B1 5.41794e-05
54 *3114:A *907:48 7.02923e-05
55 *3114:A *907:56 0.000226319
56 *3118:A *907:48 0.000290129
57 *3119:A *2413:B 3.07911e-06
58 *3119:A *907:12 7.13346e-05
59 *3121:A *2413:B 0.000134127
60 *3121:A *907:14 5.52238e-05
61 *3132:A *2609:B1 0
62 *3132:A *907:56 0
63 *445:8 *2413:B 3.45258e-05
64 *559:12 *907:12 0.00029388
65 *559:12 *907:14 0.000178847
66 *580:10 *2522:B1 0.000569188
67 *821:6 *907:12 0.000263524
68 *821:10 *907:12 3.17148e-05
69 *832:47 *2522:B1 0.00120834
70 *837:31 *907:48 8.15194e-05
71 *840:59 *907:48 5.41794e-05
72 *844:45 *907:56 0.000217877
73 *847:57 *2609:B1 0.000119125
74 *903:12 *2597:A2 5.76599e-05
75 *903:18 *2597:A2 0.000324215
76 *903:18 *907:12 0.000524656
77 *903:24 *907:12 5.41794e-05
78 *903:91 *907:12 1.98839e-05
79 *903:91 *907:14 0.00015851
80 *903:102 *907:48 0
81 *904:16 *2609:B1 5.74562e-05
82 *906:20 *2609:B1 0
*RES
1 *3197:X *907:6 13.8 
2 *907:6 *907:12 14.9107 
3 *907:12 *907:14 4.64286 
4 *907:14 *907:16 1.76786 
5 *907:16 *2512:A2 27.4786 
6 *907:16 *2501:B1 9.3 
7 *907:14 *907:48 29.5179 
8 *907:48 *907:56 13.5714 
9 *907:56 *2609:B1 38.8357 
10 *907:56 *2522:B1 26.5857 
11 *907:48 *2620:A2 13.8 
12 *907:12 *2413:B 20.8625 
13 *907:6 *2597:A2 19.4964 
*END

*D_NET *908 0.0225369
*CONN
*I *2611:B1 I *D sky130_fd_sc_hd__a22o_1
*I *2488:B1 I *D sky130_fd_sc_hd__a22o_1
*I *2534:B1 I *D sky130_fd_sc_hd__a22o_1
*I *2557:A2 I *D sky130_fd_sc_hd__a211o_1
*I *2579:A2 I *D sky130_fd_sc_hd__a211o_1
*I *2477:A2 I *D sky130_fd_sc_hd__a22o_1
*I *2458:A2 I *D sky130_fd_sc_hd__a211o_1
*I *2567:B1 I *D sky130_fd_sc_hd__a22o_1
*I *2542:A2 I *D sky130_fd_sc_hd__a22o_1
*I *2587:B1 I *D sky130_fd_sc_hd__a22o_1
*I *3198:X O *D sky130_fd_sc_hd__clkbuf_4
*CAP
1 *2611:B1 0.000147021
2 *2488:B1 0
3 *2534:B1 0
4 *2557:A2 0.000775062
5 *2579:A2 1.99857e-05
6 *2477:A2 0.00068603
7 *2458:A2 0
8 *2567:B1 0.000354671
9 *2542:A2 0.000396975
10 *2587:B1 0.00106622
11 *3198:X 0
12 *908:125 0.00122692
13 *908:85 0.000758954
14 *908:83 0.00100051
15 *908:68 0.00112738
16 *908:62 0.000476118
17 *908:34 0.00208088
18 *908:28 0.00153975
19 *908:12 0.00110567
20 *908:4 0.000529757
21 *2477:A2 *2458:C1 9.77274e-05
22 *2557:A2 *2555:A2 7.13226e-06
23 *2611:B1 *921:26 0.000218019
24 *908:28 *923:36 6.05161e-06
25 *908:62 *2534:A2 1.69115e-05
26 *908:68 *2534:A2 4.1331e-06
27 *908:83 *934:70 0.000148903
28 *908:85 *2458:C1 0.000265447
29 *908:125 *2579:C1 0.000226513
30 *2456:B2 *2477:A2 8.71761e-05
31 *2459:C *908:85 2.28598e-05
32 *2459:C *908:125 0.000194811
33 *2477:A1 *2477:A2 3.50166e-05
34 *2477:B1 *2477:A2 0.000163072
35 *2481:A *908:125 5.80706e-06
36 *2481:B *908:83 0.000192214
37 *2481:C *908:83 4.46186e-06
38 *2489:B1 *2611:B1 0.000103974
39 *2534:B2 *908:68 0.00015546
40 *2535:B1 *908:62 6.32633e-05
41 *2536:B *908:28 0.000142729
42 *2536:B *908:34 6.46722e-05
43 *2542:B2 *2542:A2 0
44 *2544:B1 *2542:A2 0.000124594
45 *2545:C *2542:A2 6.37188e-06
46 *2555:A1 *2557:A2 3.38171e-05
47 *2555:B2 *2557:A2 1.403e-05
48 *2555:C1 *2557:A2 0.000165321
49 *2557:A1 *2557:A2 7.77958e-05
50 *2568:B1 *2567:B1 0.000271345
51 *2569:B *908:62 0
52 *2569:C *2567:B1 9.60939e-05
53 *2569:C *908:68 1.33343e-05
54 *2579:A1 *2579:A2 1.04232e-05
55 *2579:A1 *908:125 3.82242e-05
56 *2580:C *2557:A2 4.35752e-05
57 *2589:A1 *908:28 3.68799e-05
58 *2589:B1 *908:28 5.52302e-05
59 *2589:B2 *908:28 4.9071e-05
60 *2590:B1 *908:28 5.52302e-05
61 *2591:A *908:12 0
62 *2591:C *908:12 0
63 *2592:B2 *908:12 1.30905e-05
64 *2611:A1 *2611:B1 4.43256e-05
65 *2870:GATE_N *2611:B1 0.00026353
66 *2887:GATE_N *2557:A2 3.18676e-05
67 *2890:GATE_N *2587:B1 0
68 *2965:D *2567:B1 0.000273269
69 *2967:GATE_N *2557:A2 0.000173328
70 *2967:GATE_N *908:125 0.00068646
71 *2977:GATE_N *908:83 0
72 *2982:GATE_N *2587:B1 0.000103646
73 *2993:GATE_N *908:12 0
74 *2998:D *908:34 0.000115072
75 *3002:D *908:34 5.40868e-05
76 *3017:D *908:83 0.000175526
77 *3018:GATE_N *908:34 0.000147474
78 *3132:A *2542:A2 2.91887e-05
79 *585:24 *908:28 0.000263538
80 *615:12 *908:68 0
81 *620:18 *908:68 8.23597e-06
82 *620:18 *908:83 0
83 *635:20 *908:12 8.70757e-05
84 *637:20 *908:34 0.000389861
85 *805:54 *908:12 0.000128146
86 *814:37 *908:34 8.07879e-05
87 *814:116 *908:83 0.000309916
88 *816:20 *908:34 0
89 *820:30 *2477:A2 0.000262299
90 *820:73 *2477:A2 0.000223602
91 *820:73 *908:85 0.000279494
92 *820:73 *908:125 0.000168303
93 *831:63 *2477:A2 1.71279e-05
94 *847:125 *2611:B1 0.000149903
95 *853:67 *908:125 2.09897e-05
96 *861:14 *2542:A2 0.000441903
97 *861:14 *2587:B1 0.000118634
98 *861:18 *908:34 7.58243e-05
99 *900:21 *2611:B1 0.000112323
100 *900:48 *908:34 0
101 *900:52 *908:34 0
102 *900:52 *908:62 0
103 *900:52 *908:68 0
104 *900:52 *908:83 0.000362538
105 *900:79 *908:83 7.34634e-05
106 *900:79 *908:125 4.37485e-06
107 *904:22 *908:28 6.84279e-06
108 *904:22 *908:34 0
109 *904:24 *908:28 4.46689e-05
110 *904:24 *908:62 0
111 *904:28 *908:68 0
112 *904:38 *908:68 0.000105273
113 *904:38 *908:83 0
114 *906:22 *908:12 8.12976e-05
115 *906:93 *2587:B1 0
*RES
1 *3198:X *908:4 9.3 
2 *908:4 *908:12 15.3571 
3 *908:12 *908:28 18.4375 
4 *908:28 *908:34 18.2493 
5 *908:34 *2587:B1 21.1416 
6 *908:34 *2542:A2 20.9145 
7 *908:28 *908:62 3.3125 
8 *908:62 *908:68 10.25 
9 *908:68 *2567:B1 16.4071 
10 *908:68 *908:83 23.5179 
11 *908:83 *908:85 3 
12 *908:85 *2458:A2 9.3 
13 *908:85 *2477:A2 22.0143 
14 *908:83 *908:125 20.7679 
15 *908:125 *2579:A2 9.72857 
16 *908:125 *2557:A2 23.925 
17 *908:62 *2534:B1 13.8 
18 *908:12 *2488:B1 9.3 
19 *908:4 *2611:B1 23.7464 
*END

*D_NET *909 0.0152955
*CONN
*I *2598:A2 I *D sky130_fd_sc_hd__a221o_1
*I *2500:A2 I *D sky130_fd_sc_hd__a22o_1
*I *2411:B I *D sky130_fd_sc_hd__nand2_1
*I *2510:A2 I *D sky130_fd_sc_hd__a22o_1
*I *2523:B1 I *D sky130_fd_sc_hd__a22o_1
*I *2469:A2 I *D sky130_fd_sc_hd__a211o_1
*I *2621:B1 I *D sky130_fd_sc_hd__a221o_1
*I *3199:X O *D sky130_fd_sc_hd__clkbuf_2
*CAP
1 *2598:A2 0.000135894
2 *2500:A2 0.000366296
3 *2411:B 0
4 *2510:A2 1.40355e-05
5 *2523:B1 0.000665963
6 *2469:A2 0.000836619
7 *2621:B1 0.000104612
8 *3199:X 0.000708707
9 *909:66 0.000903034
10 *909:60 0.000429923
11 *909:30 0.00128938
12 *909:28 0.000647416
13 *909:26 0.000796633
14 *909:18 0.00118256
15 *2500:A2 *925:33 7.79649e-05
16 *2510:A2 *936:49 2.89114e-05
17 *2523:B1 *2524:C1 0.000337718
18 *2523:B1 *922:87 8.07087e-05
19 *2523:B1 *925:86 0.000315165
20 *909:18 *2400:C 9.90431e-05
21 *909:18 *2424:B 2.14757e-05
22 *909:18 *2424:D 3.41939e-05
23 *909:18 *2598:C1 0.000288603
24 *909:18 *947:14 0.000204672
25 *909:18 *947:34 2.83916e-05
26 *909:66 *2501:C1 7.50601e-05
27 *909:66 *2524:C1 1.17968e-05
28 *2411:A *909:60 5.15855e-05
29 *2415:B *909:66 0.000403708
30 *2462:A2 *2469:A2 2.41865e-05
31 *2469:A1 *2469:A2 8.08022e-05
32 *2500:B2 *2500:A2 0
33 *2502:B1 *2500:A2 5.92418e-05
34 *2503:D *2598:A2 8.31691e-05
35 *2503:D *909:18 5.30093e-05
36 *2510:A1 *2523:B1 0.000114912
37 *2510:A1 *909:66 4.46186e-06
38 *2510:B2 *2510:A2 5.52302e-05
39 *2511:C1 *2523:B1 0.000123295
40 *2523:A1 *2523:B1 8.18233e-06
41 *2598:B2 *2598:A2 0.000117552
42 *2598:B2 *909:18 4.43256e-05
43 *2610:B1 *2469:A2 5.66157e-05
44 *2621:B2 *2621:B1 4.46186e-06
45 *2621:C1 *2621:B1 4.53031e-05
46 *2852:GATE_N *2523:B1 1.00399e-05
47 *2980:GATE_N *2523:B1 0
48 *2991:GATE_N *2500:A2 0.000349837
49 *2991:GATE_N *909:28 0.000183875
50 *2991:GATE_N *909:30 0.000148911
51 *2996:GATE_N *2523:B1 0
52 *3003:GATE_N *2500:A2 3.97194e-05
53 *3083:D *909:26 1.92905e-05
54 *3083:GATE_N *2598:A2 5.33005e-05
55 *3083:GATE_N *909:26 6.3824e-05
56 *3118:A *909:30 8.00382e-05
57 *3119:A *909:26 0.000266479
58 *3121:A *909:60 0.000175892
59 *3131:A *909:60 1.24368e-05
60 *3131:A *909:66 0.0002644
61 *3199:A *909:18 2.59355e-05
62 *3304:A *909:18 0.000148903
63 *3308:A *909:18 0.00014285
64 *445:8 *909:26 6.45627e-05
65 *815:38 *2523:B1 0.000655988
66 *817:28 *2500:A2 2.14757e-05
67 *819:27 *2469:A2 0.000124521
68 *819:35 *2469:A2 0.000269422
69 *821:10 *2621:B1 0
70 *821:10 *909:30 0
71 *821:16 *2621:B1 0
72 *821:18 *2523:B1 0.000272054
73 *821:22 *2523:B1 7.62417e-05
74 *832:25 *909:60 2.77173e-05
75 *832:25 *909:66 9.31893e-05
76 *840:44 *909:60 4.13496e-05
77 *840:46 *909:60 6.26276e-05
78 *850:57 *2500:A2 3.69047e-06
79 *875:24 *2469:A2 1.39726e-05
80 *875:30 *2469:A2 2.27416e-05
81 *903:18 *2500:A2 4.06782e-05
82 *903:24 *2500:A2 8.10007e-05
83 *903:24 *909:28 6.09256e-05
84 *903:24 *909:30 0.000131714
85 *905:20 *2469:A2 1.74903e-05
86 *905:94 *2469:A2 0.000213635
87 *907:48 *909:30 0
88 *907:56 *909:30 0
*RES
1 *3199:X *909:18 31.2107 
2 *909:18 *909:26 10.5179 
3 *909:26 *909:28 2.55357 
4 *909:28 *909:30 7.71429 
5 *909:30 *2621:B1 15.7464 
6 *909:30 *2469:A2 34.2286 
7 *909:28 *909:60 8.75 
8 *909:60 *909:66 11.8036 
9 *909:66 *2523:B1 41.7821 
10 *909:66 *2510:A2 14.3357 
11 *909:60 *2411:B 9.3 
12 *909:26 *2500:A2 22.4786 
13 *909:18 *2598:A2 13.1304 
*END

*D_NET *910 0.00546722
*CONN
*I *3198:A I *D sky130_fd_sc_hd__clkbuf_4
*I *3304:X O *D sky130_fd_sc_hd__clkbuf_1
*CAP
1 *3198:A 2.39229e-05
2 *3304:X 0.00127704
3 *910:10 0.00130097
4 *910:10 *921:26 0
5 *910:10 *923:16 0.000119702
6 *910:10 *923:26 5.78935e-05
7 *910:10 *926:12 0.00181575
8 *910:10 *937:12 0
9 *2611:B2 *3198:A 0.000140933
10 *2611:B2 *910:10 6.09572e-05
11 *2911:GATE_N *910:10 0.000527199
12 *3034:GATE_N *910:10 0
13 *3208:A *910:10 0
14 *635:20 *3198:A 0.000142856
*RES
1 *3304:X *910:10 48.7821 
2 *910:10 *3198:A 10.6571 
*END

*D_NET *911 0.0295772
*CONN
*I *2607:A2 I *D sky130_fd_sc_hd__a22o_1
*I *2529:A2 I *D sky130_fd_sc_hd__a221o_1
*I *2583:A2 I *D sky130_fd_sc_hd__a22o_1
*I *2562:A2 I *D sky130_fd_sc_hd__a221o_1
*I *2573:B1 I *D sky130_fd_sc_hd__a221o_1
*I *2451:A2 I *D sky130_fd_sc_hd__a22o_1
*I *2473:A2 I *D sky130_fd_sc_hd__a22o_1
*I *2551:A2 I *D sky130_fd_sc_hd__a221o_1
*I *2486:B1 I *D sky130_fd_sc_hd__a22o_1
*I *2466:B1 I *D sky130_fd_sc_hd__a221o_1
*I *3200:X O *D sky130_fd_sc_hd__clkbuf_4
*CAP
1 *2607:A2 2.23854e-05
2 *2529:A2 0.00097122
3 *2583:A2 0
4 *2562:A2 0.00101271
5 *2573:B1 1.99857e-05
6 *2451:A2 0.000107811
7 *2473:A2 0.000770435
8 *2551:A2 0
9 *2486:B1 0.000974709
10 *2466:B1 0.000144127
11 *3200:X 0
12 *911:159 0.00115216
13 *911:131 0.00114048
14 *911:92 0.00148526
15 *911:78 0.000984458
16 *911:72 0.00145327
17 *911:54 0.00165294
18 *911:46 0.000907505
19 *911:25 0.00331524
20 *911:4 0.0018879
21 *2466:B1 *2466:A2 1.46576e-05
22 *2466:B1 *917:34 9.38789e-05
23 *2466:B1 *922:47 4.58194e-05
24 *2473:A2 *2559:A2 0.000344672
25 *2486:B1 *2563:A2 2.89016e-05
26 *2486:B1 *916:19 4.1331e-06
27 *2486:B1 *916:32 0
28 *2486:B1 *918:25 0.000775891
29 *2486:B1 *918:29 2.59093e-05
30 *2529:A2 *2605:A2 0
31 *2562:A2 *994:18 0.000142288
32 *911:25 *2540:A2 5.55261e-05
33 *911:25 *914:118 0.000185283
34 *911:72 *2639:A 0.00011563
35 *911:72 *932:70 0
36 *911:72 *1003:14 0
37 *911:92 *2460:A2 1.30908e-05
38 *911:92 *2559:A2 2.00917e-05
39 *911:131 *2573:A2 1.46576e-05
40 *2451:B1 *2451:A2 5.04841e-06
41 *2452:B1 *911:92 0.000559931
42 *2452:C1 *911:92 0
43 *2473:A1 *2473:A2 9.89536e-05
44 *2473:B1 *2473:A2 5.80706e-06
45 *2473:B2 *2473:A2 0
46 *2474:B1 *2473:A2 2.4613e-05
47 *2474:C1 *2473:A2 0
48 *2484:B2 *2486:B1 0
49 *2486:B2 *2486:B1 5.80706e-06
50 *2529:B1 *2529:A2 0.00115503
51 *2539:B2 *2486:B1 0
52 *2539:B2 *911:25 0
53 *2541:A1 *911:25 5.62734e-05
54 *2551:B1 *2451:A2 0.000174361
55 *2551:B1 *2473:A2 1.37319e-05
56 *2551:B1 *911:92 1.97387e-05
57 *2553:B1 *2486:B1 2.8266e-06
58 *2559:B1 *2473:A2 6.11267e-05
59 *2559:B1 *911:92 2.67816e-05
60 *2562:A1 *2562:A2 5.95283e-05
61 *2562:B1 *2562:A2 2.59355e-05
62 *2562:B2 *2562:A2 0.000309894
63 *2563:B2 *2486:B1 4.57538e-05
64 *2572:B2 *911:72 0
65 *2573:A1 *911:72 0.000127944
66 *2573:A1 *911:131 6.1537e-05
67 *2573:B2 *2562:A2 4.05527e-05
68 *2573:B2 *2573:B1 1.04232e-05
69 *2573:B2 *911:131 2.61099e-05
70 *2581:B1 *911:78 0.00017097
71 *2581:B1 *911:92 3.10819e-05
72 *2581:B1 *911:131 9.60939e-05
73 *2581:B2 *911:72 0
74 *2581:B2 *911:92 2.06112e-05
75 *2583:A1 *2529:A2 9.47456e-05
76 *2583:B2 *911:54 1.76135e-05
77 *2583:B2 *911:72 0.000155397
78 *2584:C1 *2529:A2 0
79 *2831:GATE_N *911:25 3.18676e-05
80 *2832:D *2473:A2 0.000312209
81 *2841:D *911:72 0.000138271
82 *2841:D *911:78 0.000314377
83 *2841:D *911:92 0.000201693
84 *2841:GATE_N *911:92 5.64168e-05
85 *2842:D *911:72 0.000129196
86 *2895:D *911:25 8.78312e-05
87 *2902:D *911:25 0
88 *2905:D *911:72 0
89 *2922:GATE_N *911:54 0.00014279
90 *2922:GATE_N *911:72 0.000175519
91 *2934:GATE_N *911:25 0
92 *2942:GATE_N *911:92 0
93 *2953:D *911:72 0
94 *3030:D *2486:B1 0
95 *3030:GATE_N *2486:B1 0
96 *3039:GATE_N *911:25 3.65078e-05
97 *3040:GATE_N *2562:A2 0
98 *3149:A *911:72 0.000129289
99 *3153:A *2486:B1 0.000228558
100 *379:10 *911:72 9.69789e-05
101 *389:10 *2486:B1 0
102 *620:18 *911:72 0
103 *805:12 *2486:B1 0.000146992
104 *805:148 *2562:A2 0.000695773
105 *811:20 *2529:A2 0.000135157
106 *811:26 *2529:A2 3.48705e-05
107 *811:143 *911:72 0
108 *822:59 *911:78 0
109 *826:26 *911:25 4.0028e-05
110 *827:62 *2562:A2 3.53079e-05
111 *827:62 *911:131 8.11174e-05
112 *829:37 *911:25 0
113 *830:31 *911:25 0
114 *838:40 *2562:A2 0.000376754
115 *838:44 *2562:A2 0.000202842
116 *838:54 *2473:A2 2.96174e-05
117 *852:40 *911:72 0
118 *854:79 *911:72 4.15897e-06
119 *855:113 *2486:B1 0.000442628
120 *856:12 *2486:B1 1.40306e-05
121 *856:60 *911:72 6.91215e-06
122 *858:15 *2451:A2 0.000443648
123 *860:34 *2607:A2 0
124 *860:34 *911:46 0.000565529
125 *860:34 *911:54 9.58393e-05
126 *860:36 *911:46 0.000313241
127 *860:65 *2486:B1 0
128 *874:24 *2473:A2 2.14757e-05
129 *875:122 *2466:B1 5.71472e-05
130 *875:122 *911:25 0.000249835
131 *881:57 *2486:B1 0
132 *894:37 *2486:B1 1.59689e-05
133 *896:33 *911:54 0
134 *896:40 *2529:A2 5.52238e-05
135 *896:40 *911:159 4.43256e-05
136 *898:118 *911:72 0
*RES
1 *3200:X *911:4 9.3 
2 *911:4 *2466:B1 12.3179 
3 *911:4 *911:25 31.4643 
4 *911:25 *2486:B1 44.8893 
5 *911:25 *911:46 16.125 
6 *911:46 *911:54 9.46429 
7 *911:54 *911:72 26.7991 
8 *911:72 *911:78 5.03571 
9 *911:78 *911:92 16.5045 
10 *911:92 *2551:A2 9.3 
11 *911:92 *2473:A2 31.0812 
12 *911:78 *2451:A2 18.4607 
13 *911:72 *911:131 7.08929 
14 *911:131 *2573:B1 9.72857 
15 *911:131 *2562:A2 41.1795 
16 *911:54 *911:159 7.51786 
17 *911:159 *2583:A2 9.3 
18 *911:159 *2529:A2 37.1616 
19 *911:46 *2607:A2 9.72857 
*END

*D_NET *912 0.0186399
*CONN
*I *2601:B1 I *D sky130_fd_sc_hd__a221o_1
*I *2499:B1 I *D sky130_fd_sc_hd__a22o_1
*I *2508:B1 I *D sky130_fd_sc_hd__a22o_1
*I *2617:A2 I *D sky130_fd_sc_hd__a221o_1
*I *2547:B1 I *D sky130_fd_sc_hd__a221o_1
*I *2409:B I *D sky130_fd_sc_hd__nand2_1
*I *2519:B1 I *D sky130_fd_sc_hd__a22o_1
*I *3201:X O *D sky130_fd_sc_hd__clkbuf_2
*CAP
1 *2601:B1 0
2 *2499:B1 0
3 *2508:B1 4.75755e-05
4 *2617:A2 9.21094e-06
5 *2547:B1 0.000695803
6 *2409:B 7.86389e-05
7 *2519:B1 0.000683929
8 *3201:X 0.00014997
9 *912:62 0.000877988
10 *912:58 0.00116868
11 *912:43 0.00233917
12 *912:27 0.00154311
13 *912:12 0.00100854
14 *912:10 0.000243874
15 *2519:B1 *2519:A2 0.000106177
16 *2547:B1 *2518:A2 0
17 *2617:A2 *917:90 3.33174e-05
18 *912:27 *2499:A2 0.000955701
19 *912:43 *2464:A2 4.53515e-05
20 *912:62 *2508:A2 0
21 *2499:B2 *912:27 5.33005e-05
22 *2508:A1 *2508:B1 0.00014183
23 *2508:A1 *912:58 0
24 *2508:B2 *912:62 1.76039e-05
25 *2509:A1 *912:43 5.33005e-05
26 *2509:C1 *2508:B1 7.15962e-05
27 *2509:C1 *912:43 0.00026771
28 *2509:C1 *912:58 0.00117366
29 *2517:A1 *2547:B1 1.69115e-05
30 *2518:C1 *2547:B1 9.55467e-05
31 *2547:A1 *2547:B1 0.000294422
32 *2548:B1 *2547:B1 2.28544e-05
33 *2548:B2 *2547:B1 0
34 *2614:B2 *2519:B1 0.000393091
35 *2617:A1 *2617:A2 3.33174e-05
36 *2625:B1 *2547:B1 0.000168199
37 *2844:GATE_N *2547:B1 0.000443804
38 *2931:D *912:43 0.000350624
39 *2939:GATE_N *2519:B1 0.000499156
40 *2939:GATE_N *912:10 5.90989e-05
41 *2939:GATE_N *912:12 0.000208678
42 *3129:A *912:43 0.000227117
43 *3145:A *2519:B1 0.000185824
44 *3160:A *2519:B1 0.000358163
45 *3188:A *912:43 2.57858e-05
46 *3190:A *2519:B1 0
47 *671:26 *2547:B1 0
48 *806:48 *2409:B 4.97821e-05
49 *808:78 *912:27 9.58593e-05
50 *812:55 *2519:B1 1.21955e-05
51 *812:76 *2519:B1 0.000846789
52 *823:8 *912:27 0.000156563
53 *823:20 *912:27 2.15245e-05
54 *829:37 *2519:B1 0
55 *830:6 *912:43 0.000175894
56 *838:28 *2547:B1 7.84381e-05
57 *838:28 *912:62 2.37761e-05
58 *838:34 *2547:B1 0.000141382
59 *839:79 *2547:B1 0.000706486
60 *865:21 *2547:B1 0.000162118
61 *865:25 *2547:B1 0.000173804
62 *866:39 *912:10 4.73569e-05
63 *893:37 *912:10 0.000139485
64 *893:97 *2409:B 0.00011746
65 *899:29 *2519:B1 0.000145876
66 *899:29 *912:10 0.000158977
67 *899:29 *912:12 0.000237493
*RES
1 *3201:X *912:10 17.4071 
2 *912:10 *912:12 3.16071 
3 *912:12 *2519:B1 33.8357 
4 *912:12 *912:27 13.6607 
5 *912:27 *912:43 27.5893 
6 *912:43 *2409:B 19.9429 
7 *912:43 *912:58 12.875 
8 *912:58 *912:62 7.66071 
9 *912:62 *2547:B1 35.175 
10 *912:62 *2617:A2 14.1304 
11 *912:58 *2508:B1 11.0679 
12 *912:27 *2499:B1 9.3 
13 *912:10 *2601:B1 13.8 
*END

*D_NET *913 0.00140734
*CONN
*I *2660:A1 I *D sky130_fd_sc_hd__mux2_1
*I *3255:X O *D sky130_fd_sc_hd__clkbuf_1
*CAP
1 *2660:A1 0.00032328
2 *3255:X 0.00032328
3 *2660:A1 *2660:A0 0.000141985
4 *2660:A1 *2661:A1 0.000267454
5 PSEL4 *2660:A1 9.86823e-05
6 *3255:A *2660:A1 0.000132426
7 *3256:A *2660:A1 0.000101797
8 *794:12 *2660:A1 1.8441e-05
*RES
1 *3255:X *2660:A1 36.9929 
*END

*D_NET *914 0.0252556
*CONN
*I *2606:A2 I *D sky130_fd_sc_hd__a221o_1
*I *2528:A2 I *D sky130_fd_sc_hd__a22o_1
*I *2561:B1 I *D sky130_fd_sc_hd__a22o_1
*I *2540:B1 I *D sky130_fd_sc_hd__a221o_1
*I *2585:A2 I *D sky130_fd_sc_hd__a22o_1
*I *2487:A2 I *D sky130_fd_sc_hd__a221o_1
*I *2574:A2 I *D sky130_fd_sc_hd__a22o_1
*I *2453:B1 I *D sky130_fd_sc_hd__a22o_1
*I *2552:B1 I *D sky130_fd_sc_hd__a22o_1
*I *2476:A2 I *D sky130_fd_sc_hd__a221o_1
*I *3202:X O *D sky130_fd_sc_hd__clkbuf_4
*CAP
1 *2606:A2 2.46444e-05
2 *2528:A2 0
3 *2561:B1 0.000394647
4 *2540:B1 2.01123e-05
5 *2585:A2 0.000324734
6 *2487:A2 1.04544e-05
7 *2574:A2 2.86027e-05
8 *2453:B1 0.000853989
9 *2552:B1 0
10 *2476:A2 0.000365972
11 *3202:X 7.81079e-05
12 *914:157 0.000856247
13 *914:151 0.00202678
14 *914:118 0.00192062
15 *914:95 0.00121819
16 *914:22 0.000465852
17 *914:18 0.00140017
18 *914:16 0.000866826
19 *914:10 0.000634244
20 *914:6 0.000843468
21 *2453:B1 *2453:A2 2.86214e-05
22 *2476:A2 *918:55 7.88459e-05
23 *2561:B1 *2474:A2 1.89507e-06
24 *2561:B1 *916:111 0
25 *2561:B1 *916:115 1.71279e-05
26 *2561:B1 *994:18 3.18676e-05
27 *2585:A2 *2540:A2 0.000114913
28 *2585:A2 *918:124 0.00014145
29 *914:10 *918:10 0.000213012
30 *914:95 *918:109 0
31 *914:118 *2540:A2 0.000521565
32 *914:118 *918:124 0.000270482
33 *914:151 *2608:A2 2.95726e-05
34 *914:151 *918:147 4.71247e-05
35 *2453:A1 *2453:B1 0
36 *2454:C1 *2453:B1 6.05161e-06
37 *2476:B1 *2476:A2 3.10819e-05
38 *2476:C1 *2476:A2 9.60337e-06
39 *2481:A *2476:A2 0.000898913
40 *2482:B2 *2476:A2 0.000879456
41 *2486:A1 *914:16 1.08359e-05
42 *2528:A1 *2561:B1 0.000286986
43 *2528:B2 *2561:B1 0
44 *2529:B1 *914:157 0.000137983
45 *2529:C1 *914:157 4.87854e-05
46 *2540:B2 *914:151 1.28809e-05
47 *2541:A1 *914:118 2.70095e-05
48 *2541:B2 *914:118 0.000119767
49 *2548:B1 *914:151 0.000869937
50 *2562:B1 *2561:B1 0
51 *2564:C1 *2487:A2 3.28686e-05
52 *2574:A1 *2574:A2 5.71472e-05
53 *2574:B1 *2574:A2 5.52238e-05
54 *2574:B2 *914:16 9.25014e-06
55 *2574:B2 *914:18 0.00012401
56 *2586:C1 *2585:A2 5.52302e-05
57 *2605:B2 *914:151 0
58 *2606:A1 *914:157 9.87648e-05
59 *2606:B1 *2606:A2 1.89507e-06
60 *2608:B2 *914:151 8.67774e-06
61 *2655:S *2561:B1 0.000151816
62 *2870:GATE_N *914:95 0
63 *2900:GATE_N *914:95 0
64 *2902:GATE_N *914:95 0
65 *2903:D *2476:A2 3.4323e-06
66 *2903:D *914:18 8.58445e-05
67 *2903:D *914:22 3.49114e-05
68 *2926:D *2453:B1 1.55953e-05
69 *2937:GATE_N *2453:B1 5.52238e-05
70 *2942:GATE_N *2476:A2 7.70764e-08
71 *3030:D *914:95 0
72 *3036:GATE_N *914:151 0
73 *3046:GATE_N *2561:B1 0.000355352
74 *3046:GATE_N *914:157 7.50697e-05
75 *3047:GATE_N *914:22 0
76 *3084:D *914:151 3.62987e-05
77 *3157:A *914:157 3.34078e-05
78 *3159:A *914:95 3.14163e-05
79 *3186:A *914:95 4.17564e-05
80 *3202:A *914:6 2.89114e-05
81 *381:16 *914:10 0
82 *381:16 *914:16 0
83 *381:16 *914:18 0
84 *381:18 *914:10 0.000116701
85 *389:10 *2476:A2 2.95746e-06
86 *441:31 *914:157 0
87 *499:38 *2585:A2 0.000259035
88 *551:22 *2561:B1 0.000144353
89 *807:18 *914:118 5.91336e-05
90 *807:115 *914:151 2.98576e-05
91 *807:119 *914:157 0.000524486
92 *809:111 *2561:B1 3.25078e-05
93 *809:115 *2561:B1 0.000171375
94 *811:52 *914:16 0.000285271
95 *825:41 *914:10 0.000591794
96 *825:41 *914:16 0.000137224
97 *825:43 *914:16 0.000361944
98 *825:43 *914:18 0.000141236
99 *825:51 *2453:B1 0.000331637
100 *825:51 *914:18 4.03577e-05
101 *825:51 *914:22 9.71118e-06
102 *825:61 *2453:B1 0
103 *829:37 *914:95 0
104 *830:71 *914:151 4.15592e-05
105 *830:90 *914:151 4.58703e-05
106 *847:131 *914:118 4.97097e-05
107 *847:131 *914:151 0.000150065
108 *848:16 *914:151 0.000138881
109 *852:16 *914:6 0.000219711
110 *852:16 *914:95 0.000135028
111 *854:42 *2574:A2 0.00014285
112 *858:34 *2453:B1 3.14193e-05
113 *861:14 *2606:A2 8.22793e-06
114 *861:14 *914:151 0.000883044
115 *861:14 *914:157 5.32787e-05
116 *861:79 *914:157 0
117 *863:8 *914:6 4.00825e-05
118 *863:38 *914:6 8.25843e-06
119 *863:38 *914:95 5.74499e-06
120 *871:10 *914:10 3.4323e-05
121 *871:10 *914:16 1.78353e-05
122 *872:18 *2487:A2 3.28686e-05
123 *894:29 *914:95 0.000469255
124 *894:112 *914:118 0.000232208
125 *894:112 *914:151 0.000387439
126 *894:127 *914:151 0.000137042
127 *894:142 *2561:B1 4.46186e-06
128 *894:142 *914:157 0
129 *898:161 *914:157 0
130 *911:25 *914:118 0.000185283
*RES
1 *3202:X *914:6 11.4786 
2 *914:6 *914:10 12.2143 
3 *914:10 *914:16 8.78571 
4 *914:16 *914:18 8.92857 
5 *914:18 *914:22 1.57143 
6 *914:22 *2476:A2 24.7014 
7 *914:22 *2552:B1 13.8 
8 *914:18 *2453:B1 34.5679 
9 *914:16 *2574:A2 15.1571 
10 *914:10 *2487:A2 14.1304 
11 *914:6 *914:95 19.5893 
12 *914:95 *2585:A2 16.5679 
13 *914:95 *914:118 20.8393 
14 *914:118 *2540:B1 9.72857 
15 *914:118 *914:151 40.9773 
16 *914:151 *914:157 15.5446 
17 *914:157 *2561:B1 28.675 
18 *914:157 *2528:A2 9.3 
19 *914:151 *2606:A2 14.2241 
*END

*D_NET *915 0.0189696
*CONN
*I *2407:B I *D sky130_fd_sc_hd__nand2_1
*I *2616:B1 I *D sky130_fd_sc_hd__a22o_1
*I *2464:B1 I *D sky130_fd_sc_hd__a221o_1
*I *2520:A2 I *D sky130_fd_sc_hd__a221o_1
*I *2509:B1 I *D sky130_fd_sc_hd__a221o_1
*I *2498:B1 I *D sky130_fd_sc_hd__a221o_1
*I *2594:B1 I *D sky130_fd_sc_hd__a22o_1
*I *3203:X O *D sky130_fd_sc_hd__clkbuf_2
*CAP
1 *2407:B 2.67562e-05
2 *2616:B1 0.000500958
3 *2464:B1 0
4 *2520:A2 0.000885547
5 *2509:B1 0.000289472
6 *2498:B1 0
7 *2594:B1 0.000256111
8 *3203:X 0
9 *915:81 0.00154058
10 *915:54 0.0014921
11 *915:48 0.00177226
12 *915:33 0.000924753
13 *915:27 0.00160374
14 *915:4 0.00163206
15 *2509:B1 *2639:A 2.04825e-05
16 *2509:B1 *918:147 7.46207e-05
17 *2509:B1 *919:49 0.000309661
18 *2509:B1 *962:16 7.39741e-05
19 *2520:A2 *918:147 0.000119907
20 *2520:A2 *919:51 0.000358977
21 *2594:B1 *919:29 1.92905e-05
22 *2616:B1 *917:79 0.000140997
23 *2616:B1 *962:16 2.03578e-05
24 *915:27 *2648:A0 0.000307533
25 *915:27 *919:29 5.23057e-05
26 *915:33 *2498:A2 0.000249439
27 *915:33 *2648:A0 0.000239796
28 *915:48 *2648:A0 0
29 *915:54 *962:16 2.14955e-05
30 *915:81 *919:49 0.000133756
31 *2419:A *2407:B 2.59355e-05
32 *2423:A *2509:B1 4.92774e-05
33 *2463:A1 *2520:A2 0.000309266
34 *2463:B1 *2520:A2 4.72818e-05
35 *2464:B2 *915:81 7.41875e-05
36 *2464:C1 *2520:A2 0.000272371
37 *2497:B1 *915:48 5.4826e-05
38 *2497:B2 *915:48 0
39 *2498:B2 *915:33 6.69782e-05
40 *2498:B2 *915:48 5.71472e-05
41 *2503:B *915:33 0.000185643
42 *2520:B1 *2520:A2 1.58163e-05
43 *2520:B2 *2520:A2 1.28809e-05
44 *2594:A1 *2594:B1 0.000103253
45 *2617:C1 *2616:B1 0
46 *2618:A2 *915:81 5.33005e-05
47 *2895:D *2520:A2 9.71197e-05
48 *2895:GATE_N *2520:A2 0.00010096
49 *2899:GATE_N *915:48 0.000250201
50 *2932:GATE_N *2520:A2 0.000685353
51 *3037:GATE_N *915:54 0.000395492
52 *3109:A *915:48 0
53 *3113:A *915:27 0.00103902
54 *3122:A *2509:B1 0.000175892
55 *3126:A *2509:B1 0.000264748
56 *3126:A *915:54 2.04825e-05
57 *3126:A *915:81 0.00028817
58 *3188:A *2520:A2 0
59 *441:10 *2407:B 5.33005e-05
60 *441:31 *915:48 0
61 *580:20 *2520:A2 0.000201819
62 *811:10 *915:48 3.00454e-05
63 *811:20 *915:48 0.000401448
64 *839:75 *915:48 0
65 *841:17 *2407:B 1.36709e-05
66 *841:21 *915:33 0.000242446
67 *881:31 *2594:B1 0
68 *889:56 *2594:B1 0
69 *893:63 *915:48 8.49755e-06
70 *893:97 *915:48 0.000170381
71 *897:47 *915:81 0.000135442
*RES
1 *3203:X *915:4 9.3 
2 *915:4 *2594:B1 22.9071 
3 *915:4 *915:27 26.4554 
4 *915:27 *915:33 11.1161 
5 *915:33 *2498:B1 9.3 
6 *915:33 *915:48 24.6607 
7 *915:48 *915:54 11.4732 
8 *915:54 *2509:B1 22.2018 
9 *915:54 *915:81 16.3839 
10 *915:81 *2520:A2 39.4473 
11 *915:81 *2464:B1 9.3 
12 *915:48 *2616:B1 15.6036 
13 *915:27 *2407:B 14.5054 
*END

*D_NET *916 0.0265303
*CONN
*I *2605:A2 I *D sky130_fd_sc_hd__a22o_1
*I *2584:A2 I *D sky130_fd_sc_hd__a221o_1
*I *2547:A2 I *D sky130_fd_sc_hd__a221o_1
*I *2561:A2 I *D sky130_fd_sc_hd__a22o_1
*I *2474:A2 I *D sky130_fd_sc_hd__a221o_1
*I *2553:A2 I *D sky130_fd_sc_hd__a221o_1
*I *2453:A2 I *D sky130_fd_sc_hd__a22o_1
*I *2575:A2 I *D sky130_fd_sc_hd__a221o_1
*I *2486:A2 I *D sky130_fd_sc_hd__a22o_1
*I *2531:B1 I *D sky130_fd_sc_hd__a221o_1
*I *3204:X O *D sky130_fd_sc_hd__clkbuf_4
*CAP
1 *2605:A2 0.000738165
2 *2584:A2 0
3 *2547:A2 0.00071205
4 *2561:A2 0
5 *2474:A2 0.00120159
6 *2553:A2 0.000163496
7 *2453:A2 0.000176511
8 *2575:A2 0
9 *2486:A2 1.13923e-05
10 *2531:B1 7.43102e-05
11 *3204:X 0
12 *916:115 0.00131438
13 *916:111 0.00136225
14 *916:103 0.000765094
15 *916:95 0.00188806
16 *916:50 0.000751271
17 *916:32 0.00117512
18 *916:19 0.000936419
19 *916:15 0.00168835
20 *916:4 0.000352284
21 *2531:B1 *2531:A2 0.000160787
22 *2605:A2 *2614:A2 1.69115e-05
23 *2605:A2 *932:49 8.6229e-06
24 *916:15 *2531:A2 0.000398822
25 *916:15 *918:21 0.000198739
26 *916:95 *2484:A2 0.000209944
27 *916:95 *918:21 9.31893e-05
28 *916:103 *932:49 0.000195849
29 *2453:B1 *2453:A2 2.86214e-05
30 *2454:B1 *2453:A2 0
31 *2474:A1 *2474:A2 0.000437346
32 *2484:B2 *916:95 9.71197e-05
33 *2486:B1 *916:19 4.1331e-06
34 *2486:B1 *916:32 0
35 *2486:B2 *916:19 0
36 *2487:C1 *2486:A2 2.89016e-05
37 *2487:C1 *916:19 0.00014105
38 *2529:A1 *2547:A2 0
39 *2529:A2 *2605:A2 0
40 *2531:B2 *2531:B1 5.7661e-06
41 *2537:B1 *2547:A2 0.000102196
42 *2537:B2 *916:95 3.72659e-05
43 *2547:B2 *2547:A2 4.86152e-05
44 *2553:A1 *2553:A2 9.03406e-05
45 *2553:B2 *2553:A2 1.28809e-05
46 *2553:C1 *2553:A2 0.000221634
47 *2553:C1 *916:50 2.61337e-05
48 *2560:B *2474:A2 2.79888e-05
49 *2561:A1 *2474:A2 9.96264e-05
50 *2561:B1 *2474:A2 1.89507e-06
51 *2561:B1 *916:111 0
52 *2561:B1 *916:115 1.71279e-05
53 *2562:B1 *916:111 3.75052e-05
54 *2575:A1 *916:50 5.74511e-05
55 *2575:B1 *916:50 6.2198e-05
56 *2575:B2 *2453:A2 2.8266e-06
57 *2575:B2 *916:50 2.85616e-05
58 *2575:C1 *916:50 0.000306317
59 *2583:A1 *916:95 5.71472e-05
60 *2583:B2 *916:95 5.68722e-05
61 *2584:B1 *916:103 2.59089e-05
62 *2584:B1 *916:111 0
63 *2584:B2 *916:103 1.35999e-05
64 *2584:B2 *916:111 0
65 *2584:C1 *2605:A2 0.000273406
66 *2584:C1 *916:103 0.000195378
67 *2592:B1 *916:111 4.62969e-05
68 *2606:C1 *2605:A2 8.76099e-05
69 *2614:A1 *2605:A2 0.00051385
70 *2655:S *916:111 0.000154576
71 *2655:S *916:115 0.000148903
72 *2844:D *2605:A2 0
73 *2919:D *916:50 8.90371e-05
74 *2921:D *2453:A2 4.46186e-06
75 *2937:GATE_N *2453:A2 0.000141832
76 *2944:GATE_N *2474:A2 0
77 *2952:GATE_N *2474:A2 0.000191923
78 *2952:GATE_N *2547:A2 3.69047e-06
79 *2952:GATE_N *916:115 0.000148429
80 *2954:D *916:95 0.00040381
81 *3030:GATE_N *916:19 1.94879e-05
82 *3040:D *2474:A2 0.000122101
83 *3040:GATE_N *2474:A2 0.000374065
84 *3040:GATE_N *2547:A2 5.33005e-05
85 *3040:GATE_N *916:111 3.17148e-05
86 *3040:GATE_N *916:115 3.45894e-05
87 *3045:D *916:111 0.000524807
88 *3050:GATE_N *916:95 0.000167998
89 *3054:GATE_N *916:50 0.000247038
90 *3063:GATE_N *2474:A2 0
91 *3084:GATE_N *2605:A2 0.000364484
92 *3151:A *916:32 0
93 *3151:A *916:50 0
94 *3153:A *2486:A2 5.71472e-05
95 *3167:A *916:19 0
96 *3167:A *916:95 0.000137983
97 *385:8 *916:19 0
98 *385:8 *916:32 0.000278677
99 *385:8 *916:50 1.08359e-05
100 *585:24 *2531:B1 5.33005e-05
101 *605:18 *2553:A2 1.98839e-05
102 *605:18 *916:50 0.000733643
103 *805:12 *916:95 0.000498444
104 *805:34 *2531:B1 0.000165248
105 *805:34 *916:15 0.000114655
106 *807:121 *2474:A2 0
107 *809:20 *916:95 8.55871e-05
108 *811:36 *916:19 0.000390003
109 *825:43 *916:32 0
110 *825:61 *2453:A2 5.71472e-05
111 *830:71 *2605:A2 5.04216e-05
112 *838:34 *2547:A2 0
113 *838:40 *2547:A2 0
114 *852:47 *916:95 0.000353266
115 *856:12 *916:19 3.80667e-05
116 *858:34 *2453:A2 0.00018372
117 *859:24 *2553:A2 0.000375337
118 *859:24 *916:32 1.02504e-05
119 *859:24 *916:50 0.000203913
120 *860:34 *2605:A2 0
121 *865:59 *2605:A2 0.000137983
122 *872:12 *916:15 9.46929e-05
123 *872:12 *916:95 0.000171231
124 *874:53 *2474:A2 7.32173e-05
125 *884:16 *2547:A2 0.000708066
126 *892:39 *2531:B1 4.35881e-05
127 *892:86 *916:95 0.000235891
128 *894:37 *916:32 0
129 *894:127 *2605:A2 4.38604e-05
130 *896:33 *2605:A2 0
131 *896:44 *2605:A2 0.000114838
132 *896:48 *2605:A2 7.59771e-05
*RES
1 *3204:X *916:4 9.3 
2 *916:4 *2531:B1 12.3179 
3 *916:4 *916:15 7.51786 
4 *916:15 *916:19 14.0357 
5 *916:19 *2486:A2 14.3357 
6 *916:19 *916:32 8.05357 
7 *916:32 *916:50 19.8616 
8 *916:50 *2575:A2 9.3 
9 *916:50 *2453:A2 22.4429 
10 *916:32 *2553:A2 19.0366 
11 *916:15 *916:95 27.6607 
12 *916:95 *916:103 9.57589 
13 *916:103 *916:111 14.7812 
14 *916:111 *916:115 3.39286 
15 *916:115 *2474:A2 35.0723 
16 *916:115 *2561:A2 13.8 
17 *916:111 *2547:A2 37.6125 
18 *916:103 *2584:A2 9.3 
19 *916:95 *2605:A2 31.675 
*END

*D_NET *917 0.020303
*CONN
*I *2405:B I *D sky130_fd_sc_hd__nand2_1
*I *2508:A2 I *D sky130_fd_sc_hd__a22o_1
*I *2518:A2 I *D sky130_fd_sc_hd__a221o_1
*I *2616:A2 I *D sky130_fd_sc_hd__a22o_1
*I *2497:A2 I *D sky130_fd_sc_hd__a22o_1
*I *2595:A2 I *D sky130_fd_sc_hd__a221o_1
*I *2465:B1 I *D sky130_fd_sc_hd__a22o_1
*I *3205:X O *D sky130_fd_sc_hd__clkbuf_2
*CAP
1 *2405:B 0.000292649
2 *2508:A2 0.000150827
3 *2518:A2 0.000381113
4 *2616:A2 2.03441e-05
5 *2497:A2 0
6 *2595:A2 0
7 *2465:B1 0
8 *3205:X 0
9 *917:90 0.000708003
10 *917:79 0.000695569
11 *917:73 0.00106073
12 *917:62 0.001213
13 *917:34 0.0017687
14 *917:8 0.00190788
15 *917:4 0.00108326
16 *2508:A2 *2515:A2 0
17 *917:34 *2464:A2 0.000755573
18 *917:34 *2465:A2 3.50587e-05
19 *917:34 *2466:A2 1.46576e-05
20 *917:34 *2471:A2 0.000699151
21 *917:34 *919:35 0
22 *917:34 *922:47 3.10922e-05
23 *917:34 *933:82 7.97198e-05
24 *917:62 *933:10 9.58181e-05
25 *917:79 *962:16 0.0001863
26 *917:79 *962:60 0.000127647
27 *917:90 *962:60 0.000738138
28 *2465:A1 *917:34 4.60636e-05
29 *2466:B1 *917:34 9.38789e-05
30 *2466:B2 *917:34 2.84269e-05
31 *2466:C1 *917:34 5.52302e-05
32 *2470:A *917:34 0.000139631
33 *2471:A1 *917:34 0.000186662
34 *2496:B2 *917:34 0
35 *2497:A1 *917:62 4.52029e-05
36 *2497:B2 *917:62 0.000230482
37 *2503:A *917:62 6.05161e-06
38 *2503:B *917:62 0.000129068
39 *2504:B1 *917:62 9.21418e-06
40 *2506:B1 *917:73 0
41 *2507:B1 *917:62 9.70295e-05
42 *2507:B1 *917:73 6.87146e-05
43 *2508:B2 *2508:A2 0
44 *2518:C1 *2518:A2 0
45 *2547:B1 *2518:A2 0
46 *2595:A1 *917:8 3.17245e-05
47 *2595:A1 *917:34 0.000130691
48 *2595:B1 *917:8 0.000142392
49 *2595:B1 *917:34 4.05152e-05
50 *2603:B1 *917:34 0
51 *2603:B2 *917:34 5.74009e-05
52 *2616:B1 *917:79 0.000140997
53 *2617:A1 *2518:A2 0.00010326
54 *2617:A1 *917:90 0.000149532
55 *2617:A2 *917:90 3.33174e-05
56 *2617:B1 *917:90 5.01795e-05
57 *2617:B2 *917:90 2.85551e-05
58 *2617:C1 *2616:A2 5.7661e-06
59 *2617:C1 *917:90 0.000137983
60 *2625:B1 *2518:A2 0
61 *2625:B2 *2518:A2 3.00014e-05
62 *2914:D *917:62 0.000209306
63 *2939:GATE_N *917:34 0.000178847
64 *3058:D *917:62 4.30454e-05
65 *3111:A *2405:B 2.06112e-05
66 *3112:A *917:62 3.94285e-06
67 *3112:A *917:73 5.83233e-05
68 *3143:A *2518:A2 0.00028996
69 *3143:A *917:90 5.49489e-05
70 *3188:A *917:34 0
71 *382:10 *2518:A2 0.000126439
72 *441:31 *917:73 0.000346681
73 *441:31 *917:79 0.000574214
74 *477:30 *917:62 9.77423e-05
75 *498:16 *917:8 0.000113378
76 *498:16 *917:34 8.7636e-06
77 *651:26 *917:34 9.20274e-05
78 *671:26 *2518:A2 4.5539e-05
79 *806:10 *917:73 5.7836e-06
80 *806:12 *2405:B 0.000451599
81 *806:14 *2405:B 0.000381658
82 *808:20 *917:73 0
83 *808:20 *917:79 0
84 *808:22 *917:79 0
85 *808:54 *2405:B 0.000124035
86 *811:10 *917:73 2.79421e-05
87 *826:26 *917:34 0.000700535
88 *828:48 *917:62 0.000178847
89 *830:31 *917:34 9.32406e-05
90 *839:16 *917:34 5.7903e-06
91 *839:50 *917:62 4.8794e-05
92 *839:75 *917:62 3.55279e-05
93 *845:8 *2518:A2 3.64272e-05
94 *865:6 *2518:A2 8.7636e-06
95 *869:66 *917:62 5.55136e-05
96 *869:74 *917:62 2.09072e-05
97 *875:122 *917:34 0.000272521
98 *893:59 *2405:B 0.000496444
99 *897:29 *917:8 0.000297849
100 *897:29 *917:62 7.48301e-06
101 *897:97 *917:62 0.000526407
102 *912:62 *2508:A2 0
*RES
1 *3205:X *917:4 9.3 
2 *917:4 *917:8 4.63839 
3 *917:8 *917:34 45.6652 
4 *917:34 *2465:B1 9.3 
5 *917:8 *2595:A2 9.3 
6 *917:4 *917:62 27.5 
7 *917:62 *2497:A2 9.3 
8 *917:62 *917:73 10.2768 
9 *917:73 *917:79 16.7054 
10 *917:79 *2616:A2 9.72857 
11 *917:79 *917:90 11.6071 
12 *917:90 *2518:A2 22.0187 
13 *917:90 *2508:A2 16.3536 
14 *917:73 *2405:B 22.241 
*END

*D_NET *918 0.0249381
*CONN
*I *2509:A2 I *D sky130_fd_sc_hd__a221o_1
*I *2541:B1 I *D sky130_fd_sc_hd__a22o_1
*I *2586:A2 I *D sky130_fd_sc_hd__a221o_1
*I *2484:A2 I *D sky130_fd_sc_hd__a22o_1
*I *2563:A2 I *D sky130_fd_sc_hd__a22o_1
*I *2573:A2 I *D sky130_fd_sc_hd__a221o_1
*I *2452:A2 I *D sky130_fd_sc_hd__a221o_1
*I *2552:A2 I *D sky130_fd_sc_hd__a22o_1
*I *2475:A2 I *D sky130_fd_sc_hd__a22o_1
*I *2531:A2 I *D sky130_fd_sc_hd__a221o_1
*I *3206:X O *D sky130_fd_sc_hd__clkbuf_4
*CAP
1 *2509:A2 0
2 *2541:B1 1.56025e-05
3 *2586:A2 6.11924e-05
4 *2484:A2 0.000121822
5 *2563:A2 3.01817e-05
6 *2573:A2 0.000722369
7 *2452:A2 0
8 *2552:A2 0.000188335
9 *2475:A2 0.000349974
10 *2531:A2 0.000121745
11 *3206:X 0
12 *918:147 0.00165957
13 *918:124 0.00234968
14 *918:109 0.000915254
15 *918:55 0.00115549
16 *918:42 0.000621461
17 *918:29 0.000888518
18 *918:25 0.000863186
19 *918:21 0.000586432
20 *918:10 0.000478831
21 *918:6 0.000366487
22 *2475:A2 *2646:A0 0.00017096
23 *2475:A2 *2654:A0 0
24 *2573:A2 *2460:A2 9.25014e-06
25 *2573:A2 *932:70 0.000383288
26 *2573:A2 *932:72 0.000135904
27 *2573:A2 *1003:14 0.000146474
28 *918:10 *920:26 3.51442e-05
29 *918:109 *920:26 2.21972e-05
30 *918:147 *2608:A2 7.6069e-05
31 *918:147 *933:18 0.000255096
32 *2423:A *918:147 0.000120357
33 *2452:B1 *2573:A2 0.000114363
34 *2452:B2 *2573:A2 8.67774e-06
35 *2464:C1 *918:147 5.37696e-05
36 *2476:A2 *918:55 7.88459e-05
37 *2476:B2 *918:29 0.000125241
38 *2476:B2 *918:55 8.2568e-05
39 *2476:C1 *2475:A2 0.000150545
40 *2476:C1 *918:29 8.09146e-06
41 *2484:B2 *2484:A2 9.71197e-05
42 *2486:B1 *2563:A2 2.89016e-05
43 *2486:B1 *918:25 0.000775891
44 *2486:B1 *918:29 2.59093e-05
45 *2503:C *918:147 2.03875e-05
46 *2509:B1 *918:147 7.46207e-05
47 *2520:A2 *918:147 0.000119907
48 *2531:B1 *2531:A2 0.000160787
49 *2541:A1 *2541:B1 1.38106e-05
50 *2541:A1 *918:124 2.14757e-05
51 *2541:A1 *918:147 2.12002e-05
52 *2545:B *918:147 1.07719e-05
53 *2553:B1 *918:29 0
54 *2553:B2 *918:29 7.27894e-05
55 *2553:C1 *2552:A2 6.03385e-05
56 *2564:C1 *918:25 0.000359489
57 *2573:A1 *2573:A2 1.46576e-05
58 *2585:A2 *918:124 0.00014145
59 *2586:B1 *2586:A2 0.000117508
60 *2646:A1 *2475:A2 0
61 *2841:D *2573:A2 0.000403436
62 *2926:D *2552:A2 0.000533379
63 *2926:D *918:55 0.000642466
64 *2942:GATE_N *2573:A2 7.90536e-05
65 *2942:GATE_N *918:55 0.000200467
66 *3030:GATE_N *918:25 0
67 *3036:GATE_N *918:147 0
68 *3052:GATE_N *918:147 9.71197e-05
69 *3068:D *918:147 7.79781e-06
70 *3122:A *918:147 0.000628677
71 *3129:A *918:147 0.000144478
72 *3145:A *918:109 0.000173568
73 *3145:A *918:124 0.000114514
74 *3167:A *2484:A2 4.08637e-05
75 *3167:A *918:21 9.71197e-05
76 *3167:A *918:25 0.000117316
77 *3186:A *2586:A2 5.33005e-05
78 *3186:A *918:124 0.000100474
79 *3188:A *918:147 0
80 *3214:A *918:147 0.000110241
81 *381:18 *918:10 0.000431504
82 *381:18 *918:109 0.000146684
83 *385:8 *2475:A2 0.000280449
84 *385:8 *918:25 7.8894e-05
85 *385:8 *918:29 0.000976685
86 *448:28 *918:147 1.31516e-05
87 *449:24 *918:147 0
88 *807:18 *918:124 5.20359e-06
89 *807:18 *918:147 2.01696e-05
90 *807:115 *918:147 0.000214906
91 *822:39 *918:147 0.000178847
92 *823:8 *918:147 5.73015e-05
93 *825:41 *918:10 9.30065e-05
94 *825:41 *918:109 8.82771e-05
95 *825:51 *2552:A2 7.43578e-06
96 *847:125 *2586:A2 0.000199235
97 *859:24 *2573:A2 9.60939e-05
98 *859:56 *2573:A2 1.33343e-05
99 *881:39 *918:147 0
100 *881:55 *918:147 0
101 *892:39 *2531:A2 4.11175e-05
102 *892:86 *2484:A2 0.000481568
103 *892:86 *2531:A2 0.000243771
104 *892:86 *918:21 0.000654896
105 *894:29 *918:109 1.5381e-05
106 *911:131 *2573:A2 1.46576e-05
107 *914:10 *918:10 0.000213012
108 *914:95 *918:109 0
109 *914:118 *918:124 0.000270482
110 *914:151 *918:147 4.71247e-05
111 *916:15 *2531:A2 0.000398822
112 *916:15 *918:21 0.000198739
113 *916:95 *2484:A2 0.000209944
114 *916:95 *918:21 9.31893e-05
*RES
1 *3206:X *918:6 13.8 
2 *918:6 *918:10 10.0893 
3 *918:10 *2531:A2 14.5589 
4 *918:10 *918:21 6.71429 
5 *918:21 *918:25 14.6429 
6 *918:25 *918:29 13.4107 
7 *918:29 *2475:A2 21.55 
8 *918:29 *918:42 4.5 
9 *918:42 *2552:A2 14.7821 
10 *918:42 *918:55 11.0268 
11 *918:55 *2452:A2 9.3 
12 *918:55 *2573:A2 42.2777 
13 *918:25 *2563:A2 14.3357 
14 *918:21 *2484:A2 14.3714 
15 *918:6 *918:109 4.375 
16 *918:109 *2586:A2 15.7732 
17 *918:109 *918:124 14.0759 
18 *918:124 *2541:B1 9.85804 
19 *918:124 *918:147 43.4241 
20 *918:147 *2509:A2 9.3 
*END

*D_NET *919 0.0196278
*CONN
*I *2403:B I *D sky130_fd_sc_hd__nand2_1
*I *2498:A2 I *D sky130_fd_sc_hd__a221o_1
*I *2619:A2 I *D sky130_fd_sc_hd__a221o_1
*I *2463:A2 I *D sky130_fd_sc_hd__a22o_1
*I *2519:A2 I *D sky130_fd_sc_hd__a22o_1
*I *2608:A2 I *D sky130_fd_sc_hd__a221o_1
*I *2596:A2 I *D sky130_fd_sc_hd__a22o_1
*I *3207:X O *D sky130_fd_sc_hd__buf_2
*CAP
1 *2403:B 4.56145e-05
2 *2498:A2 0.000281606
3 *2619:A2 3.56866e-05
4 *2463:A2 0
5 *2519:A2 0.00047431
6 *2608:A2 0.00061675
7 *2596:A2 4.87186e-05
8 *3207:X 0.00045911
9 *919:55 0.0012841
10 *919:51 0.000497694
11 *919:49 0.00140896
12 *919:35 0.00203933
13 *919:29 0.00130421
14 *919:14 0.00107732
15 *919:49 *2504:A2 0.000117936
16 *919:49 *933:24 0.000252533
17 *2419:B *919:29 3.66402e-05
18 *2423:A *919:49 0.000186221
19 *2463:A1 *919:55 1.02504e-05
20 *2463:B1 *919:51 0.000786348
21 *2464:C1 *919:51 6.57914e-05
22 *2495:B1 *919:29 6.8646e-06
23 *2495:B2 *919:29 0.000113264
24 *2495:B2 *919:35 9.54798e-06
25 *2498:B2 *2498:A2 0.000122866
26 *2503:B *2498:A2 8.56851e-05
27 *2504:A1 *919:49 0.000134901
28 *2504:B1 *2403:B 7.32272e-05
29 *2509:B1 *919:49 0.000309661
30 *2519:B1 *2519:A2 0.000106177
31 *2520:A2 *919:51 0.000358977
32 *2520:C1 *2519:A2 0.000140933
33 *2594:B1 *919:29 1.92905e-05
34 *2595:B1 *919:35 0
35 *2596:B2 *919:14 4.43256e-05
36 *2605:B1 *919:49 3.93777e-05
37 *2614:B2 *2519:A2 7.47367e-05
38 *2618:A2 *919:49 7.69776e-06
39 *2619:C1 *2619:A2 5.95533e-05
40 *2619:C1 *919:49 7.5779e-05
41 *2619:C1 *919:51 2.89016e-05
42 *2624:A *919:49 6.60111e-05
43 *2900:GATE_N *2519:A2 0.000298447
44 *3042:D *2498:A2 8.06773e-05
45 *3052:GATE_N *2608:A2 3.32631e-05
46 *3058:D *919:29 0.000230475
47 *3113:A *919:29 2.44318e-05
48 *3126:A *919:49 5.06969e-05
49 *3127:A *2498:A2 4.73953e-05
50 *3128:A *919:29 0
51 *3136:A *2498:A2 7.20694e-06
52 *3136:A *919:35 1.91404e-05
53 *3136:A *919:49 9.45773e-05
54 *3138:A *919:49 0.000261416
55 *3145:A *2519:A2 0.00104838
56 *3188:A *919:35 4.53834e-05
57 *3188:A *919:55 0.000133706
58 *3191:A *2596:A2 0.000188586
59 *3191:A *919:14 0.000497212
60 *3203:A *2596:A2 0.000232399
61 *3203:A *919:29 0.000117621
62 *3214:A *919:35 4.79414e-05
63 *477:26 *2403:B 4.88515e-05
64 *489:10 *919:14 6.63058e-05
65 *491:12 *919:14 7.83587e-05
66 *580:20 *2619:A2 5.56572e-05
67 *580:20 *919:51 0.000113073
68 *651:26 *2498:A2 1.76396e-05
69 *660:14 *2519:A2 6.05161e-06
70 *807:18 *2519:A2 6.57914e-05
71 *807:99 *2608:A2 5.41794e-05
72 *807:99 *919:55 9.25014e-06
73 *812:10 *919:29 0.00048746
74 *812:28 *919:29 0
75 *822:39 *2608:A2 2.05938e-05
76 *822:39 *919:55 4.56587e-05
77 *828:18 *919:35 0.000153199
78 *840:10 *919:49 7.44945e-07
79 *848:8 *2519:A2 5.52238e-05
80 *869:10 *919:29 0
81 *869:29 *919:29 0
82 *870:85 *919:29 0.00018372
83 *881:31 *919:29 0
84 *881:39 *919:29 1.94945e-05
85 *881:39 *919:35 0.00027008
86 *881:57 *2608:A2 4.03318e-05
87 *881:57 *919:55 0.000131628
88 *889:56 *2498:A2 0.000121188
89 *889:56 *919:35 0.00044929
90 *894:112 *2608:A2 0.00016182
91 *897:29 *2498:A2 6.52124e-05
92 *914:151 *2608:A2 2.95726e-05
93 *915:27 *919:29 5.23057e-05
94 *915:33 *2498:A2 0.000249439
95 *915:81 *919:49 0.000133756
96 *917:34 *919:35 0
97 *918:147 *2608:A2 7.6069e-05
*RES
1 *3207:X *919:14 26.3357 
2 *919:14 *2596:A2 11.9071 
3 *919:14 *919:29 18.125 
4 *919:29 *919:35 8.55044 
5 *919:35 *919:49 27.69 
6 *919:49 *919:51 9.57143 
7 *919:51 *919:55 9.78571 
8 *919:55 *2608:A2 23.5054 
9 *919:55 *2519:A2 28.3179 
10 *919:51 *2463:A2 9.3 
11 *919:49 *2619:A2 10.4518 
12 *919:35 *2498:A2 22.492 
13 *919:29 *2403:B 15.1571 
*END

*D_NET *920 0.00621433
*CONN
*I *3206:A I *D sky130_fd_sc_hd__clkbuf_4
*I *3371:X O *D sky130_fd_sc_hd__clkbuf_1
*CAP
1 *3206:A 0
2 *3371:X 0.00233403
3 *920:26 0.00233403
4 *2939:GATE_N *920:26 0.000314992
5 *3204:A *920:26 0.000954086
6 *435:12 *920:26 4.88232e-05
7 *825:41 *920:26 4.50033e-05
8 *851:20 *920:26 2.01997e-05
9 *899:29 *920:26 0.000105824
10 *918:10 *920:26 3.51442e-05
11 *918:109 *920:26 2.21972e-05
*RES
1 *3371:X *920:26 41.085 
2 *920:26 *3206:A 9.3 
*END

*D_NET *921 0.0278418
*CONN
*I *2609:A2 I *D sky130_fd_sc_hd__a22o_1
*I *2541:A2 I *D sky130_fd_sc_hd__a22o_1
*I *2489:A2 I *D sky130_fd_sc_hd__a221o_1
*I *2555:A2 I *D sky130_fd_sc_hd__a221o_1
*I *2576:A2 I *D sky130_fd_sc_hd__a22o_1
*I *2534:A2 I *D sky130_fd_sc_hd__a22o_1
*I *2588:A2 I *D sky130_fd_sc_hd__a221o_1
*I *2566:B1 I *D sky130_fd_sc_hd__a221o_1
*I *2456:B1 I *D sky130_fd_sc_hd__a221o_1
*I *2478:B1 I *D sky130_fd_sc_hd__a221o_1
*I *3208:X O *D sky130_fd_sc_hd__clkbuf_4
*CAP
1 *2609:A2 0
2 *2541:A2 0.00225332
3 *2489:A2 0.000152678
4 *2555:A2 0.000656634
5 *2576:A2 0.000306154
6 *2534:A2 6.31443e-05
7 *2588:A2 0.000424006
8 *2566:B1 0
9 *2456:B1 0.000480422
10 *2478:B1 0.000129546
11 *3208:X 0.000125889
12 *921:109 0.00138349
13 *921:46 0.00106584
14 *921:42 0.000583634
15 *921:34 0.00146398
16 *921:30 0.00164792
17 *921:28 0.00151127
18 *921:26 0.00153229
19 *921:14 0.00323545
20 *921:10 0.000146428
21 *2456:B1 *2478:A2 0.0001135
22 *2456:B1 *923:63 0.000172536
23 *2456:B1 *923:67 3.80079e-05
24 *2555:A2 *2557:C1 2.70828e-05
25 *2588:A2 *2587:A2 0.000135245
26 *2588:A2 *923:80 5.88598e-05
27 *921:10 *930:20 0.000131337
28 *921:14 *926:12 5.90443e-06
29 *921:14 *928:14 4.50149e-05
30 *921:14 *930:20 5.80706e-06
31 *921:26 *2612:C1 5.48248e-05
32 *921:26 *923:16 0
33 *921:30 *2535:C1 0.00026353
34 *921:34 *2535:C1 0.000137983
35 *921:109 *923:36 0
36 *2456:B2 *2456:B1 6.19181e-05
37 *2457:B2 *2456:B1 8.71761e-06
38 *2458:A1 *2456:B1 4.62539e-05
39 *2458:B1 *2456:B1 0
40 *2478:A1 *2456:B1 1.02132e-05
41 *2481:B *2456:B1 0.000526414
42 *2489:A1 *921:26 1.18064e-05
43 *2489:B1 *921:26 0.000226508
44 *2489:B2 *921:26 5.66157e-05
45 *2489:B2 *921:28 6.26774e-06
46 *2489:C1 *921:26 0.000130339
47 *2490:A1 *2555:A2 7.53317e-05
48 *2533:B2 *2588:A2 0.000111796
49 *2535:A1 *921:34 1.55885e-05
50 *2535:B1 *2534:A2 0.000105546
51 *2536:C *921:30 4.46231e-06
52 *2555:B1 *2555:A2 0.000228558
53 *2557:A1 *2555:A2 7.13226e-06
54 *2557:A2 *2555:A2 7.13226e-06
55 *2558:B *2555:A2 4.15914e-05
56 *2566:A1 *921:46 0.000150625
57 *2566:B2 *921:46 0.000329661
58 *2567:A1 *921:42 1.07719e-05
59 *2576:B1 *2576:A2 5.7661e-06
60 *2576:B2 *2576:A2 0
61 *2577:B1 *2555:A2 0.000301824
62 *2577:B1 *2576:A2 0.00022459
63 *2577:C1 *2576:A2 0.000184745
64 *2609:B1 *921:26 6.35819e-05
65 *2610:B1 *921:10 0.000137939
66 *2610:B1 *921:14 6.77303e-05
67 *2610:B1 *921:26 0.000133481
68 *2611:B1 *921:26 0.000218019
69 *2624:A *2541:A2 0
70 *2624:A *921:26 0
71 *2849:D *2576:A2 9.60939e-05
72 *2849:D *921:109 0.000223592
73 *2881:GATE_N *921:109 2.49484e-05
74 *2887:GATE_N *921:109 2.16719e-05
75 *2910:GATE_N *2555:A2 0
76 *2970:GATE_N *2588:A2 1.46576e-05
77 *2993:GATE_N *921:109 0
78 *3000:GATE_N *921:46 3.85645e-05
79 *3070:GATE_N *2555:A2 0.000742008
80 *3081:D *2555:A2 5.10822e-05
81 *590:24 *2489:A2 1.39506e-05
82 *590:24 *921:28 1.26915e-05
83 *805:42 *921:26 0.000172226
84 *807:18 *2541:A2 7.83659e-05
85 *811:60 *2555:A2 0
86 *812:55 *2541:A2 0.0007476
87 *816:30 *2588:A2 5.83304e-05
88 *816:30 *921:34 0.000259616
89 *816:30 *921:42 7.6644e-05
90 *816:30 *921:46 7.36311e-05
91 *818:54 *2456:B1 3.97677e-05
92 *820:24 *2456:B1 0
93 *827:70 *2555:A2 0
94 *830:31 *2541:A2 0.00031871
95 *831:40 *2534:A2 5.71472e-05
96 *831:63 *2456:B1 0.000340788
97 *836:22 *2588:A2 0.000101545
98 *836:57 *921:46 0.000546573
99 *836:67 *2478:B1 5.7616e-05
100 *836:67 *921:46 0.00012501
101 *851:53 *921:26 1.90936e-05
102 *851:102 *2588:A2 7.13226e-06
103 *861:14 *2541:A2 0
104 *861:14 *921:26 0
105 *864:47 *921:10 9.60875e-05
106 *871:51 *921:109 5.66157e-05
107 *871:75 *921:109 0.000221671
108 *871:77 *921:109 0.000167872
109 *881:57 *2541:A2 0.000119876
110 *900:21 *921:26 0.00010687
111 *904:28 *2534:A2 0.00012401
112 *904:53 *2456:B1 8.00842e-05
113 *904:61 *2456:B1 6.95627e-05
114 *906:20 *921:26 0.000122122
115 *906:22 *921:26 0.000311186
116 *906:93 *2588:A2 5.37741e-06
117 *906:99 *2588:A2 0.000157716
118 *908:62 *2534:A2 1.69115e-05
119 *908:68 *2534:A2 4.1331e-06
120 *910:10 *921:26 0
*RES
1 *3208:X *921:10 16.6929 
2 *921:10 *921:14 4.29393 
3 *921:14 *921:26 28.2357 
4 *921:26 *921:28 4.64286 
5 *921:28 *921:30 7.92857 
6 *921:30 *921:34 15.7143 
7 *921:34 *921:42 6.5 
8 *921:42 *921:46 16.7679 
9 *921:46 *2478:B1 15.4786 
10 *921:46 *2456:B1 36.5143 
11 *921:42 *2566:B1 9.3 
12 *921:34 *2588:A2 24.3937 
13 *921:30 *2534:A2 20.4786 
14 *921:28 *921:109 18.5357 
15 *921:109 *2576:A2 15.6036 
16 *921:109 *2555:A2 35.0902 
17 *921:26 *2489:A2 11.4116 
18 *921:14 *2541:A2 25.9483 
19 *921:10 *2609:A2 13.8 
*END

*D_NET *922 0.0168277
*CONN
*I *2499:A2 I *D sky130_fd_sc_hd__a22o_1
*I *2466:A2 I *D sky130_fd_sc_hd__a221o_1
*I *2401:B I *D sky130_fd_sc_hd__nand2_1
*I *2513:A2 I *D sky130_fd_sc_hd__a211o_1
*I *2523:A2 I *D sky130_fd_sc_hd__a22o_1
*I *2623:A2 I *D sky130_fd_sc_hd__a211o_1
*I *2600:A2 I *D sky130_fd_sc_hd__a22o_1
*I *3209:X O *D sky130_fd_sc_hd__buf_2
*CAP
1 *2499:A2 0.000993636
2 *2466:A2 4.66209e-06
3 *2401:B 9.94209e-05
4 *2513:A2 0.000245296
5 *2523:A2 0.000550742
6 *2623:A2 0
7 *2600:A2 2.2024e-05
8 *3209:X 0
9 *922:87 0.000655655
10 *922:68 0.00219812
11 *922:47 0.00270722
12 *922:27 0.0016215
13 *922:16 0.00041993
14 *922:4 0.00114549
15 *2513:A2 *2524:C1 1.69115e-05
16 *2513:A2 *929:26 0.000128161
17 *922:47 *2465:A2 2.27416e-05
18 *922:68 *2623:C1 7.02611e-05
19 *922:87 *2524:C1 0
20 *922:87 *925:86 0.00011062
21 *2465:B2 *922:47 7.72916e-05
22 *2466:A1 *922:47 7.63653e-05
23 *2466:B1 *2466:A2 1.46576e-05
24 *2466:B1 *922:47 4.58194e-05
25 *2466:B2 *922:47 8.43535e-06
26 *2466:C1 *922:47 2.27416e-05
27 *2467:B1 *922:27 0.000142725
28 *2499:B2 *2499:A2 0
29 *2510:A1 *922:87 0.000100831
30 *2511:A1 *2513:A2 0.000103253
31 *2511:C1 *2513:A2 0.000177815
32 *2513:A1 *2513:A2 3.57844e-05
33 *2514:B *2513:A2 0.000219711
34 *2514:C *2513:A2 6.57914e-05
35 *2523:A1 *2523:A2 3.50166e-05
36 *2523:B1 *922:87 8.07087e-05
37 *2600:B1 *2600:A2 5.33005e-05
38 *2600:B1 *922:16 4.08637e-05
39 *2600:B1 *922:27 3.17148e-05
40 *2622:A1 *922:68 5.52238e-05
41 *2623:A1 *922:47 3.57366e-05
42 *2623:A1 *922:68 5.04705e-05
43 *2624:C *922:47 7.53109e-06
44 *2624:C *922:68 9.90367e-05
45 *2852:GATE_N *2523:A2 0.000348247
46 *2852:GATE_N *922:68 0.000149119
47 *2859:GATE_N *922:27 0.000139677
48 *2911:D *922:47 4.87953e-05
49 *2948:GATE_N *922:47 0
50 *2980:GATE_N *2523:A2 1.03037e-05
51 *3118:A *2401:B 0.000241545
52 *3118:A *2513:A2 5.74499e-06
53 *3118:A *922:87 3.17016e-05
54 *3132:A *922:68 5.74499e-06
55 *3134:A *922:87 0.000665882
56 *3209:A *922:16 0.000104578
57 *499:38 *922:27 6.00214e-05
58 *808:78 *2499:A2 6.84339e-05
59 *808:78 *2600:A2 1.81774e-05
60 *808:78 *922:16 0.000179619
61 *823:8 *2499:A2 9.66073e-06
62 *831:22 *922:47 0
63 *834:66 *922:47 0.000180777
64 *837:56 *922:68 5.91336e-05
65 *837:83 *922:68 2.79421e-05
66 *844:28 *922:68 0.000263745
67 *892:33 *922:47 9.15466e-05
68 *899:33 *922:27 0.000382573
69 *899:33 *922:47 7.46506e-05
70 *905:47 *2401:B 1.21258e-05
71 *905:47 *2513:A2 5.33005e-05
72 *912:27 *2499:A2 0.000955701
73 *917:34 *2466:A2 1.46576e-05
74 *917:34 *922:47 3.10922e-05
*RES
1 *3209:X *922:4 9.3 
2 *922:4 *922:16 4.42857 
3 *922:16 *2600:A2 9.83571 
4 *922:16 *922:27 11.6071 
5 *922:27 *922:47 31.875 
6 *922:47 *2623:A2 9.3 
7 *922:47 *922:68 20.1786 
8 *922:68 *2523:A2 17.0321 
9 *922:68 *922:87 18.5893 
10 *922:87 *2513:A2 25.1036 
11 *922:87 *2401:B 11.8893 
12 *922:27 *2466:A2 13.9473 
13 *922:4 *2499:A2 22.8893 
*END

*D_NET *923 0.0262547
*CONN
*I *2540:A2 I *D sky130_fd_sc_hd__a221o_1
*I *2611:A2 I *D sky130_fd_sc_hd__a22o_1
*I *2488:A2 I *D sky130_fd_sc_hd__a22o_1
*I *2556:B1 I *D sky130_fd_sc_hd__a22o_1
*I *2457:A2 I *D sky130_fd_sc_hd__a22o_1
*I *2478:A2 I *D sky130_fd_sc_hd__a221o_1
*I *2587:A2 I *D sky130_fd_sc_hd__a22o_1
*I *2532:A2 I *D sky130_fd_sc_hd__a22o_1
*I *2567:A2 I *D sky130_fd_sc_hd__a22o_1
*I *2578:A2 I *D sky130_fd_sc_hd__a22o_1
*I *3210:X O *D sky130_fd_sc_hd__clkbuf_4
*CAP
1 *2540:A2 0.0010595
2 *2611:A2 0
3 *2488:A2 0
4 *2556:B1 0.000400162
5 *2457:A2 1.11927e-05
6 *2478:A2 9.90032e-05
7 *2587:A2 0.000500255
8 *2532:A2 0.000696981
9 *2567:A2 0
10 *2578:A2 0
11 *3210:X 0
12 *923:80 0.00141049
13 *923:71 0.000614615
14 *923:67 0.000620654
15 *923:63 0.00123281
16 *923:50 0.00173084
17 *923:36 0.00242449
18 *923:26 0.00189845
19 *923:16 0.00107054
20 *923:4 0.00162639
21 *923:16 *2610:A2 7.13226e-06
22 *923:16 *926:12 5.17614e-05
23 *2456:B1 *2478:A2 0.0001135
24 *2456:B1 *923:63 0.000172536
25 *2456:B1 *923:67 3.80079e-05
26 *2457:A1 *923:71 1.52978e-05
27 *2457:B1 *923:71 0.000145753
28 *2457:B2 *2478:A2 8.38184e-05
29 *2457:B2 *923:71 5.59013e-05
30 *2478:A1 *2478:A2 2.47631e-06
31 *2481:B *923:63 9.55226e-05
32 *2488:A1 *923:36 0.000313443
33 *2488:B2 *923:36 6.32633e-05
34 *2489:B1 *923:26 0.000212769
35 *2532:B2 *2532:A2 0
36 *2533:B1 *2587:A2 0.000100831
37 *2533:B1 *923:80 9.25014e-06
38 *2533:B2 *2532:A2 8.17618e-05
39 *2533:B2 *2587:A2 0.000114759
40 *2533:B2 *923:80 0.000106403
41 *2554:A1 *923:50 0
42 *2554:B1 *923:63 2.11419e-05
43 *2554:B2 *923:50 6.55423e-05
44 *2554:B2 *923:63 4.6025e-06
45 *2555:B1 *923:36 0
46 *2555:C1 *923:36 9.9974e-05
47 *2556:A1 *2556:B1 0.000145756
48 *2556:B2 *2556:B1 0.000138173
49 *2556:B2 *923:36 0
50 *2567:A1 *923:71 1.02504e-05
51 *2567:A1 *923:80 0.000167691
52 *2577:B2 *923:63 2.40379e-05
53 *2578:A1 *923:50 0.000142764
54 *2578:B1 *923:63 1.90936e-05
55 *2578:B2 *923:50 1.07401e-05
56 *2579:B1 *923:63 3.03692e-05
57 *2580:B *923:36 3.92757e-05
58 *2580:C *923:36 6.39901e-05
59 *2581:B2 *923:36 5.94788e-05
60 *2585:A2 *2540:A2 0.000114913
61 *2585:B2 *2540:A2 0.000170964
62 *2588:A2 *2587:A2 0.000135245
63 *2588:A2 *923:80 5.88598e-05
64 *2588:C1 *2587:A2 1.83136e-05
65 *2610:C1 *923:16 1.10792e-05
66 *2612:B1 *923:16 0.000107597
67 *2613:B *2540:A2 9.80173e-05
68 *2613:B *923:16 1.40131e-05
69 *2855:D *2556:B1 0.000102207
70 *2855:D *923:50 2.59355e-05
71 *2855:GATE_N *923:50 2.87555e-06
72 *2855:GATE_N *923:63 0
73 *2881:GATE_N *923:36 7.79781e-06
74 *2887:GATE_N *923:36 0
75 *2902:D *2540:A2 9.54798e-06
76 *2985:D *923:63 9.90367e-05
77 *2993:GATE_N *923:36 0
78 *3015:D *923:50 3.16801e-05
79 *3015:GATE_N *923:50 0.000500808
80 *3034:GATE_N *923:26 0
81 *3070:GATE_N *2556:B1 6.82179e-05
82 *499:38 *2540:A2 0.000350817
83 *585:24 *923:26 0.000160375
84 *585:24 *923:36 9.41642e-05
85 *805:42 *923:26 0.000139907
86 *807:18 *2540:A2 0.000825521
87 *816:30 *923:71 0.000161468
88 *816:30 *923:80 0.000113877
89 *816:38 *923:71 0.000228771
90 *818:54 *923:63 2.97829e-05
91 *820:10 *2587:A2 0.000236806
92 *820:12 *2587:A2 0.000217478
93 *820:20 *2587:A2 0.000141355
94 *820:20 *923:71 5.80706e-06
95 *820:20 *923:80 0.000347195
96 *820:24 *923:71 0.00022288
97 *829:37 *2540:A2 9.01896e-05
98 *833:14 *923:63 6.51946e-05
99 *833:18 *923:50 4.52531e-05
100 *833:18 *923:63 0.000177878
101 *847:125 *923:16 6.5396e-05
102 *847:125 *923:26 9.25014e-06
103 *847:131 *2540:A2 0.000503033
104 *858:34 *923:36 5.66157e-05
105 *858:38 *923:36 0.000220185
106 *858:40 *923:36 7.85957e-05
107 *858:42 *923:36 0.000100908
108 *858:59 *923:36 5.66157e-05
109 *861:14 *2540:A2 0.000103646
110 *862:43 *2532:A2 0.000119279
111 *862:45 *2532:A2 3.08664e-05
112 *871:51 *923:36 8.15095e-05
113 *894:112 *2540:A2 6.25848e-05
114 *900:21 *923:16 2.16719e-05
115 *900:21 *923:26 5.67225e-05
116 *906:22 *923:36 0.000219944
117 *906:26 *923:36 0.000128214
118 *906:93 *2587:A2 0.000123673
119 *908:28 *923:36 6.05161e-06
120 *910:10 *923:16 0.000119702
121 *910:10 *923:26 5.78935e-05
122 *911:25 *2540:A2 5.55261e-05
123 *914:118 *2540:A2 0.000521565
124 *921:26 *923:16 0
125 *921:109 *923:36 0
*RES
1 *3210:X *923:4 9.3 
2 *923:4 *923:16 13.875 
3 *923:16 *923:26 15.2679 
4 *923:26 *923:36 37.8214 
5 *923:36 *923:50 23.5 
6 *923:50 *2578:A2 13.8 
7 *923:50 *923:63 23.75 
8 *923:63 *923:67 1.78571 
9 *923:67 *923:71 14.9464 
10 *923:71 *2567:A2 13.8 
11 *923:71 *923:80 8.32143 
12 *923:80 *2532:A2 31.55 
13 *923:80 *2587:A2 26.8536 
14 *923:67 *2478:A2 11.8446 
15 *923:63 *2457:A2 9.72857 
16 *923:36 *2556:B1 25.5857 
17 *923:26 *2488:A2 9.3 
18 *923:16 *2611:A2 13.8 
19 *923:4 *2540:A2 44.6125 
*END

*D_NET *924 0.00212792
*CONN
*I *2661:A1 I *D sky130_fd_sc_hd__mux2_1
*I *3256:X O *D sky130_fd_sc_hd__clkbuf_1
*CAP
1 *2661:A1 0.00075574
2 *3256:X 0.00075574
3 *2661:A1 *2661:S 4.8843e-05
4 *2661:A1 *935:12 7.35605e-05
5 *2661:A1 *988:14 4.87953e-05
6 PSEL4 *2661:A1 0.000134561
7 *2660:A1 *2661:A1 0.000267454
8 *3255:A *2661:A1 2.91931e-05
9 *794:12 *2661:A1 1.40306e-05
*RES
1 *3256:X *2661:A1 39.9036 
*END

*D_NET *925 0.0248452
*CONN
*I *2495:A2 I *D sky130_fd_sc_hd__a22o_1
*I *2594:A2 I *D sky130_fd_sc_hd__a22o_1
*I *2621:A2 I *D sky130_fd_sc_hd__a221o_1
*I *2511:B1 I *D sky130_fd_sc_hd__a221o_1
*I *2522:A2 I *D sky130_fd_sc_hd__a221o_1
*I *2465:A2 I *D sky130_fd_sc_hd__a22o_1
*I *2399:B I *D sky130_fd_sc_hd__nand2_1
*I *3211:X O *D sky130_fd_sc_hd__buf_2
*CAP
1 *2495:A2 9.34186e-05
2 *2594:A2 0
3 *2621:A2 5.53997e-05
4 *2511:B1 0
5 *2522:A2 0.00065651
6 *2465:A2 7.91577e-05
7 *2399:B 0.000148329
8 *3211:X 0
9 *925:133 0.000901874
10 *925:86 0.00165697
11 *925:72 0.00236437
12 *925:43 0.00222094
13 *925:33 0.00366405
14 *925:4 0.00217065
15 *2522:A2 *2521:A2 0
16 *2522:A2 *2524:C1 0
17 *925:33 *2414:A_N 1.74352e-05
18 *925:33 *2414:D 0.00018372
19 *925:33 *3211:A 3.39935e-05
20 *925:33 *930:20 2.86824e-05
21 *925:33 *938:32 1.65558e-05
22 *925:33 *938:36 6.2589e-06
23 *925:43 *2420:C 0.000123288
24 *925:43 *939:79 0.000191556
25 *925:86 *2511:A2 3.33174e-05
26 *925:133 *948:33 6.6289e-05
27 *2399:A *2399:B 0
28 *2399:A *925:33 0.000283691
29 *2466:C1 *2465:A2 5.41794e-05
30 *2467:B2 *925:43 0.000148189
31 *2469:A1 *925:72 0.00010096
32 *2470:C *925:72 0.000516547
33 *2495:A1 *2495:A2 0.00010096
34 *2500:A2 *925:33 7.79649e-05
35 *2504:B1 *2495:A2 0.00010096
36 *2510:A1 *925:86 9.91086e-05
37 *2511:C1 *2522:A2 2.89114e-05
38 *2511:C1 *925:86 7.65036e-05
39 *2514:C *925:86 0.00018077
40 *2521:A1 *2522:A2 0.000310321
41 *2522:A1 *2522:A2 4.94362e-05
42 *2522:B1 *2522:A2 7.90536e-05
43 *2522:C1 *2522:A2 7.71303e-05
44 *2523:B1 *925:86 0.000315165
45 *2524:B1 *2522:A2 5.57914e-05
46 *2594:B2 *925:133 5.52302e-05
47 *2596:A1 *925:133 0.000144773
48 *2599:A1 *925:33 0.000136958
49 *2600:A1 *925:43 0.000324881
50 *2621:A1 *2621:A2 1.97695e-05
51 *2621:A1 *925:86 0.000117553
52 *2852:GATE_N *2522:A2 0
53 *2859:GATE_N *925:43 0.000145693
54 *2907:D *925:133 5.52302e-05
55 *2939:D *925:133 0.000494943
56 *2948:GATE_N *925:72 2.49484e-05
57 *2959:GATE_N *925:72 8.52405e-05
58 *2978:GATE_N *2522:A2 0.000156241
59 *2980:GATE_N *2522:A2 0.000594595
60 *3003:GATE_N *925:33 9.60875e-05
61 *3005:D *925:86 0.000106333
62 *3019:D *925:33 3.69047e-06
63 *3019:GATE_N *2399:B 5.83304e-05
64 *3019:GATE_N *925:33 5.33433e-05
65 *3055:GATE_N *925:72 1.76039e-05
66 *3115:A *925:33 0.000123288
67 *3118:A *2522:A2 5.52302e-05
68 *3118:A *925:86 0.000339745
69 *3130:A *2621:A2 5.47661e-05
70 *3130:A *925:72 0.000569622
71 *3130:A *925:86 5.62412e-05
72 *3213:A *2399:B 4.81157e-05
73 *435:12 *925:33 0
74 *435:12 *925:133 0
75 *437:26 *2399:B 2.06178e-05
76 *477:26 *2495:A2 0.00010286
77 *477:26 *925:133 0.000304805
78 *486:18 *925:33 0.000100448
79 *495:8 *925:33 0.000134471
80 *499:38 *925:43 5.27703e-06
81 *647:10 *925:133 1.03245e-05
82 *817:24 *925:33 0.000407315
83 *817:28 *925:33 0.000181796
84 *830:20 *925:43 0.000785856
85 *831:18 *2465:A2 1.43349e-05
86 *831:18 *925:43 0.0001394
87 *834:66 *2465:A2 5.65001e-05
88 *834:66 *925:43 0
89 *834:66 *925:72 5.41797e-06
90 *849:31 *925:43 5.9955e-05
91 *850:57 *925:33 0.000429934
92 *870:24 *2399:B 0
93 *870:24 *925:33 3.06878e-06
94 *875:10 *925:72 0
95 *875:12 *925:72 2.59355e-05
96 *875:14 *925:72 0.000479496
97 *875:24 *925:72 1.92905e-05
98 *875:81 *925:72 5.58941e-05
99 *904:10 *925:33 2.6949e-05
100 *917:34 *2465:A2 3.50587e-05
101 *922:47 *2465:A2 2.27416e-05
102 *922:87 *925:86 0.00011062
*RES
1 *3211:X *925:4 9.3 
2 *925:4 *2399:B 21.4607 
3 *925:4 *925:33 38.7344 
4 *925:33 *925:43 22.7493 
5 *925:43 *2465:A2 15.8268 
6 *925:43 *925:72 35.6339 
7 *925:72 *925:86 26.6071 
8 *925:86 *2522:A2 33.9696 
9 *925:86 *2511:B1 9.3 
10 *925:72 *2621:A2 10.8491 
11 *925:33 *925:133 21.4155 
12 *925:133 *2594:A2 9.3 
13 *925:133 *2495:A2 12.3 
*END

*D_NET *926 0.00444213
*CONN
*I *3210:A I *D sky130_fd_sc_hd__clkbuf_4
*I *3372:X O *D sky130_fd_sc_hd__clkbuf_1
*CAP
1 *3210:A 0
2 *3372:X 0.000779588
3 *926:12 0.000779588
4 *926:12 *2610:A2 2.12863e-05
5 *926:12 *928:14 1.0945e-05
6 *926:12 *930:20 0.000652186
7 *2610:C1 *926:12 0.000293706
8 *2613:B *926:12 3.14163e-05
9 *910:10 *926:12 0.00181575
10 *921:14 *926:12 5.90443e-06
11 *923:16 *926:12 5.17614e-05
*RES
1 *3372:X *926:12 43.05 
2 *926:12 *3210:A 9.3 
*END

*D_NET *927 0.00241467
*CONN
*I *3211:A I *D sky130_fd_sc_hd__buf_2
*I *3305:X O *D sky130_fd_sc_hd__clkbuf_1
*CAP
1 *3211:A 0.000760245
2 *3305:X 0.000760245
3 *3211:A *938:14 0
4 *2399:A *3211:A 5.03694e-05
5 *2597:A2 *3211:A 0.000118967
6 *3019:D *3211:A 0.000185643
7 *3019:GATE_N *3211:A 3.18676e-05
8 *870:18 *3211:A 5.38072e-05
9 *870:24 *3211:A 0.000358971
10 *903:12 *3211:A 5.23057e-05
11 *903:18 *3211:A 8.25843e-06
12 *925:33 *3211:A 3.39935e-05
*RES
1 *3305:X *3211:A 43.1536 
*END

*D_NET *928 0.0228396
*CONN
*I *2543:A2 I *D sky130_fd_sc_hd__a221o_1
*I *2533:A2 I *D sky130_fd_sc_hd__a221o_1
*I *2566:A2 I *D sky130_fd_sc_hd__a221o_1
*I *2589:A2 I *D sky130_fd_sc_hd__a22o_1
*I *2490:A2 I *D sky130_fd_sc_hd__a22o_1
*I *2577:A2 I *D sky130_fd_sc_hd__a221o_1
*I *2556:A2 I *D sky130_fd_sc_hd__a22o_1
*I *2456:A2 I *D sky130_fd_sc_hd__a221o_1
*I *2479:A2 I *D sky130_fd_sc_hd__a22o_1
*I *2610:A2 I *D sky130_fd_sc_hd__a221o_1
*I *3212:X O *D sky130_fd_sc_hd__clkbuf_4
*CAP
1 *2543:A2 1.04544e-05
2 *2533:A2 0.000115682
3 *2566:A2 0.000358775
4 *2589:A2 0
5 *2490:A2 0.000516007
6 *2577:A2 8.3637e-06
7 *2556:A2 0.000367169
8 *2456:A2 2.12464e-05
9 *2479:A2 0.000209264
10 *2610:A2 4.27659e-05
11 *3212:X 0.000245604
12 *928:135 0.00146803
13 *928:63 0.00066866
14 *928:59 0.00127623
15 *928:51 0.000704855
16 *928:47 0.00134334
17 *928:41 0.000638815
18 *928:39 0.00148631
19 *928:33 0.00135546
20 *928:14 0.0011777
21 *2490:A2 *2491:C1 0.000478626
22 *2543:A2 *2543:C1 3.28686e-05
23 *928:14 *3212:A 7.51077e-05
24 *928:33 *2543:C1 0.000157777
25 *928:39 *934:26 0.000386241
26 *928:47 *2491:C1 0.000441724
27 *928:47 *934:26 0.000117095
28 *928:47 *934:28 0.000190687
29 *928:47 *934:30 1.55485e-05
30 *2455:B1 *2456:A2 1.46576e-05
31 *2460:B2 *2556:A2 0.000983973
32 *2460:B2 *928:63 0.000560508
33 *2479:A1 *2479:A2 0.000102053
34 *2480:B1 *2479:A2 0
35 *2482:B2 *2556:A2 0.000330893
36 *2490:A1 *2490:A2 1.02504e-05
37 *2491:A1 *2490:A2 7.6644e-05
38 *2491:A2 *2490:A2 1.21289e-05
39 *2491:B1 *2490:A2 0.000218259
40 *2544:C1 *928:39 0.000128161
41 *2554:A1 *928:59 4.32309e-05
42 *2554:A2 *2556:A2 6.19349e-05
43 *2554:A2 *928:59 2.78763e-05
44 *2554:A2 *928:63 9.55016e-05
45 *2554:B1 *928:63 0.000716674
46 *2557:A1 *2556:A2 2.59355e-05
47 *2567:A1 *2566:A2 1.59935e-05
48 *2569:B *2566:A2 9.47028e-05
49 *2577:B1 *928:51 5.01117e-05
50 *2609:A1 *928:14 0
51 *2610:A1 *2610:A2 7.75022e-05
52 *2610:A1 *928:14 6.73939e-05
53 *2610:B1 *928:14 9.22123e-05
54 *2610:B2 *928:33 1.32552e-05
55 *2610:C1 *2610:A2 3.77834e-05
56 *2610:C1 *928:14 0.000267447
57 *2610:C1 *928:33 0.000221634
58 *2849:GATE_N *928:51 2.28159e-05
59 *2849:GATE_N *928:59 5.79294e-05
60 *2855:GATE_N *928:59 0.000719846
61 *2873:GATE_N *928:63 5.06018e-05
62 *2887:GATE_N *928:51 0.000500469
63 *2887:GATE_N *928:59 0.000156243
64 *2910:GATE_N *2556:A2 0
65 *2993:GATE_N *928:39 0
66 *2993:GATE_N *928:51 0.000148189
67 *3001:GATE_N *2479:A2 0
68 *3004:D *928:33 3.14048e-05
69 *3004:GATE_N *928:33 5.33433e-05
70 *3009:GATE_N *928:47 4.43256e-05
71 *3070:GATE_N *2556:A2 4.15161e-05
72 *3132:A *928:33 6.89665e-05
73 *3132:A *928:39 0.000379288
74 *515:34 *2556:A2 5.33005e-05
75 *575:18 *928:14 5.08697e-05
76 *805:78 *2490:A2 0
77 *814:45 *928:39 0.000211735
78 *814:66 *928:39 2.16689e-05
79 *814:66 *928:47 0.00059464
80 *814:72 *928:47 5.5474e-05
81 *814:116 *2456:A2 4.38243e-05
82 *814:116 *2479:A2 0.00011365
83 *816:8 *928:33 0
84 *816:10 *928:33 0
85 *816:10 *928:39 0
86 *816:20 *2533:A2 0
87 *816:20 *2566:A2 0
88 *816:24 *2566:A2 0
89 *816:54 *928:63 0.000107575
90 *820:20 *2533:A2 7.86105e-05
91 *820:20 *2566:A2 0.000213368
92 *831:53 *2566:A2 0
93 *833:12 *928:39 0.000185748
94 *833:14 *928:51 0
95 *847:51 *928:33 5.06983e-05
96 *853:37 *2577:A2 1.46576e-05
97 *858:38 *928:59 0
98 *858:40 *928:59 0
99 *862:35 *2533:A2 3.33174e-05
100 *862:81 *2566:A2 0
101 *873:50 *2479:A2 6.18969e-06
102 *877:38 *928:63 0
103 *904:61 *2456:A2 3.54188e-05
104 *904:61 *2479:A2 0.000121336
105 *904:91 *928:63 0.000172449
106 *906:22 *2490:A2 0
107 *906:75 *2543:A2 3.28686e-05
108 *906:75 *928:33 2.57487e-05
109 *921:14 *928:14 4.50149e-05
110 *923:16 *2610:A2 7.13226e-06
111 *926:12 *2610:A2 2.12863e-05
112 *926:12 *928:14 1.0945e-05
*RES
1 *3212:X *928:14 19.8893 
2 *928:14 *2610:A2 14.983 
3 *928:14 *928:33 20.8393 
4 *928:33 *928:39 13.0357 
5 *928:39 *928:41 0.535714 
6 *928:41 *928:47 17.875 
7 *928:47 *928:51 11 
8 *928:51 *928:59 14.7761 
9 *928:59 *928:63 5.33073 
10 *928:63 *2479:A2 18.3268 
11 *928:63 *2456:A2 14.5277 
12 *928:59 *2556:A2 19.9585 
13 *928:51 *2577:A2 13.9473 
14 *928:47 *2490:A2 26.2286 
15 *928:41 *2589:A2 13.8 
16 *928:39 *928:135 8.66867 
17 *928:135 *2566:A2 21.3179 
18 *928:135 *2533:A2 16.2286 
19 *928:33 *2543:A2 14.1304 
*END

*D_NET *929 0.0206429
*CONN
*I *2501:A2 I *D sky130_fd_sc_hd__a221o_1
*I *2397:B I *D sky130_fd_sc_hd__nand2_1
*I *2464:A2 I *D sky130_fd_sc_hd__a221o_1
*I *2601:A2 I *D sky130_fd_sc_hd__a221o_1
*I *2622:A2 I *D sky130_fd_sc_hd__a22o_1
*I *2511:A2 I *D sky130_fd_sc_hd__a221o_1
*I *2521:A2 I *D sky130_fd_sc_hd__a22o_1
*I *3213:X O *D sky130_fd_sc_hd__buf_2
*CAP
1 *2501:A2 6.18896e-06
2 *2397:B 0
3 *2464:A2 0.000817588
4 *2601:A2 0
5 *2622:A2 0.000396863
6 *2511:A2 9.21094e-06
7 *2521:A2 0.000481474
8 *3213:X 0.000334597
9 *929:83 0.00200901
10 *929:58 0.00253961
11 *929:48 0.000988364
12 *929:26 0.000785484
13 *929:18 0.000613992
14 *929:10 0.000622939
15 *2464:A2 *3357:A 2.11419e-05
16 *2521:A2 *2524:C1 0.000384498
17 *2622:A2 *2623:C1 0.000330374
18 *929:18 *2501:C1 0
19 *929:26 *2524:C1 1.17968e-05
20 *929:26 *936:49 1.21289e-05
21 *929:48 *936:49 0.0001839
22 *929:58 *936:49 0.000133798
23 *929:83 *2623:C1 2.05413e-05
24 *2397:A *929:58 6.094e-05
25 *2462:B1 *2622:A2 2.04825e-05
26 *2464:A1 *2464:A2 0.000379858
27 *2464:B2 *2464:A2 9.79137e-05
28 *2468:B2 *929:58 4.58194e-05
29 *2471:B1 *2464:A2 0.000308752
30 *2499:A1 *2464:A2 4.40631e-05
31 *2500:A1 *2501:A2 4.34948e-06
32 *2501:A1 *929:18 0.000125731
33 *2501:B2 *929:10 4.75428e-05
34 *2510:B2 *929:26 0.000426743
35 *2511:A1 *2521:A2 5.80706e-06
36 *2511:A1 *929:26 1.91414e-05
37 *2511:C1 *2511:A2 3.33174e-05
38 *2513:A2 *929:26 0.000128161
39 *2514:A *929:83 0.000880508
40 *2514:C *2521:A2 9.25014e-06
41 *2514:C *929:26 0.000148196
42 *2521:B1 *2521:A2 8.1579e-05
43 *2522:A2 *2521:A2 0
44 *2601:A1 *2464:A2 5.04841e-06
45 *2831:GATE_N *929:83 9.24721e-06
46 *2850:D *929:10 0.000223592
47 *2850:D *929:18 0.00017309
48 *2852:GATE_N *2521:A2 9.90367e-05
49 *2882:D *2464:A2 9.90367e-05
50 *2882:GATE_N *2464:A2 0.000106354
51 *2882:GATE_N *929:83 1.46576e-05
52 *2978:GATE_N *2521:A2 0
53 *2991:D *929:58 2.79421e-05
54 *2991:GATE_N *929:58 0.000111459
55 *3083:GATE_N *929:83 0.000570123
56 *3135:A *929:18 0.000197673
57 *3188:A *2464:A2 0
58 *436:8 *929:26 9.90431e-05
59 *436:8 *929:48 5.95953e-05
60 *436:8 *929:58 2.89114e-05
61 *496:16 *2622:A2 0.00067848
62 *496:16 *929:83 3.61333e-05
63 *808:78 *2464:A2 0.000614026
64 *815:12 *929:10 0
65 *830:31 *2464:A2 5.63133e-05
66 *834:44 *2622:A2 0.000229456
67 *837:31 *929:18 0
68 *840:29 *929:83 0.00154112
69 *869:35 *2464:A2 0.000397911
70 *870:24 *929:10 0.000138158
71 *870:26 *929:10 0.000159689
72 *881:55 *2464:A2 0.000191818
73 *899:29 *929:83 4.19535e-05
74 *907:16 *2501:A2 1.46576e-05
75 *907:48 *929:18 0.000312493
76 *912:43 *2464:A2 4.53515e-05
77 *917:34 *2464:A2 0.000755573
78 *925:86 *2511:A2 3.33174e-05
*RES
1 *3213:X *929:10 21.1393 
2 *929:10 *929:18 12.2679 
3 *929:18 *929:26 11.7143 
4 *929:26 *2521:A2 24.5857 
5 *929:26 *2511:A2 14.1304 
6 *929:18 *929:48 1.76786 
7 *929:48 *929:58 17 
8 *929:58 *2622:A2 24.9071 
9 *929:58 *929:83 16.7828 
10 *929:83 *2601:A2 9.3 
11 *929:83 *2464:A2 42.8402 
12 *929:48 *2397:B 9.3 
13 *929:10 *2501:A2 13.9473 
*END

*D_NET *930 0.00634229
*CONN
*I *3212:A I *D sky130_fd_sc_hd__clkbuf_4
*I *3306:X O *D sky130_fd_sc_hd__clkbuf_1
*CAP
1 *3212:A 2.99611e-05
2 *3306:X 0.00146133
3 *930:20 0.00149129
4 *930:20 *2424:D 0
5 *930:20 *938:30 0
6 *930:20 *938:32 0
7 *930:20 *938:36 0
8 *930:20 *947:71 0.000232399
9 *930:20 *947:77 9.90431e-05
10 *2462:A2 *930:20 0.00019299
11 *2470:C *930:20 7.83659e-05
12 *2598:A1 *930:20 0
13 *2598:B1 *930:20 0
14 *2599:C1 *930:20 0
15 *2610:B1 *930:20 0.000361466
16 *2625:B2 *930:20 2.06178e-05
17 *2911:GATE_N *930:20 0
18 *3196:A *930:20 6.57131e-05
19 *3372:A *930:20 0.000780623
20 *488:14 *930:20 0
21 *494:8 *930:20 1.21258e-05
22 *500:10 *930:20 0.000167161
23 *575:18 *3212:A 9.41642e-05
24 *850:31 *930:20 0.00036192
25 *906:20 *930:20 0
26 *921:10 *930:20 0.000131337
27 *921:14 *930:20 5.80706e-06
28 *925:33 *930:20 2.86824e-05
29 *926:12 *930:20 0.000652186
30 *928:14 *3212:A 7.51077e-05
*RES
1 *3306:X *930:20 48.9429 
2 *930:20 *3212:A 14.7464 
*END

*D_NET *931 0.00514963
*CONN
*I *2687:D I *D sky130_fd_sc_hd__or4_1
*I *2690:A3 I *D sky130_fd_sc_hd__o31ai_1
*I *2394:A2 I *D sky130_fd_sc_hd__o21ai_1
*I *2666:A0 I *D sky130_fd_sc_hd__mux2_1
*I *3307:X O *D sky130_fd_sc_hd__buf_1
*CAP
1 *2687:D 7.75249e-05
2 *2690:A3 0
3 *2394:A2 8.88863e-05
4 *2666:A0 0.000403267
5 *3307:X 9.59579e-05
6 *931:34 0.00035359
7 *931:14 0.000788186
8 *931:10 0.000668055
9 *2687:D *2687:B 4.24752e-05
10 *2687:D *2690:A1 0.000116545
11 *2687:D *953:10 9.54798e-06
12 *931:34 *2690:A1 7.61932e-05
13 *2389:B *931:34 5.52238e-05
14 *2394:B1 *931:14 0
15 *2690:A2 *931:34 1.98839e-05
16 *2690:B1 *2687:D 1.38247e-05
17 *2761:B1 *931:10 5.74533e-05
18 *2761:B1 *931:14 3.47055e-05
19 *2761:B2 *931:34 2.79421e-05
20 *2762:B1 *2687:D 0.000186662
21 *2762:B1 *931:34 0.000537831
22 *2763:A1 *931:14 1.57981e-05
23 *2763:B1 *2394:A2 5.33433e-05
24 *2763:B1 *2666:A0 9.02133e-05
25 *2764:D *2666:A0 5.71472e-05
26 *2765:B *2666:A0 3.57366e-05
27 *475:20 *2394:A2 1.74352e-05
28 *475:20 *931:14 0
29 *480:10 *931:34 1.21258e-05
30 *510:32 *931:14 0
31 *672:70 *931:10 0.000123594
32 *672:70 *931:14 2.15339e-05
33 *672:84 *2666:A0 0.000128523
34 *672:84 *931:14 0.000428457
35 *804:10 *931:10 1.40306e-05
36 *881:31 *931:14 0.000497939
*RES
1 *3307:X *931:10 15.9786 
2 *931:10 *931:14 12.8214 
3 *931:14 *2666:A0 15.3893 
4 *931:14 *2394:A2 10.6571 
5 *931:10 *931:34 11.1964 
6 *931:34 *2690:A3 9.3 
7 *931:34 *2687:D 20.8 
*END

*D_NET *932 0.0234958
*CONN
*I *2625:A2 I *D sky130_fd_sc_hd__o22ai_2
*I *2548:A2 I *D sky130_fd_sc_hd__o22ai_1
*I *2482:A2 I *D sky130_fd_sc_hd__o22ai_1
*I *2570:A2 I *D sky130_fd_sc_hd__o22ai_1
*I *2537:A2 I *D sky130_fd_sc_hd__o22ai_1
*I *2581:A2 I *D sky130_fd_sc_hd__o22ai_2
*I *2559:A2 I *D sky130_fd_sc_hd__o22ai_2
*I *2460:A2 I *D sky130_fd_sc_hd__o22ai_2
*I *2493:A2 I *D sky130_fd_sc_hd__o22ai_2
*I *2592:A2 I *D sky130_fd_sc_hd__o22ai_2
*I *3214:X O *D sky130_fd_sc_hd__clkbuf_4
*CAP
1 *2625:A2 0.000160727
2 *2548:A2 4.43524e-05
3 *2482:A2 0.0004826
4 *2570:A2 3.34417e-05
5 *2537:A2 4.97183e-05
6 *2581:A2 0
7 *2559:A2 0.000517647
8 *2460:A2 0.000398533
9 *2493:A2 0.000445325
10 *2592:A2 0
11 *3214:X 0.000116911
12 *932:134 0.000804421
13 *932:119 0.000465825
14 *932:72 0.000973879
15 *932:70 0.000466795
16 *932:49 0.0014027
17 *932:30 0.00187525
18 *932:22 0.0018375
19 *932:14 0.000750764
20 *932:6 0.000601249
21 *932:14 *2515:A2 0.000317609
22 *932:22 *2649:A0 0
23 *932:49 *994:18 0.000350143
24 *932:49 *1003:14 5.52238e-05
25 *932:70 *1003:14 0.000482775
26 *932:119 *2649:A0 2.74804e-05
27 *932:134 *2649:A0 0.000745308
28 *2452:B1 *2559:A2 5.62962e-05
29 *2473:A2 *2559:A2 0.000344672
30 *2474:B1 *2559:A2 0.000513585
31 *2482:A1 *2482:A2 0
32 *2482:B1 *2482:A2 0.000100823
33 *2483:B *2482:A2 4.16984e-05
34 *2493:A1 *2493:A2 5.71472e-05
35 *2493:B2 *2493:A2 1.05731e-05
36 *2537:B2 *2537:A2 5.52302e-05
37 *2537:B2 *932:49 8.25843e-06
38 *2548:A1 *2548:A2 0.000139625
39 *2551:B1 *2559:A2 0.000219711
40 *2570:A1 *932:134 3.34366e-05
41 *2572:B2 *932:70 0.000266991
42 *2573:A1 *932:70 6.17426e-05
43 *2573:A2 *2460:A2 9.25014e-06
44 *2573:A2 *932:70 0.000383288
45 *2573:A2 *932:72 0.000135904
46 *2584:A1 *932:30 4.36551e-06
47 *2584:C1 *932:49 2.49484e-05
48 *2592:A1 *932:30 5.80706e-06
49 *2592:B2 *932:30 5.51755e-05
50 *2605:A2 *932:49 8.6229e-06
51 *2629:B *2482:A2 1.58163e-05
52 *2635:B *932:22 0
53 *2639:B *2460:A2 1.55885e-05
54 *2642:B *2537:A2 4.13496e-05
55 *2655:S *932:49 1.82549e-05
56 *2832:D *2559:A2 0
57 *2841:D *2460:A2 3.90513e-05
58 *2841:D *932:70 7.71937e-05
59 *2841:GATE_N *2460:A2 0
60 *2954:GATE_N *932:49 3.63775e-05
61 *3142:A *2625:A2 5.33005e-05
62 *3154:A *2460:A2 1.61294e-05
63 *3161:A *932:14 0.000548574
64 *3161:A *932:22 0.0001234
65 *3173:A *2460:A2 3.81226e-05
66 *382:10 *932:14 0.000165285
67 *382:10 *932:22 0.000799076
68 *427:10 *2482:A2 0.000829552
69 *428:16 *932:22 0.00033186
70 *428:16 *932:119 6.60111e-05
71 *428:16 *932:134 0.000364787
72 *521:12 *2460:A2 5.52238e-05
73 *551:22 *2493:A2 0.000337358
74 *551:22 *932:49 0.000238988
75 *551:40 *2482:A2 6.57032e-05
76 *551:40 *2570:A2 4.58194e-05
77 *591:6 *2537:A2 9.80173e-05
78 *601:8 *2548:A2 0.000183015
79 *621:20 *2482:A2 0.000276664
80 *621:20 *2570:A2 9.60939e-05
81 *641:10 *932:49 2.89114e-05
82 *805:148 *932:49 0
83 *825:130 *932:30 2.06112e-05
84 *838:70 *2460:A2 3.23126e-05
85 *856:60 *932:70 8.22793e-06
86 *859:14 *2460:A2 0.000193234
87 *859:14 *932:70 0.000199698
88 *859:14 *932:72 0.000145154
89 *878:10 *2460:A2 4.51611e-05
90 *885:32 *932:14 0
91 *888:34 *2482:A2 1.91317e-05
92 *888:36 *2482:A2 0.000505649
93 *889:26 *932:14 0.000137622
94 *889:26 *932:22 2.11419e-05
95 *892:121 *932:49 0.000353106
96 *896:48 *932:49 0.000636865
97 *911:72 *932:70 0
98 *911:92 *2460:A2 1.30908e-05
99 *911:92 *2559:A2 2.00917e-05
100 *916:103 *932:49 0.000195849
*RES
1 *3214:X *932:6 10.6571 
2 *932:6 *932:14 14.5 
3 *932:14 *932:22 16.1868 
4 *932:22 *932:30 10.7561 
5 *932:30 *2592:A2 9.3 
6 *932:30 *932:49 24.1786 
7 *932:49 *2493:A2 17.3893 
8 *932:49 *932:70 16.5179 
9 *932:70 *932:72 1.94643 
10 *932:72 *2460:A2 21.6929 
11 *932:72 *2559:A2 24.2464 
12 *932:70 *2581:A2 13.8 
13 *932:22 *932:119 4.48506 
14 *932:119 *2537:A2 15.1571 
15 *932:119 *932:134 14.5714 
16 *932:134 *2570:A2 10.2464 
17 *932:134 *2482:A2 34.7821 
18 *932:14 *2548:A2 15.5679 
19 *932:6 *2625:A2 11.925 
*END

*D_NET *933 0.0191777
*CONN
*I *2603:A2 I *D sky130_fd_sc_hd__o22ai_2
*I *2471:A2 I *D sky130_fd_sc_hd__o22ai_2
*I *2504:A2 I *D sky130_fd_sc_hd__o22ai_2
*I *2515:A2 I *D sky130_fd_sc_hd__o22ai_1
*I *2526:A2 I *D sky130_fd_sc_hd__o22ai_1
*I *2614:A2 I *D sky130_fd_sc_hd__o22ai_2
*I *3215:X O *D sky130_fd_sc_hd__buf_2
*CAP
1 *2603:A2 0
2 *2471:A2 0.000497899
3 *2504:A2 0.000231078
4 *2515:A2 0.00096909
5 *2526:A2 0
6 *2614:A2 0.000112979
7 *3215:X 0.000201759
8 *933:82 0.000903691
9 *933:39 0.00214916
10 *933:24 0.0024306
11 *933:18 0.00169801
12 *933:10 0.000936932
13 *2515:A2 *962:60 0.00074773
14 *2515:A2 *962:73 0.000109578
15 *2463:B1 *933:24 8.31093e-05
16 *2471:B2 *2471:A2 3.70198e-05
17 *2503:C *933:10 0.000109495
18 *2503:C *933:18 0.000393065
19 *2504:A1 *2504:A2 8.6229e-06
20 *2508:A2 *2515:A2 0
21 *2508:B2 *2515:A2 0
22 *2517:A1 *933:39 5.39629e-06
23 *2526:A1 *2515:A2 0.000145127
24 *2526:A1 *933:39 1.59373e-05
25 *2526:B1 *2515:A2 0.000102545
26 *2595:A1 *933:82 8.6229e-06
27 *2603:A1 *2471:A2 5.80706e-06
28 *2603:A1 *933:82 3.15795e-05
29 *2604:B *2515:A2 0.000296114
30 *2605:A2 *2614:A2 1.69115e-05
31 *2605:B1 *933:24 0.00029711
32 *2606:C1 *2614:A2 0.000128146
33 *2618:A1 *933:24 0.00032672
34 *2618:A2 *933:24 1.04707e-05
35 *2625:A1 *2515:A2 0.000148555
36 *2640:B *2515:A2 1.90936e-05
37 *2946:D *2471:A2 0
38 *3044:GATE_N *933:39 0.000132577
39 *3084:GATE_N *2614:A2 0
40 *3129:A *933:18 5.21611e-05
41 *3143:A *2515:A2 0.000144087
42 *3214:A *2515:A2 3.27477e-05
43 *382:10 *2515:A2 0.000111562
44 *449:24 *933:24 0.000571298
45 *531:8 *2471:A2 5.52302e-05
46 *561:14 *2504:A2 9.60337e-06
47 *570:18 *2515:A2 0
48 *571:10 *2515:A2 0.000136951
49 *581:10 *2515:A2 9.68602e-05
50 *810:106 *2504:A2 5.52238e-05
51 *811:20 *2614:A2 9.27685e-05
52 *812:28 *933:24 0.000204424
53 *812:36 *933:24 5.55887e-05
54 *823:8 *933:18 0.000571908
55 *826:12 *2504:A2 8.42373e-05
56 *826:12 *933:24 1.37495e-05
57 *830:31 *2471:A2 0.00015134
58 *865:43 *933:39 6.77822e-05
59 *865:47 *933:39 3.4018e-05
60 *865:59 *933:24 0.000134421
61 *865:59 *933:39 0.000139119
62 *866:35 *2504:A2 2.89016e-05
63 *866:35 *933:82 0.000517579
64 *869:33 *933:10 0.000252751
65 *869:33 *933:18 0.000233309
66 *881:39 *933:10 4.30379e-05
67 *885:32 *2515:A2 0
68 *889:26 *2515:A2 0.000158603
69 *917:34 *2471:A2 0.000699151
70 *917:34 *933:82 7.97198e-05
71 *917:62 *933:10 9.58181e-05
72 *918:147 *933:18 0.000255096
73 *919:49 *2504:A2 0.000117936
74 *919:49 *933:24 0.000252533
75 *932:14 *2515:A2 0.000317609
*RES
1 *3215:X *933:10 18.2107 
2 *933:10 *933:18 19.75 
3 *933:18 *933:24 27.2321 
4 *933:24 *2614:A2 21.4607 
5 *933:24 *933:39 14.5179 
6 *933:39 *2526:A2 9.3 
7 *933:39 *2515:A2 43.05 
8 *933:18 *2504:A2 18.7107 
9 *933:10 *933:82 15.0893 
10 *933:82 *2471:A2 25.1214 
11 *933:82 *2603:A2 13.8 
*END

*D_NET *934 0.0217444
*CONN
*I *2612:C1 I *D sky130_fd_sc_hd__a211o_1
*I *2543:C1 I *D sky130_fd_sc_hd__a221o_1
*I *2590:C1 I *D sky130_fd_sc_hd__a211o_1
*I *2535:C1 I *D sky130_fd_sc_hd__a211o_1
*I *2491:C1 I *D sky130_fd_sc_hd__a211o_1
*I *2557:C1 I *D sky130_fd_sc_hd__a211o_1
*I *2458:C1 I *D sky130_fd_sc_hd__a211o_1
*I *2480:C1 I *D sky130_fd_sc_hd__a211o_1
*I *2579:C1 I *D sky130_fd_sc_hd__a211o_1
*I *2568:C1 I *D sky130_fd_sc_hd__a211o_1
*I *3216:X O *D sky130_fd_sc_hd__buf_2
*CAP
1 *2612:C1 2.35632e-05
2 *2543:C1 0.000449784
3 *2590:C1 0
4 *2535:C1 0.000157062
5 *2491:C1 0.00022743
6 *2557:C1 0.000951206
7 *2458:C1 0.000132287
8 *2480:C1 0.000116075
9 *2579:C1 0.000165547
10 *2568:C1 0.000346079
11 *3216:X 0.000367335
12 *934:70 0.000826064
13 *934:64 0.00152891
14 *934:51 0.000597915
15 *934:30 0.000832171
16 *934:28 0.000438201
17 *934:26 0.00054823
18 *934:22 0.000674404
19 *934:12 0.00132031
20 *934:6 0.000821145
21 *934:6 *937:12 0.000105163
22 *2456:B2 *2458:C1 0.000186662
23 *2459:C *2458:C1 0.000178847
24 *2477:A2 *2458:C1 9.77274e-05
25 *2480:B1 *2480:C1 5.80706e-06
26 *2481:C *2480:C1 2.80292e-05
27 *2481:C *934:70 6.8646e-06
28 *2490:A2 *2491:C1 0.000478626
29 *2491:A2 *2491:C1 0.000158587
30 *2491:B1 *2491:C1 3.45371e-05
31 *2535:A1 *2535:C1 4.83316e-05
32 *2535:B1 *2535:C1 5.52238e-05
33 *2536:C *2535:C1 3.22964e-05
34 *2536:C *934:26 0.000148196
35 *2543:A2 *2543:C1 3.28686e-05
36 *2543:B2 *2543:C1 4.21173e-05
37 *2555:A2 *2557:C1 2.70828e-05
38 *2555:B2 *2557:C1 0.000358971
39 *2557:B1 *2557:C1 1.02504e-05
40 *2558:B *2557:C1 0.000131659
41 *2568:A1 *2568:C1 8.47274e-05
42 *2568:A2 *2568:C1 4.27438e-05
43 *2576:A1 *934:51 5.33882e-05
44 *2579:A1 *2579:C1 5.33433e-05
45 *2590:B1 *934:26 0.000337644
46 *2910:GATE_N *2557:C1 7.80115e-05
47 *2972:D *934:22 6.51946e-05
48 *2977:GATE_N *2568:C1 0.000316184
49 *2977:GATE_N *934:51 0
50 *2983:D *2557:C1 9.58478e-05
51 *2983:GATE_N *2557:C1 0.000121958
52 *2983:GATE_N *934:70 0.000170898
53 *2993:GATE_N *934:22 0.000153163
54 *3004:GATE_N *2543:C1 9.90431e-05
55 *3009:GATE_N *2491:C1 0.00040086
56 *3020:GATE_N *934:12 1.24368e-05
57 *3144:A *934:22 4.7091e-05
58 *3192:A *934:6 0.000437756
59 *3192:A *934:12 4.43256e-05
60 *496:16 *2543:C1 7.8327e-05
61 *496:16 *934:12 9.10731e-05
62 *814:72 *2568:C1 1.0562e-05
63 *814:72 *934:30 3.46992e-05
64 *814:72 *934:51 4.43698e-05
65 *814:116 *2480:C1 0.000144903
66 *814:116 *934:70 0.00016384
67 *816:10 *2543:C1 0
68 *833:12 *934:26 7.1325e-05
69 *833:12 *934:28 8.33559e-05
70 *833:14 *934:28 0.000217854
71 *833:14 *934:30 0.000136603
72 *833:14 *934:51 0.000747067
73 *833:18 *2579:C1 0.000147926
74 *833:18 *934:51 0.000103974
75 *833:52 *934:70 6.13039e-05
76 *847:23 *934:22 0
77 *847:25 *2543:C1 2.34181e-05
78 *847:25 *934:22 0
79 *847:36 *2543:C1 5.90443e-06
80 *853:63 *934:51 0
81 *853:65 *2579:C1 0
82 *853:65 *934:51 0
83 *853:67 *2579:C1 0
84 *855:20 *2568:C1 0.000275002
85 *858:34 *2557:C1 0.000183522
86 *900:6 *934:6 1.21289e-05
87 *900:21 *2612:C1 5.33072e-05
88 *900:38 *934:22 0.000317082
89 *900:42 *934:22 8.11273e-05
90 *900:79 *2480:C1 0
91 *904:38 *2568:C1 0.000431217
92 *906:75 *2543:C1 0.000496214
93 *906:93 *2543:C1 1.58163e-05
94 *908:83 *934:70 0.000148903
95 *908:85 *2458:C1 0.000265447
96 *908:125 *2579:C1 0.000226513
97 *921:26 *2612:C1 5.48248e-05
98 *921:30 *2535:C1 0.00026353
99 *921:34 *2535:C1 0.000137983
100 *928:33 *2543:C1 0.000157777
101 *928:39 *934:26 0.000386241
102 *928:47 *2491:C1 0.000441724
103 *928:47 *934:26 0.000117095
104 *928:47 *934:28 0.000190687
105 *928:47 *934:30 1.55485e-05
*RES
1 *3216:X *934:6 16.4071 
2 *934:6 *934:12 9.98214 
3 *934:12 *934:22 13.875 
4 *934:22 *934:26 12.5179 
5 *934:26 *934:28 4.98214 
6 *934:28 *934:30 1.79464 
7 *934:30 *2568:C1 24.7554 
8 *934:30 *934:51 10.9018 
9 *934:51 *2579:C1 17.925 
10 *934:51 *934:64 4.5 
11 *934:64 *934:70 13.4464 
12 *934:70 *2480:C1 16.2821 
13 *934:70 *2458:C1 18.4607 
14 *934:64 *2557:C1 34.7821 
15 *934:28 *2491:C1 22.9786 
16 *934:26 *2535:C1 18.05 
17 *934:22 *2590:C1 9.3 
18 *934:12 *2543:C1 25.05 
19 *934:6 *2612:C1 19.0321 
*END

*D_NET *935 0.00436064
*CONN
*I *2662:A1 I *D sky130_fd_sc_hd__mux2_1
*I *3257:X O *D sky130_fd_sc_hd__clkbuf_1
*CAP
1 *2662:A1 0
2 *3257:X 0.00112199
3 *935:12 0.00112199
4 *935:12 *2660:S 0.000392283
5 *935:12 *2663:A1 6.92626e-05
6 *935:12 *3328:A 0.000106826
7 *935:12 *3333:A 5.80217e-05
8 *935:12 *3336:A 2.79092e-05
9 *935:12 *987:10 0
10 *935:12 *989:18 4.87854e-05
11 PSEL4 *935:12 0.000663301
12 PWDATA[1] *935:12 0
13 PWDATA[4] *935:12 0
14 PWRITE *935:12 0
15 *2437:A *935:12 3.34779e-05
16 *2661:A1 *935:12 7.35605e-05
17 *2811:D *935:12 0
18 *2812:D *935:12 0.000179933
19 *3258:A *935:12 0
20 *766:10 *935:12 0.000362818
21 *766:27 *935:12 0.000100474
22 *794:12 *935:12 0
23 *842:12 *935:12 0
24 *842:14 *935:12 0
25 *842:18 *935:12 0
*RES
1 *3257:X *935:12 46.9964 
2 *935:12 *2662:A1 9.3 
*END

*D_NET *936 0.0146256
*CONN
*I *2598:C1 I *D sky130_fd_sc_hd__a221o_1
*I *2395:A I *D sky130_fd_sc_hd__nand2_1
*I *2468:C1 I *D sky130_fd_sc_hd__a221o_1
*I *2501:C1 I *D sky130_fd_sc_hd__a221o_1
*I *2524:C1 I *D sky130_fd_sc_hd__a211o_1
*I *2513:C1 I *D sky130_fd_sc_hd__a211o_1
*I *2623:C1 I *D sky130_fd_sc_hd__a211o_1
*I *3217:X O *D sky130_fd_sc_hd__clkbuf_2
*CAP
1 *2598:C1 7.72334e-05
2 *2395:A 0.00065402
3 *2468:C1 0
4 *2501:C1 0.000438097
5 *2524:C1 0.000601257
6 *2513:C1 0.000152236
7 *2623:C1 0.000577499
8 *3217:X 0.000506816
9 *936:60 0.00103935
10 *936:49 0.0011145
11 *936:37 0.000962266
12 *936:24 0.000651857
13 *936:20 0.000908237
14 *936:18 0.000763908
15 *936:18 *2385:A 6.0038e-05
16 *936:18 *2385:B 1.00073e-05
17 *936:18 *2385:C 2.95726e-05
18 *936:18 *2400:A_N 0.000182694
19 *936:18 *2424:D 4.038e-06
20 *936:18 *938:36 5.7616e-05
21 *936:18 *940:42 9.96264e-05
22 *2397:A *936:49 0.000175892
23 *2415:B *2501:C1 0
24 *2462:A1 *2395:A 0.000109932
25 *2462:B1 *2623:C1 1.90936e-05
26 *2468:A1 *2623:C1 0
27 *2468:A1 *936:24 2.8266e-06
28 *2468:B1 *936:20 3.07101e-05
29 *2468:B1 *936:24 1.59145e-05
30 *2468:B2 *2395:A 6.26774e-06
31 *2468:B2 *936:49 0.000178847
32 *2469:C1 *2623:C1 4.34741e-05
33 *2500:A1 *2501:C1 2.27416e-05
34 *2501:A1 *2501:C1 0
35 *2503:D *2598:C1 2.55756e-05
36 *2510:A2 *936:49 2.89114e-05
37 *2510:B2 *2513:C1 0.000134549
38 *2510:B2 *936:49 8.18357e-05
39 *2511:C1 *2524:C1 0.000123295
40 *2512:A2 *2501:C1 9.90431e-05
41 *2513:A1 *2513:C1 5.52302e-05
42 *2513:A2 *2524:C1 1.69115e-05
43 *2513:B1 *2524:C1 0
44 *2514:C *2524:C1 0.00014576
45 *2521:A1 *2524:C1 0
46 *2521:A2 *2524:C1 0.000384498
47 *2522:A2 *2524:C1 0
48 *2522:C1 *2524:C1 6.65398e-05
49 *2523:B1 *2524:C1 0.000337718
50 *2524:A1 *2524:C1 5.52302e-05
51 *2524:B1 *2524:C1 5.71472e-05
52 *2598:A1 *936:18 0.00012401
53 *2598:B1 *936:18 2.16719e-05
54 *2598:B1 *936:20 5.67079e-05
55 *2598:B2 *2598:C1 0.000210681
56 *2599:C1 *936:18 0.000115639
57 *2599:C1 *936:20 1.02504e-05
58 *2622:A2 *2623:C1 0.000330374
59 *2623:A1 *2623:C1 5.33005e-05
60 *2851:GATE_N *2501:C1 0
61 *2851:GATE_N *2513:C1 9.60939e-05
62 *2962:D *2501:C1 0
63 *2978:GATE_N *2501:C1 0
64 *2991:D *936:49 9.41642e-05
65 *2991:GATE_N *936:49 0.000309273
66 *3134:A *2524:C1 0
67 *3135:A *2501:C1 0
68 *3196:A *2395:A 5.03772e-05
69 *3196:A *936:20 8.26605e-05
70 *3196:A *936:24 0
71 *3372:A *936:18 9.96264e-05
72 *476:12 *936:18 7.43539e-05
73 *496:16 *2623:C1 6.98246e-05
74 *496:16 *936:20 0
75 *496:16 *936:24 0
76 *805:54 *2623:C1 0.000375104
77 *893:12 *936:20 9.60337e-06
78 *906:10 *2395:A 8.70435e-05
79 *906:20 *2395:A 7.13226e-06
80 *907:48 *936:49 0.000431006
81 *909:18 *2598:C1 0.000288603
82 *909:66 *2501:C1 7.50601e-05
83 *909:66 *2524:C1 1.17968e-05
84 *922:68 *2623:C1 7.02611e-05
85 *922:87 *2524:C1 0
86 *929:18 *2501:C1 0
87 *929:26 *2524:C1 1.17968e-05
88 *929:26 *936:49 1.21289e-05
89 *929:48 *936:49 0.0001839
90 *929:58 *936:49 0.000133798
91 *929:83 *2623:C1 2.05413e-05
*RES
1 *3217:X *936:18 32.2643 
2 *936:18 *936:20 3.76786 
3 *936:20 *936:24 1.26786 
4 *936:24 *2623:C1 27.7286 
5 *936:24 *936:37 4.5 
6 *936:37 *936:49 18.5 
7 *936:49 *2513:C1 12.7286 
8 *936:49 *936:60 4.5 
9 *936:60 *2524:C1 29.3357 
10 *936:60 *2501:C1 21.55 
11 *936:37 *2468:C1 9.3 
12 *936:20 *2395:A 22.05 
13 *936:18 *2598:C1 17.2464 
*END

*D_NET *937 0.00550509
*CONN
*I *3216:A I *D sky130_fd_sc_hd__buf_2
*I *3308:X O *D sky130_fd_sc_hd__clkbuf_1
*CAP
1 *3216:A 0
2 *3308:X 0.00120083
3 *937:12 0.00120083
4 *2395:B *937:12 9.15186e-06
5 *2462:A1 *937:12 0.000169443
6 *2613:C *937:12 0.000128154
7 *2948:GATE_N *937:12 0.00108045
8 *3171:A *937:12 0
9 *3208:A *937:12 0.000846197
10 *3304:A *937:12 0.000144696
11 *383:10 *937:12 0
12 *435:12 *937:12 8.83075e-05
13 *488:14 *937:12 0.000379693
14 *660:14 *937:12 0
15 *831:22 *937:12 0
16 *840:44 *937:12 9.3246e-06
17 *864:47 *937:12 0
18 *900:6 *937:12 0.000142856
19 *910:10 *937:12 0
20 *934:6 *937:12 0.000105163
*RES
1 *3308:X *937:12 48.425 
2 *937:12 *3216:A 9.3 
*END

*D_NET *938 0.00915635
*CONN
*I *2780:A I *D sky130_fd_sc_hd__xnor2_1
*I *2416:B I *D sky130_fd_sc_hd__and4b_1
*I *2398:C I *D sky130_fd_sc_hd__nor4b_1
*I *2410:D_N I *D sky130_fd_sc_hd__nor4b_1
*I *2412:C I *D sky130_fd_sc_hd__and4bb_1
*I *2414:C I *D sky130_fd_sc_hd__and4bb_1
*I *2396:C I *D sky130_fd_sc_hd__nor4b_1
*I *2400:B_N I *D sky130_fd_sc_hd__and4bb_1
*I *2385:D I *D sky130_fd_sc_hd__nor4_1
*I *2424:D I *D sky130_fd_sc_hd__and4_1
*I *3218:X O *D sky130_fd_sc_hd__clkbuf_2
*CAP
1 *2780:A 0.000147625
2 *2416:B 0
3 *2398:C 5.0656e-05
4 *2410:D_N 0.000209134
5 *2412:C 0
6 *2414:C 0
7 *2396:C 0.000368409
8 *2400:B_N 1.64323e-05
9 *2385:D 0
10 *2424:D 0.000264235
11 *3218:X 0.000136807
12 *938:119 0.000230228
13 *938:51 1.64323e-05
14 *938:36 0.000445293
15 *938:32 0.000590705
16 *938:30 9.64588e-05
17 *938:26 0.000655397
18 *938:14 0.00109954
19 *938:8 0.00081336
20 *2396:C *2396:A 0
21 *2396:C *2414:A_N 0.000228558
22 *2396:C *2414:D 0.000359262
23 *2396:C *940:27 7.91391e-05
24 *2396:C *943:41 4.87953e-05
25 *2398:C *2416:A_N 0.00014285
26 *2398:C *2416:C 0.000284711
27 *2398:C *2416:D 6.58597e-05
28 *2400:B_N *2385:B 9.90431e-05
29 *2400:B_N *2385:C 9.90431e-05
30 *2410:D_N *2410:C 1.34147e-05
31 *2410:D_N *2412:B_N 0.000100866
32 *2410:D_N *947:71 0.000253893
33 *938:26 *947:71 1.39726e-05
34 *938:26 *947:77 3.30352e-05
35 *938:30 *947:77 2.1527e-05
36 *938:32 *947:77 2.60251e-05
37 *938:36 *2385:A 3.38136e-05
38 *938:36 *947:77 1.19309e-05
39 *938:119 *2416:C 6.01685e-05
40 *938:119 *2416:D 0.000105698
41 *2503:D *2424:D 9.60875e-05
42 *2597:A1 *938:14 0
43 *2597:A2 *938:14 0.00019554
44 *2597:B2 *938:14 0.000123295
45 *2598:A1 *2424:D 5.01117e-05
46 *2599:A1 *938:26 0.000197984
47 *2599:A2 *938:14 3.17163e-05
48 *2599:C1 *938:119 1.98839e-05
49 *2775:B *2780:A 5.71472e-05
50 *2775:B *938:8 0
51 *2776:B *938:8 0
52 *2776:B *938:14 0
53 *2987:GATE_N *938:26 0
54 *3193:A *938:26 7.79781e-06
55 *3194:A *938:26 5.52238e-05
56 *3197:A *938:14 0.000265453
57 *3197:A *938:119 0.000225616
58 *3211:A *938:14 0
59 *3213:A *938:26 0.000153615
60 *494:8 *938:26 9.41642e-05
61 *496:8 *938:119 0.000137983
62 *496:16 *938:26 5.94923e-05
63 *647:10 *938:119 1.71471e-05
64 *850:31 *938:26 2.87555e-06
65 *870:18 *938:14 1.39841e-05
66 *907:12 *938:14 1.02504e-05
67 *909:18 *2424:D 3.41939e-05
68 *925:33 *938:32 1.65558e-05
69 *925:33 *938:36 6.2589e-06
70 *930:20 *2424:D 0
71 *930:20 *938:30 0
72 *930:20 *938:32 0
73 *930:20 *938:36 0
74 *936:18 *2424:D 4.038e-06
75 *936:18 *938:36 5.7616e-05
*RES
1 *3218:X *938:8 16.05 
2 *938:8 *938:14 15.2143 
3 *938:14 *938:26 16.3393 
4 *938:26 *938:30 5.53571 
5 *938:30 *938:32 1.03571 
6 *938:32 *938:36 3.39286 
7 *938:36 *2424:D 17.7464 
8 *938:36 *938:51 4.5 
9 *938:51 *2385:D 9.3 
10 *938:51 *2400:B_N 10.2464 
11 *938:32 *2396:C 21.9429 
12 *938:30 *2414:C 13.8 
13 *938:26 *2412:C 9.3 
14 *938:26 *2410:D_N 13.9786 
15 *938:14 *938:119 5.08929 
16 *938:119 *2398:C 12.3179 
17 *938:119 *2416:B 9.3 
18 *938:8 *2780:A 16.3893 
*END

*D_NET *939 0.00935871
*CONN
*I *2402:C I *D sky130_fd_sc_hd__nor4b_1
*I *2418:D I *D sky130_fd_sc_hd__and4bb_1
*I *2386:D I *D sky130_fd_sc_hd__or4_1
*I *2420:C I *D sky130_fd_sc_hd__and4b_1
*I *2404:B_N I *D sky130_fd_sc_hd__and4bb_1
*I *2408:A_N I *D sky130_fd_sc_hd__and4b_1
*I *2422:D I *D sky130_fd_sc_hd__and4b_1
*I *2406:B_N I *D sky130_fd_sc_hd__and4bb_1
*I *2782:A1 I *D sky130_fd_sc_hd__a22o_1
*I *3219:X O *D sky130_fd_sc_hd__clkbuf_2
*CAP
1 *2402:C 7.03253e-05
2 *2418:D 3.37258e-05
3 *2386:D 0
4 *2420:C 0.000275343
5 *2404:B_N 0.000161307
6 *2408:A_N 0
7 *2422:D 8.70937e-05
8 *2406:B_N 0
9 *2782:A1 4.69773e-05
10 *3219:X 2.26257e-05
11 *939:79 0.000628549
12 *939:64 0.000514513
13 *939:46 0.000236377
14 *939:40 0.000198734
15 *939:38 0.000241624
16 *939:27 0.000245534
17 *939:23 0.000604746
18 *939:6 0.000516938
19 *2402:C *2402:A 0.000130419
20 *2404:B_N *3220:A 4.59075e-05
21 *2404:B_N *948:20 9.41642e-05
22 *2418:D *2418:A_N 6.05161e-06
23 *2418:D *941:21 9.41642e-05
24 *2422:D *2422:C 9.69065e-05
25 *2422:D *941:38 0
26 *2782:A1 *2782:A2 0.00014285
27 *939:6 *2782:A2 9.60939e-05
28 *939:23 *2402:A 5.33005e-05
29 *939:23 *942:12 2.82057e-05
30 *939:23 *945:25 0
31 *939:27 *2402:D_N 7.15591e-05
32 *939:27 *3226:A 0
33 *939:27 *948:10 3.17148e-05
34 *939:27 *948:12 0.000173083
35 *939:38 *2402:D_N 5.59013e-05
36 *939:38 *3226:A 0
37 *939:38 *948:12 3.34783e-05
38 *939:38 *948:14 6.19181e-05
39 *939:38 *948:20 1.17968e-05
40 *939:40 *941:21 9.91086e-05
41 *939:46 *2422:C 5.33005e-05
42 *939:46 *941:21 6.76116e-05
43 *939:46 *941:25 0.000190336
44 *939:79 *2386:C 0.000144684
45 *939:79 *3226:A 2.06075e-05
46 *939:79 *948:20 8.17274e-05
47 *939:79 *948:33 0.000225616
48 *2503:D *2420:C 0.000479242
49 *2602:B *2420:C 4.36996e-05
50 *2782:B1 *2782:A1 2.44318e-05
51 *2782:B2 *2782:A1 1.21436e-05
52 *3035:GATE_N *2418:D 5.33005e-05
53 *3035:GATE_N *939:38 2.24646e-05
54 *3035:GATE_N *939:40 0.000114759
55 *3035:GATE_N *939:46 0.000113535
56 *3096:D *939:23 7.83659e-05
57 *3190:A *2420:C 0.000100831
58 *3218:A *2782:A1 0.0001479
59 *3218:A *939:6 8.36572e-05
60 *491:12 *2420:C 5.01213e-05
61 *499:18 *939:46 5.41794e-05
62 *752:10 *939:23 0.000177227
63 *752:19 *939:23 0.000210021
64 *753:12 *2402:C 0.000228558
65 *753:12 *939:23 0.00061109
66 *830:20 *939:79 4.22135e-06
67 *834:66 *939:38 8.91726e-05
68 *834:66 *939:40 1.08359e-05
69 *849:12 *939:79 5.58941e-05
70 *849:31 *2420:C 6.09572e-05
71 *849:31 *939:79 4.00388e-05
72 *850:31 *2418:D 8.43535e-06
73 *870:18 *2402:C 1.82549e-05
74 *870:18 *939:23 0.000155611
75 *925:43 *2420:C 0.000123288
76 *925:43 *939:79 0.000191556
*RES
1 *3219:X *939:6 10.2464 
2 *939:6 *2782:A1 11.4964 
3 *939:6 *939:23 21.6786 
4 *939:23 *939:27 7.05357 
5 *939:27 *2406:B_N 13.8 
6 *939:27 *939:38 3.69643 
7 *939:38 *939:40 1.64286 
8 *939:40 *939:46 8.5 
9 *939:46 *2422:D 11.0991 
10 *939:46 *2408:A_N 9.3 
11 *939:40 *939:64 4.5 
12 *939:64 *2404:B_N 11.4964 
13 *939:64 *939:79 11.2679 
14 *939:79 *2420:C 30.425 
15 *939:79 *2386:D 13.8 
16 *939:38 *2418:D 14.7464 
17 *939:23 *2402:C 11.9071 
*END

*D_NET *940 0.00827811
*CONN
*I *2386:C I *D sky130_fd_sc_hd__or4_1
*I *2416:A_N I *D sky130_fd_sc_hd__and4b_1
*I *2398:B I *D sky130_fd_sc_hd__nor4b_1
*I *2410:C I *D sky130_fd_sc_hd__nor4b_1
*I *2412:B_N I *D sky130_fd_sc_hd__and4bb_1
*I *2400:A_N I *D sky130_fd_sc_hd__and4bb_1
*I *2385:C I *D sky130_fd_sc_hd__nor4_1
*I *2424:C I *D sky130_fd_sc_hd__and4_1
*I *2414:B_N I *D sky130_fd_sc_hd__and4bb_1
*I *2396:B I *D sky130_fd_sc_hd__nor4b_1
*I *3220:X O *D sky130_fd_sc_hd__clkbuf_2
*CAP
1 *2386:C 6.09681e-05
2 *2416:A_N 4.72862e-05
3 *2398:B 0
4 *2410:C 8.43257e-05
5 *2412:B_N 0.000116868
6 *2400:A_N 6.00977e-05
7 *2385:C 0.000110268
8 *2424:C 9.6098e-05
9 *2414:B_N 0.000168707
10 *2396:B 0
11 *3220:X 0
12 *940:105 0.00024794
13 *940:79 0.000201193
14 *940:77 0.000241947
15 *940:44 0.000232246
16 *940:42 0.000187531
17 *940:40 0.000142846
18 *940:27 0.000445734
19 *940:14 0.000864457
20 *940:4 0.000648398
21 *2385:C *2385:B 0.000277802
22 *2410:C *2412:A_N 2.21991e-05
23 *2410:C *947:60 9.60939e-05
24 *2410:C *947:71 1.98839e-05
25 *2414:B_N *2414:D 0.00011194
26 *2416:A_N *2398:A 9.35228e-06
27 *2416:A_N *2416:C 2.28598e-05
28 *2416:A_N *2416:D 0.000199432
29 *2424:C *2400:C 0.000102545
30 *940:14 *3220:A 3.37161e-05
31 *940:14 *943:33 0.000444239
32 *940:14 *943:41 5.52302e-05
33 *940:14 *947:43 2.39664e-05
34 *940:27 *2414:D 2.42516e-05
35 *940:27 *943:41 9.99644e-06
36 *940:27 *947:43 4.6025e-06
37 *940:27 *947:60 3.91507e-05
38 *940:42 *943:82 2.58997e-05
39 *940:77 *943:82 3.25078e-05
40 *940:77 *947:60 9.25014e-06
41 *940:105 *943:104 2.49484e-05
42 *940:105 *947:60 5.1588e-05
43 *940:105 *947:110 0.000136073
44 *2396:C *940:27 7.91391e-05
45 *2398:C *2416:A_N 0.00014285
46 *2400:B_N *2385:C 9.90431e-05
47 *2410:D_N *2410:C 1.34147e-05
48 *2410:D_N *2412:B_N 0.000100866
49 *3217:A *940:42 0.000169804
50 *3217:A *940:44 2.24646e-05
51 *3305:A *940:105 2.61337e-05
52 *3308:A *2424:C 1.81709e-05
53 *3308:A *940:44 3.17148e-05
54 *3372:A *2424:C 0.000146474
55 *3372:A *940:42 5.06854e-05
56 *3372:A *940:44 2.16719e-05
57 *3372:A *940:77 3.25078e-05
58 *3372:A *940:105 8.46292e-05
59 *476:12 *2385:C 0.00029365
60 *476:12 *2400:A_N 0.000224583
61 *490:14 *940:14 0.000175892
62 *493:8 *940:14 2.62628e-05
63 *493:8 *940:27 3.58934e-05
64 *830:20 *940:14 0.000135028
65 *849:31 *2386:C 0.000144684
66 *850:31 *2410:C 1.15281e-05
67 *936:18 *2385:C 2.95726e-05
68 *936:18 *2400:A_N 0.000182694
69 *936:18 *940:42 9.96264e-05
70 *939:79 *2386:C 0.000144684
*RES
1 *3220:X *940:4 9.3 
2 *940:4 *940:14 13.7143 
3 *940:14 *2396:B 13.8 
4 *940:14 *940:27 8.53571 
5 *940:27 *2414:B_N 12.0321 
6 *940:27 *940:40 4.5 
7 *940:40 *940:42 2.85714 
8 *940:42 *940:44 0.732143 
9 *940:44 *2424:C 16.2821 
10 *940:44 *2385:C 18.05 
11 *940:42 *2400:A_N 15.9786 
12 *940:40 *940:77 1.03571 
13 *940:77 *940:79 4.5 
14 *940:79 *2412:B_N 11.0857 
15 *940:79 *2410:C 11.5143 
16 *940:77 *940:105 8.19643 
17 *940:105 *2398:B 9.3 
18 *940:105 *2416:A_N 11.4964 
19 *940:4 *2386:C 20.2464 
*END

*D_NET *941 0.0050725
*CONN
*I *2406:C I *D sky130_fd_sc_hd__and4bb_1
*I *2402:D_N I *D sky130_fd_sc_hd__nor4b_1
*I *2404:C I *D sky130_fd_sc_hd__and4bb_1
*I *2420:B I *D sky130_fd_sc_hd__and4b_1
*I *2408:B I *D sky130_fd_sc_hd__and4b_1
*I *2422:C I *D sky130_fd_sc_hd__and4b_1
*I *2418:C I *D sky130_fd_sc_hd__and4bb_1
*I *3221:X O *D sky130_fd_sc_hd__buf_1
*CAP
1 *2406:C 3.45269e-05
2 *2402:D_N 8.58335e-05
3 *2404:C 0
4 *2420:B 0.000358736
5 *2408:B 0
6 *2422:C 0.00010701
7 *2418:C 0
8 *3221:X 0
9 *941:73 0.000232192
10 *941:38 0.000414147
11 *941:25 0.000253861
12 *941:21 0.000261263
13 *941:10 0.000237249
14 *941:4 0.000179258
15 *2402:D_N *2402:B 8.91726e-05
16 *2402:D_N *3226:A 6.8646e-06
17 *2406:C *2406:D 4.18895e-05
18 *2406:C *944:69 9.90431e-05
19 *2420:B *2408:D 9.97842e-05
20 *2420:B *2420:D 0.000313717
21 *2420:B *944:31 7.44773e-06
22 *2422:C *2408:D 3.76015e-06
23 *2422:C *2422:B 4.74567e-05
24 *2422:C *944:31 7.66576e-05
25 *941:10 *944:10 0.000171368
26 *941:10 *944:12 9.25014e-06
27 *941:10 *944:69 9.25014e-06
28 *941:10 *948:14 9.15804e-05
29 *941:10 *948:20 8.15095e-05
30 *941:21 *2418:A_N 1.21258e-05
31 *941:38 *944:31 1.21258e-05
32 *941:73 *2406:A_N 5.52302e-05
33 *941:73 *944:69 0.00018077
34 *2418:D *941:21 9.41642e-05
35 *2422:D *2422:C 9.69065e-05
36 *2422:D *941:38 0
37 *3035:GATE_N *941:21 1.98839e-05
38 *492:14 *2420:B 0.000187651
39 *497:8 *941:21 5.33005e-05
40 *499:18 *2422:C 5.52238e-05
41 *834:66 *2406:C 9.71197e-05
42 *834:66 *941:21 0.000167018
43 *834:66 *941:25 0.000190336
44 *939:27 *2402:D_N 7.15591e-05
45 *939:38 *2402:D_N 5.59013e-05
46 *939:40 *941:21 9.91086e-05
47 *939:46 *2422:C 5.33005e-05
48 *939:46 *941:21 6.76116e-05
49 *939:46 *941:25 0.000190336
*RES
1 *3221:X *941:4 9.3 
2 *941:4 *941:10 11.25 
3 *941:10 *2418:C 9.3 
4 *941:10 *941:21 8.51786 
5 *941:21 *941:25 7.05357 
6 *941:25 *2422:C 12.3179 
7 *941:25 *941:38 1.26786 
8 *941:38 *2408:B 9.3 
9 *941:38 *2420:B 17.2464 
10 *941:21 *2404:C 13.8 
11 *941:4 *941:73 2.5 
12 *941:73 *2402:D_N 20.8536 
13 *941:73 *2406:C 10.6571 
*END

*D_NET *942 0.00702178
*CONN
*I *3221:A I *D sky130_fd_sc_hd__buf_1
*I *3220:A I *D sky130_fd_sc_hd__clkbuf_2
*I *2778:A1 I *D sky130_fd_sc_hd__a22o_1
*I *2774:A I *D sky130_fd_sc_hd__nand2_1
*I *2775:A I *D sky130_fd_sc_hd__or2_1
*I *3222:X O *D sky130_fd_sc_hd__buf_1
*CAP
1 *3221:A 0
2 *3220:A 0.00026021
3 *2778:A1 0
4 *2774:A 1.84364e-05
5 *2775:A 0.000568175
6 *3222:X 0
7 *942:59 0.000523689
8 *942:20 0.000925842
9 *942:12 0.000562276
10 *942:4 0.000486524
11 *3220:A *943:33 0.000251862
12 *3220:A *944:10 0.000162118
13 *3220:A *944:12 0.00015134
14 *3220:A *944:69 7.39741e-05
15 *3220:A *948:20 0.000177815
16 *3220:A *948:33 0.000171289
17 *942:12 *945:25 0
18 *942:12 *965:10 0.000102545
19 *942:59 *944:69 1.02504e-05
20 *942:59 *948:10 3.52562e-05
21 *942:59 *948:12 6.76178e-05
22 *2404:B_N *3220:A 4.59075e-05
23 *2777:A *2775:A 8.33208e-05
24 *2778:B2 *2775:A 5.71472e-05
25 *2778:B2 *942:20 0.000362145
26 *2779:A1 *2775:A 4.43256e-05
27 *2779:B1_N *2775:A 0.000186662
28 *2781:A *2775:A 2.89016e-05
29 *2781:B *2775:A 0.00020247
30 *3096:D *942:20 9.9471e-06
31 *3218:A *2775:A 2.88018e-06
32 *383:10 *3220:A 0.000389139
33 *383:10 *942:59 0.000302478
34 *752:10 *942:12 0.000277726
35 *752:10 *942:59 9.3111e-05
36 *752:19 *942:12 1.02504e-05
37 *753:18 *2774:A 5.7661e-06
38 *753:18 *2775:A 0.000129595
39 *753:18 *942:20 5.94421e-05
40 *758:8 *2775:A 2.94103e-05
41 *760:6 *2775:A 3.47797e-05
42 *830:20 *3220:A 5.52302e-05
43 *939:23 *942:12 2.82057e-05
44 *940:14 *3220:A 3.37161e-05
*RES
1 *3222:X *942:4 9.3 
2 *942:4 *942:12 13.625 
3 *942:12 *942:20 6.64286 
4 *942:20 *2775:A 29.3714 
5 *942:20 *2774:A 9.72857 
6 *942:12 *2778:A1 9.3 
7 *942:4 *942:59 10.3393 
8 *942:59 *3220:A 23.425 
9 *942:59 *3221:A 13.8 
*END

*D_NET *943 0.00869254
*CONN
*I *2396:A I *D sky130_fd_sc_hd__nor4b_1
*I *2414:D I *D sky130_fd_sc_hd__and4bb_1
*I *2416:D I *D sky130_fd_sc_hd__and4b_1
*I *2398:D_N I *D sky130_fd_sc_hd__nor4b_1
*I *2412:A_N I *D sky130_fd_sc_hd__and4bb_1
*I *2410:B I *D sky130_fd_sc_hd__nor4b_1
*I *2400:D I *D sky130_fd_sc_hd__and4bb_1
*I *2385:B I *D sky130_fd_sc_hd__nor4_1
*I *2424:B I *D sky130_fd_sc_hd__and4_1
*I *2408:C I *D sky130_fd_sc_hd__and4b_1
*I *3223:X O *D sky130_fd_sc_hd__clkbuf_2
*CAP
1 *2396:A 1.48539e-05
2 *2414:D 0.000170283
3 *2416:D 0.000112088
4 *2398:D_N 0
5 *2412:A_N 9.36316e-05
6 *2410:B 0
7 *2400:D 0
8 *2385:B 0.000333907
9 *2424:B 8.35091e-05
10 *2408:C 0
11 *3223:X 4.42083e-05
12 *943:104 0.000284585
13 *943:84 9.36316e-05
14 *943:82 0.000268531
15 *943:58 0.000371491
16 *943:43 0.000221398
17 *943:41 0.000560146
18 *943:33 0.00054617
19 *943:8 0.000382
20 *2412:A_N *947:71 0.000213986
21 *2414:D *2414:A_N 2.28499e-05
22 *2416:D *2398:A 9.35228e-06
23 *2416:D *2416:C 1.39726e-05
24 *2416:D *947:110 1.39841e-05
25 *943:8 *3226:A 0.00012501
26 *943:33 *3226:A 0.000217843
27 *943:82 *947:60 5.31122e-05
28 *943:82 *947:110 9.54798e-06
29 *943:104 *3223:A 0
30 *943:104 *947:110 0.000150062
31 *2385:C *2385:B 0.000277802
32 *2396:C *2396:A 0
33 *2396:C *2414:D 0.000359262
34 *2396:C *943:41 4.87953e-05
35 *2398:C *2416:D 6.58597e-05
36 *2400:B_N *2385:B 9.90431e-05
37 *2410:C *2412:A_N 2.21991e-05
38 *2414:B_N *2414:D 0.00011194
39 *2416:A_N *2416:D 0.000199432
40 *2503:D *2424:B 9.41642e-05
41 *2598:A1 *2385:B 5.33005e-05
42 *3217:A *943:43 0.00018518
43 *3217:A *943:82 9.51822e-06
44 *3220:A *943:33 0.000251862
45 *3304:A *2424:B 7.79781e-06
46 *3304:A *943:43 1.19402e-05
47 *3308:A *2424:B 0.00017924
48 *3308:A *943:43 4.73656e-05
49 *476:12 *2385:B 2.14658e-05
50 *476:12 *943:58 6.05161e-06
51 *486:18 *943:82 6.40275e-05
52 *488:14 *2424:B 5.01213e-05
53 *493:8 *943:41 4.51815e-05
54 *493:8 *943:43 5.50215e-05
55 *493:8 *943:82 9.74231e-06
56 *647:10 *2416:D 0.000504239
57 *647:10 *943:104 1.39726e-05
58 *834:66 *943:8 0.00012501
59 *834:66 *943:33 0.00020517
60 *850:31 *2412:A_N 0.000219711
61 *909:18 *2424:B 2.14757e-05
62 *925:33 *2414:D 0.00018372
63 *936:18 *2385:B 1.00073e-05
64 *938:119 *2416:D 0.000105698
65 *940:14 *943:33 0.000444239
66 *940:14 *943:41 5.52302e-05
67 *940:27 *2414:D 2.42516e-05
68 *940:27 *943:41 9.99644e-06
69 *940:42 *943:82 2.58997e-05
70 *940:77 *943:82 3.25078e-05
71 *940:105 *943:104 2.49484e-05
*RES
1 *3223:X *943:8 15.4429 
2 *943:8 *2408:C 13.8 
3 *943:8 *943:33 14.4821 
4 *943:33 *943:41 7.83036 
5 *943:41 *943:43 3.04464 
6 *943:43 *2424:B 16.3893 
7 *943:43 *943:58 5.03571 
8 *943:58 *2385:B 15.4786 
9 *943:58 *2400:D 9.3 
10 *943:41 *943:82 2.36607 
11 *943:82 *943:84 4.5 
12 *943:84 *2410:B 9.3 
13 *943:84 *2412:A_N 12.2107 
14 *943:82 *943:104 7.58929 
15 *943:104 *2398:D_N 9.3 
16 *943:104 *2416:D 14.7866 
17 *943:41 *2414:D 18.9964 
18 *943:33 *2396:A 9.72857 
*END

*D_NET *944 0.00507207
*CONN
*I *2406:D I *D sky130_fd_sc_hd__and4bb_1
*I *2402:B I *D sky130_fd_sc_hd__nor4b_1
*I *2418:B_N I *D sky130_fd_sc_hd__and4bb_1
*I *2404:A_N I *D sky130_fd_sc_hd__and4bb_1
*I *2420:A_N I *D sky130_fd_sc_hd__and4b_1
*I *2386:B I *D sky130_fd_sc_hd__or4_1
*I *2422:B I *D sky130_fd_sc_hd__and4b_1
*I *3224:X O *D sky130_fd_sc_hd__buf_1
*CAP
1 *2406:D 2.79243e-05
2 *2402:B 6.5454e-05
3 *2418:B_N 0.000118595
4 *2404:A_N 0
5 *2420:A_N 0.000106282
6 *2386:B 0
7 *2422:B 0.000104748
8 *3224:X 9.19762e-05
9 *944:69 0.000206032
10 *944:31 0.000599153
11 *944:16 0.000648719
12 *944:12 0.000140638
13 *944:10 0.000266268
14 *944:8 0.000262765
15 *2402:B *3226:A 0.00017309
16 *2418:B_N *2418:A_N 5.75147e-05
17 *2420:A_N *2408:D 3.57366e-05
18 *2420:A_N *2420:D 0.000147813
19 *944:12 *948:20 5.97623e-05
20 *944:31 *2408:D 0.000246515
21 *944:69 *948:12 2.58997e-05
22 *944:69 *948:14 1.31516e-05
23 *2402:D_N *2402:B 8.91726e-05
24 *2406:C *2406:D 4.18895e-05
25 *2406:C *944:69 9.90431e-05
26 *2420:B *944:31 7.44773e-06
27 *2422:C *2422:B 4.74567e-05
28 *2422:C *944:31 7.66576e-05
29 *3035:GATE_N *944:12 4.22776e-05
30 *3035:GATE_N *944:16 9.96264e-05
31 *3220:A *944:10 0.000162118
32 *3220:A *944:12 0.00015134
33 *3220:A *944:69 7.39741e-05
34 *383:10 *944:12 1.58619e-05
35 *383:10 *944:16 5.03624e-05
36 *477:26 *2420:A_N 3.18676e-05
37 *499:18 *944:31 5.52238e-05
38 *647:10 *2406:D 4.87953e-05
39 *647:10 *944:8 6.13757e-06
40 *647:10 *944:69 0.000158912
41 *834:66 *2406:D 2.28598e-05
42 *941:10 *944:10 0.000171368
43 *941:10 *944:12 9.25014e-06
44 *941:10 *944:69 9.25014e-06
45 *941:38 *944:31 1.21258e-05
46 *941:73 *944:69 0.00018077
47 *942:59 *944:69 1.02504e-05
*RES
1 *3224:X *944:8 14.7464 
2 *944:8 *944:10 2.25 
3 *944:10 *944:12 2.55357 
4 *944:12 *944:16 5.83929 
5 *944:16 *2422:B 11.2286 
6 *944:16 *944:31 5.875 
7 *944:31 *2386:B 9.3 
8 *944:31 *2420:A_N 11.8714 
9 *944:12 *2404:A_N 13.8 
10 *944:10 *2418:B_N 15.5679 
11 *944:8 *944:69 8.53571 
12 *944:69 *2402:B 20.55 
13 *944:69 *2406:D 10.2464 
*END

*D_NET *945 0.00673264
*CONN
*I *2768:B1 I *D sky130_fd_sc_hd__o21a_1
*I *2769:A I *D sky130_fd_sc_hd__or3_1
*I *3224:A I *D sky130_fd_sc_hd__buf_1
*I *3223:A I *D sky130_fd_sc_hd__clkbuf_2
*I *2772:A1 I *D sky130_fd_sc_hd__a22o_1
*I *3225:X O *D sky130_fd_sc_hd__buf_1
*CAP
1 *2768:B1 0.000208466
2 *2769:A 0.00015253
3 *3224:A 0
4 *3223:A 0.000747237
5 *2772:A1 0
6 *3225:X 4.51517e-05
7 *945:25 0.00140368
8 *945:14 0.000722955
9 *945:10 0.00030487
10 *945:6 0.000339443
11 *2768:B1 *2768:A1 0.000186662
12 *3223:A *3226:A 0.000144951
13 *3223:A *947:8 6.62983e-05
14 *3223:A *947:14 8.15095e-05
15 *3223:A *947:34 0.000150618
16 *3223:A *947:43 0.000196902
17 *3223:A *947:60 0.000151841
18 *945:14 *2772:A2 8.09146e-06
19 *945:25 *2772:A2 9.90367e-05
20 *945:25 *965:10 0
21 *945:25 *965:19 0
22 *2503:D *3223:A 5.09088e-05
23 *2768:A2 *2768:B1 0.000146513
24 *2768:A2 *945:10 0
25 *2768:A2 *945:14 0
26 *2772:B1 *2769:A 1.32552e-05
27 *2772:B1 *945:25 5.52238e-05
28 *2772:B2 *2769:A 3.4879e-05
29 *3093:D *945:25 6.05161e-06
30 *3094:D *945:25 4.05247e-05
31 *3099:A *2768:B1 0.000137647
32 *3099:A *945:6 4.46231e-06
33 *3219:A *945:25 1.25579e-05
34 *3222:A *945:25 0.000315165
35 *3225:A *2768:B1 2.34059e-05
36 *383:10 *3223:A 0.000426015
37 *383:10 *945:25 0.000293975
38 *493:8 *3223:A 0
39 *771:14 *945:10 0
40 *771:14 *945:14 0
41 *771:22 *945:14 0
42 *771:22 *945:25 2.64165e-05
43 *780:10 *945:25 0.0001354
44 *939:23 *945:25 0
45 *942:12 *945:25 0
46 *943:104 *3223:A 0
*RES
1 *3225:X *945:6 9.83571 
2 *945:6 *945:10 5.83929 
3 *945:10 *945:14 5.53571 
4 *945:14 *2772:A1 9.3 
5 *945:14 *945:25 19.1607 
6 *945:25 *3223:A 31.3893 
7 *945:25 *3224:A 13.8 
8 *945:10 *2769:A 16.4071 
9 *945:6 *2768:B1 15.5143 
*END

*D_NET *946 0.00158013
*CONN
*I *2663:A1 I *D sky130_fd_sc_hd__mux2_1
*I *3258:X O *D sky130_fd_sc_hd__clkbuf_1
*CAP
1 *2663:A1 0.000360226
2 *3258:X 0.000360226
3 *2663:A1 *2660:S 0.000324167
4 *2663:A1 *3328:A 0.00046625
5 *935:12 *2663:A1 6.92626e-05
*RES
1 *3258:X *2663:A1 36.0821 
*END

*D_NET *947 0.00773833
*CONN
*I *2398:A I *D sky130_fd_sc_hd__nor4b_1
*I *2416:C I *D sky130_fd_sc_hd__and4b_1
*I *2412:D I *D sky130_fd_sc_hd__and4bb_1
*I *2414:A_N I *D sky130_fd_sc_hd__and4bb_1
*I *2385:A I *D sky130_fd_sc_hd__nor4_1
*I *2410:A I *D sky130_fd_sc_hd__nor4b_1
*I *2396:D_N I *D sky130_fd_sc_hd__nor4b_1
*I *2422:A_N I *D sky130_fd_sc_hd__and4b_1
*I *2424:A I *D sky130_fd_sc_hd__and4_1
*I *2400:C I *D sky130_fd_sc_hd__and4bb_1
*I *3226:X O *D sky130_fd_sc_hd__clkbuf_2
*CAP
1 *2398:A 2.064e-05
2 *2416:C 0.000168466
3 *2412:D 0
4 *2414:A_N 0.00017745
5 *2385:A 4.31872e-05
6 *2410:A 0
7 *2396:D_N 0
8 *2422:A_N 0
9 *2424:A 0
10 *2400:C 0.000116748
11 *3226:X 6.18092e-05
12 *947:110 0.000311231
13 *947:77 0.000358718
14 *947:71 0.000252206
15 *947:62 0.000114125
16 *947:60 0.000508414
17 *947:43 0.000485771
18 *947:34 0.000173619
19 *947:14 0.000307546
20 *947:8 0.000326745
21 *2396:C *2414:A_N 0.000228558
22 *2398:C *2416:C 0.000284711
23 *2410:C *947:60 9.60939e-05
24 *2410:C *947:71 1.98839e-05
25 *2410:D_N *947:71 0.000253893
26 *2412:A_N *947:71 0.000213986
27 *2414:D *2414:A_N 2.28499e-05
28 *2416:A_N *2398:A 9.35228e-06
29 *2416:A_N *2416:C 2.28598e-05
30 *2416:D *2398:A 9.35228e-06
31 *2416:D *2416:C 1.39726e-05
32 *2416:D *947:110 1.39841e-05
33 *2424:C *2400:C 0.000102545
34 *2503:D *947:8 0.00022459
35 *2503:D *947:14 3.39935e-05
36 *2599:C1 *2385:A 0.000154762
37 *2599:C1 *947:77 0.000231099
38 *3223:A *947:8 6.62983e-05
39 *3223:A *947:14 8.15095e-05
40 *3223:A *947:34 0.000150618
41 *3223:A *947:43 0.000196902
42 *3223:A *947:60 0.000151841
43 *3304:A *947:34 0
44 *3308:A *2400:C 0.00012501
45 *3372:A *2400:C 3.80904e-05
46 *487:8 *2416:C 9.90367e-05
47 *488:14 *2400:C 0
48 *493:8 *947:43 0
49 *494:8 *947:77 6.05161e-06
50 *850:31 *947:60 2.5547e-05
51 *850:31 *947:71 1.54142e-05
52 *909:18 *2400:C 9.90431e-05
53 *909:18 *947:14 0.000204672
54 *909:18 *947:34 2.83916e-05
55 *925:33 *2414:A_N 1.74352e-05
56 *930:20 *947:71 0.000232399
57 *930:20 *947:77 9.90431e-05
58 *936:18 *2385:A 6.0038e-05
59 *938:26 *947:71 1.39726e-05
60 *938:26 *947:77 3.30352e-05
61 *938:30 *947:77 2.1527e-05
62 *938:32 *947:77 2.60251e-05
63 *938:36 *2385:A 3.38136e-05
64 *938:36 *947:77 1.19309e-05
65 *938:119 *2416:C 6.01685e-05
66 *940:14 *947:43 2.39664e-05
67 *940:27 *947:43 4.6025e-06
68 *940:27 *947:60 3.91507e-05
69 *940:77 *947:60 9.25014e-06
70 *940:105 *947:60 5.1588e-05
71 *940:105 *947:110 0.000136073
72 *943:82 *947:60 5.31122e-05
73 *943:82 *947:110 9.54798e-06
74 *943:104 *947:110 0.000150062
*RES
1 *3226:X *947:8 15.9786 
2 *947:8 *947:14 8.53571 
3 *947:14 *2400:C 21.4964 
4 *947:14 *2424:A 9.3 
5 *947:8 *947:34 1.94643 
6 *947:34 *2422:A_N 13.8 
7 *947:34 *947:43 2.55357 
8 *947:43 *2396:D_N 13.8 
9 *947:43 *947:60 15.0893 
10 *947:60 *947:62 4.5 
11 *947:62 *2410:A 9.3 
12 *947:62 *947:71 4.66071 
13 *947:71 *947:77 8.60714 
14 *947:77 *2385:A 15.7464 
15 *947:77 *2414:A_N 17.3357 
16 *947:71 *2412:D 9.3 
17 *947:60 *947:110 7.41071 
18 *947:110 *2416:C 13.55 
19 *947:110 *2398:A 9.72857 
*END

*D_NET *948 0.00639897
*CONN
*I *2402:A I *D sky130_fd_sc_hd__nor4b_1
*I *2406:A_N I *D sky130_fd_sc_hd__and4bb_1
*I *2418:A_N I *D sky130_fd_sc_hd__and4bb_1
*I *2420:D I *D sky130_fd_sc_hd__and4b_1
*I *2408:D I *D sky130_fd_sc_hd__and4b_1
*I *2386:A I *D sky130_fd_sc_hd__or4_1
*I *2404:D I *D sky130_fd_sc_hd__and4bb_1
*I *3227:X O *D sky130_fd_sc_hd__buf_1
*CAP
1 *2402:A 5.26091e-05
2 *2406:A_N 2.84912e-05
3 *2418:A_N 9.94185e-05
4 *2420:D 0.000118288
5 *2408:D 0.000127723
6 *2386:A 0
7 *2404:D 0
8 *3227:X 0.000267632
9 *948:33 0.000523071
10 *948:20 0.000403016
11 *948:14 0.000288514
12 *948:12 0.00019854
13 *948:10 0.00042715
14 *2402:C *2402:A 0.000130419
15 *2404:B_N *948:20 9.41642e-05
16 *2418:B_N *2418:A_N 5.75147e-05
17 *2418:D *2418:A_N 6.05161e-06
18 *2420:A_N *2408:D 3.57366e-05
19 *2420:A_N *2420:D 0.000147813
20 *2420:B *2408:D 9.97842e-05
21 *2420:B *2420:D 0.000313717
22 *2422:C *2408:D 3.76015e-06
23 *2765:B *948:10 0.000186662
24 *2766:A0 *948:10 2.77289e-05
25 *2907:D *948:33 9.41642e-05
26 *3035:GATE_N *948:20 0.000170661
27 *3220:A *948:20 0.000177815
28 *3220:A *948:33 0.000171289
29 *3371:A *2420:D 0.000102563
30 *477:26 *948:33 1.71615e-05
31 *490:14 *948:33 9.87983e-06
32 *647:10 *948:33 0
33 *752:10 *948:10 6.05161e-06
34 *830:20 *948:33 3.68898e-05
35 *849:12 *948:33 1.08359e-05
36 *849:31 *948:33 0.000214726
37 *850:31 *2418:A_N 0.000260574
38 *870:18 *2402:A 6.09889e-05
39 *925:133 *948:33 6.6289e-05
40 *939:23 *2402:A 5.33005e-05
41 *939:27 *948:10 3.17148e-05
42 *939:27 *948:12 0.000173083
43 *939:38 *948:12 3.34783e-05
44 *939:38 *948:14 6.19181e-05
45 *939:38 *948:20 1.17968e-05
46 *939:79 *948:20 8.17274e-05
47 *939:79 *948:33 0.000225616
48 *941:10 *948:14 9.15804e-05
49 *941:10 *948:20 8.15095e-05
50 *941:21 *2418:A_N 1.21258e-05
51 *941:73 *2406:A_N 5.52302e-05
52 *942:59 *948:10 3.52562e-05
53 *942:59 *948:12 6.76178e-05
54 *944:12 *948:20 5.97623e-05
55 *944:31 *2408:D 0.000246515
56 *944:69 *948:12 2.58997e-05
57 *944:69 *948:14 1.31516e-05
*RES
1 *3227:X *948:10 18.0321 
2 *948:10 *948:12 3.16071 
3 *948:12 *948:14 1.64286 
4 *948:14 *948:20 8.82143 
5 *948:20 *2404:D 9.3 
6 *948:20 *948:33 15.5714 
7 *948:33 *2386:A 9.3 
8 *948:33 *2408:D 12.9384 
9 *948:33 *2420:D 13.233 
10 *948:14 *2418:A_N 16.3893 
11 *948:12 *2406:A_N 14.3357 
12 *948:10 *2402:A 15.5679 
*END

*D_NET *949 0.0101906
*CONN
*I *3227:A I *D sky130_fd_sc_hd__buf_1
*I *3226:A I *D sky130_fd_sc_hd__clkbuf_2
*I *2771:A I *D sky130_fd_sc_hd__xnor2_1
*I *2773:A1 I *D sky130_fd_sc_hd__a21o_1
*I *2766:S I *D sky130_fd_sc_hd__mux2_4
*I *3228:X O *D sky130_fd_sc_hd__clkbuf_2
*CAP
1 *3227:A 2.99504e-05
2 *3226:A 0.000685121
3 *2771:A 9.32369e-05
4 *2773:A1 0.000134651
5 *2766:S 0.000399455
6 *3228:X 1.33579e-05
7 *949:57 0.00104214
8 *949:29 0.00113054
9 *949:25 0.00143178
10 *949:8 0.000614874
11 *949:29 *1019:12 0.000162421
12 *949:57 *3095:RESET_B 0.000132823
13 *949:57 *3096:RESET_B 0.000267551
14 *2402:B *3226:A 0.00017309
15 *2402:D_N *3226:A 6.8646e-06
16 *2503:D *3226:A 0.000141985
17 *2701:A *2766:S 0
18 *2765:A_N *3227:A 9.41642e-05
19 *2766:A0 *3227:A 9.41642e-05
20 *2767:B *2766:S 0
21 *2770:A_N *2773:A1 0.00010096
22 *2783:CLK *2766:S 0.000204228
23 *3093:D *2766:S 0
24 *3223:A *3226:A 0.000144951
25 *380:10 *3226:A 9.74684e-05
26 *383:10 *3226:A 0
27 *383:10 *949:57 0
28 *386:10 *3226:A 0.000190682
29 *386:10 *949:57 0.000196814
30 *510:46 *949:25 0.000398428
31 *510:46 *949:29 0.00101421
32 *751:16 *2766:S 5.33433e-05
33 *754:12 *2771:A 1.02504e-05
34 *755:10 *2771:A 0.000102207
35 *755:10 *2773:A1 7.48301e-06
36 *758:8 *2773:A1 9.25014e-06
37 *771:28 *2766:S 0.000106264
38 *830:20 *3226:A 0.000352454
39 *834:66 *3226:A 0.000190012
40 *849:10 *3226:A 0
41 *849:12 *3226:A 0
42 *939:27 *3226:A 0
43 *939:38 *3226:A 0
44 *939:79 *3226:A 2.06075e-05
45 *943:8 *3226:A 0.00012501
46 *943:33 *3226:A 0.000217843
*RES
1 *3228:X *949:8 14.0768 
2 *949:8 *2766:S 22.1661 
3 *949:8 *949:25 4.1056 
4 *949:25 *949:29 5.97933 
5 *949:29 *2773:A1 15.7375 
6 *949:29 *2771:A 15.8446 
7 *949:25 *949:57 10.9011 
8 *949:57 *3226:A 31.0857 
9 *949:57 *3227:A 14.7464 
*END

*D_NET *950 0.0128812
*CONN
*I *2440:A_N I *D sky130_fd_sc_hd__nand2b_1
*I *2388:A I *D sky130_fd_sc_hd__nor2_1
*I *2441:A I *D sky130_fd_sc_hd__or4bb_4
*I *2749:A1 I *D sky130_fd_sc_hd__o41a_4
*I *2696:A I *D sky130_fd_sc_hd__nor3_1
*I *2692:A_N I *D sky130_fd_sc_hd__and3b_1
*I *2426:C I *D sky130_fd_sc_hd__or4b_4
*I *2664:B_N I *D sky130_fd_sc_hd__and4bb_1
*I *2449:D I *D sky130_fd_sc_hd__and4b_1
*I *2450:B I *D sky130_fd_sc_hd__nand4b_1
*I *3229:X O *D sky130_fd_sc_hd__buf_6
*CAP
1 *2440:A_N 6.3921e-05
2 *2388:A 0.000421229
3 *2441:A 0
4 *2749:A1 1.44544e-05
5 *2696:A 4.82283e-05
6 *2692:A_N 0
7 *2426:C 0.000190313
8 *2664:B_N 1.69531e-05
9 *2449:D 3.63072e-05
10 *2450:B 0.000211055
11 *3229:X 0
12 *950:123 0.000555291
13 *950:94 0.000483653
14 *950:80 0.000748466
15 *950:63 0.000616322
16 *950:46 0.000257729
17 *950:35 0.000333766
18 *950:23 0.000357266
19 *950:10 0.000473024
20 *950:4 0.000286792
21 *2388:A *2447:A_N 6.2332e-05
22 *2388:A *2447:C 5.52238e-05
23 *2388:A *953:73 5.71472e-05
24 *2388:A *1050:10 1.92905e-05
25 *2426:C *952:40 0.000199726
26 *2426:C *953:39 6.57032e-05
27 *2426:C *953:52 2.59355e-05
28 *2426:C *953:65 0.000154443
29 *2440:A_N *2440:B 0.000142856
30 *2440:A_N *951:6 8.76257e-05
31 *2449:D *2449:C 0.000125046
32 *2449:D *966:16 0.000125046
33 *2450:B *2450:C 0
34 *2450:B *2450:D 0.000124723
35 *2664:B_N *3103:A 5.33005e-05
36 *2664:B_N *969:12 5.33005e-05
37 *2696:A *954:38 7.06479e-05
38 *950:10 *951:6 5.38273e-05
39 *950:10 *951:30 2.58821e-05
40 *950:10 *951:38 0.000328649
41 *950:23 *951:38 9.71197e-05
42 *950:35 *966:16 9.41642e-05
43 *950:46 *2450:D 8.58292e-05
44 *950:63 *2450:D 4.43046e-05
45 *950:63 *3366:A 9.90367e-05
46 *950:63 *953:65 0.00014285
47 *950:80 *2702:A1 0.000168781
48 *950:94 *997:20 3.34687e-05
49 *950:123 *2441:D_N 5.52238e-05
50 *950:123 *951:38 0.00020828
51 *950:123 *951:51 1.26661e-05
52 *950:123 *953:73 0.000171289
53 *2381:A *2696:A 9.77414e-05
54 *2447:B *2388:A 0.000255068
55 *2447:B *950:123 0.000277638
56 *2680:A *2426:C 9.60875e-05
57 *2680:A *950:63 1.69961e-05
58 *2680:A *950:80 9.90819e-06
59 *2680:C *2749:A1 8.66063e-05
60 *2680:C *950:80 0.00038907
61 *2680:C *950:94 0.000482594
62 *2694:A *950:63 0
63 *2694:B *950:10 0.000135028
64 *2694:C *950:35 0.000132538
65 *2694:C *950:46 0.000232185
66 *2694:C *950:63 0.000144038
67 *2694:C *950:80 0
68 *2696:B *2696:A 9.77414e-05
69 *2696:C *2696:A 5.15347e-05
70 *2749:A4 *950:94 0.000146053
71 *2784:D *2450:B 0
72 *3183:A *2749:A1 9.90431e-05
73 *3183:A *950:80 0.00038907
74 *3229:A *950:10 5.33334e-05
75 *474:25 *2450:B 1.09026e-05
76 *474:25 *950:35 0.00014101
77 *474:45 *2450:B 3.34672e-05
78 *509:8 *2388:A 0
79 *510:32 *2440:A_N 8.3725e-05
80 *510:32 *950:10 0.000563309
81 *696:20 *950:94 7.64269e-05
82 *772:10 *950:94 5.80706e-06
83 *772:39 *950:94 2.84398e-05
84 *774:12 *2450:B 0.000123288
85 *774:12 *950:35 6.74474e-05
86 *774:12 *950:46 4.49293e-05
87 *868:39 *950:80 0.000199461
88 *887:22 *2388:A 2.89114e-05
89 *891:72 *950:80 0.000123295
*RES
1 *3229:X *950:4 9.3 
2 *950:4 *950:10 7.55357 
3 *950:10 *2450:B 22.9786 
4 *950:10 *950:23 0.946429 
5 *950:23 *950:35 17.125 
6 *950:35 *2449:D 15.0455 
7 *950:35 *950:46 3.16071 
8 *950:46 *2664:B_N 14.3357 
9 *950:46 *950:63 8.23214 
10 *950:63 *2426:C 14.3714 
11 *950:63 *950:80 17.5 
12 *950:80 *950:94 25.3214 
13 *950:94 *2692:A_N 9.3 
14 *950:94 *2696:A 11.0679 
15 *950:80 *2749:A1 10.2464 
16 *950:23 *950:123 5.75 
17 *950:123 *2441:A 9.3 
18 *950:123 *2388:A 26.4429 
19 *950:4 *2440:A_N 11.9071 
*END

*D_NET *951 0.0104996
*CONN
*I *2449:A_N I *D sky130_fd_sc_hd__and4b_1
*I *2450:A_N I *D sky130_fd_sc_hd__nand4b_1
*I *2382:A_N I *D sky130_fd_sc_hd__and2b_1
*I *2430:A_N I *D sky130_fd_sc_hd__nand3b_1
*I *2429:A_N I *D sky130_fd_sc_hd__and3b_2
*I *2387:B I *D sky130_fd_sc_hd__or3b_1
*I *2665:C I *D sky130_fd_sc_hd__or4_4
*I *2441:C_N I *D sky130_fd_sc_hd__or4bb_4
*I *2426:A I *D sky130_fd_sc_hd__or4b_4
*I *2440:B I *D sky130_fd_sc_hd__nand2b_1
*I *3230:X O *D sky130_fd_sc_hd__buf_6
*CAP
1 *2449:A_N 8.54272e-05
2 *2450:A_N 0.000400442
3 *2382:A_N 0
4 *2430:A_N 0.000148468
5 *2429:A_N 0
6 *2387:B 0.000156673
7 *2665:C 0
8 *2441:C_N 0
9 *2426:A 0.000312744
10 *2440:B 0.000100477
11 *3230:X 0
12 *951:114 0.000485869
13 *951:91 0.000399878
14 *951:83 0.000440488
15 *951:59 0.000314571
16 *951:51 0.000484713
17 *951:38 0.000367758
18 *951:30 0.000253993
19 *951:6 0.000488457
20 *951:4 9.92092e-05
21 *2387:B *2447:C 9.25014e-06
22 *2387:B *2665:B 3.39323e-05
23 *2387:B *954:40 0.000114759
24 *2426:A *2383:B 0.00020112
25 *2426:A *2648:A0 5.28358e-05
26 *2426:A *2689:A1 4.19535e-05
27 *2426:A *953:39 5.03772e-05
28 *2430:A_N *2429:C 0
29 *2430:A_N *2430:B 9.58181e-05
30 *2430:A_N *2430:C 3.6353e-05
31 *2430:A_N *3366:A 9.71197e-05
32 *2430:A_N *953:112 8.43535e-06
33 *2449:A_N *956:26 6.43284e-05
34 *2450:A_N *2450:D 0
35 *2450:A_N *2648:A0 0
36 *2450:A_N *956:26 8.22093e-05
37 *951:51 *2441:B 0.00014784
38 *951:51 *2441:D_N 5.52238e-05
39 *951:51 *953:73 9.90431e-05
40 *951:59 *2665:B 6.52205e-05
41 *951:59 *2665:D 0.000310768
42 *951:59 *3360:A 0
43 *951:59 *3368:A 6.87245e-05
44 *951:83 *2382:B 4.04691e-06
45 *951:83 *2441:B 0.000189347
46 *951:83 *953:73 5.66608e-05
47 *951:91 *2429:C 9.85789e-06
48 *951:91 *2430:C 0
49 *951:91 *3366:A 2.05612e-05
50 *951:91 *953:65 8.52322e-05
51 *951:91 *953:95 1.79387e-05
52 *951:91 *953:112 0.000166215
53 *2440:A_N *2440:B 0.000142856
54 *2440:A_N *951:6 8.76257e-05
55 *2664:D *2449:A_N 1.59782e-05
56 *2676:B *2387:B 0.000125731
57 *2680:B *2426:A 1.18647e-05
58 *2694:A *951:38 6.41996e-05
59 *2695:B *951:83 0.000101551
60 *2695:C *951:38 9.85833e-05
61 *2695:C *951:51 0.000274861
62 *2695:C *951:83 0.000133721
63 *2695:D_N *2387:B 9.41642e-05
64 *2698:B1 *2426:A 0.000125731
65 *2698:B1 *2440:B 5.52238e-05
66 *2698:B1 *951:6 0.000354105
67 *2698:B1 *951:30 9.71197e-05
68 *2698:B1 *951:38 0.000171787
69 *2784:D *951:51 0
70 *2785:D *2426:A 6.2169e-06
71 *3229:A *951:6 9.90367e-05
72 *3230:A *951:38 5.52302e-05
73 *3369:A *951:59 2.286e-05
74 *474:45 *2449:A_N 9.8045e-05
75 *474:45 *2450:A_N 0.000192698
76 *502:55 *2426:A 6.86379e-05
77 *510:32 *2440:B 1.16613e-05
78 *679:16 *2426:A 7.12614e-05
79 *696:20 *2426:A 0.000162982
80 *696:20 *951:59 4.40603e-05
81 *774:59 *951:59 0.000194333
82 *776:8 *2450:A_N 6.66939e-05
83 *950:10 *951:6 5.38273e-05
84 *950:10 *951:30 2.58821e-05
85 *950:10 *951:38 0.000328649
86 *950:23 *951:38 9.71197e-05
87 *950:123 *951:38 0.00020828
88 *950:123 *951:51 1.26661e-05
*RES
1 *3230:X *951:4 9.3 
2 *951:4 *951:6 3.41071 
3 *951:6 *2440:B 11.5009 
4 *951:6 *2426:A 26.3536 
5 *951:4 *951:30 0.946429 
6 *951:30 *951:38 7.49107 
7 *951:38 *2441:C_N 9.3 
8 *951:38 *951:51 8.72321 
9 *951:51 *951:59 9.53125 
10 *951:59 *2665:C 9.3 
11 *951:59 *2387:B 21.5902 
12 *951:51 *951:83 9.17857 
13 *951:83 *951:91 4.39286 
14 *951:91 *2429:A_N 9.3 
15 *951:91 *2430:A_N 12.6393 
16 *951:83 *2382:A_N 9.3 
17 *951:30 *951:114 4.5 
18 *951:114 *2450:A_N 21.2643 
19 *951:114 *2449:A_N 15.7464 
*END

*D_NET *952 0.00931561
*CONN
*I *2429:B I *D sky130_fd_sc_hd__and3b_2
*I *2426:B I *D sky130_fd_sc_hd__or4b_4
*I *2383:B I *D sky130_fd_sc_hd__or3b_4
*I *2665:B I *D sky130_fd_sc_hd__or4_4
*I *2441:B I *D sky130_fd_sc_hd__or4bb_4
*I *3231:X O *D sky130_fd_sc_hd__buf_6
*CAP
1 *2429:B 0
2 *2426:B 0
3 *2383:B 0.00066807
4 *2665:B 0.000208575
5 *2441:B 0.000332623
6 *3231:X 0
7 *952:40 0.00166099
8 *952:36 0.0012603
9 *952:19 0.000475955
10 *952:4 0.000332623
11 *2383:B *2428:B 0.000186812
12 *2383:B *953:39 4.16984e-05
13 *2383:B *969:63 3.10885e-05
14 *2441:B *2450:C 1.72079e-05
15 *2441:B *953:73 0.000168733
16 *2441:B *969:12 5.38242e-05
17 *2665:B *3366:A 5.78355e-05
18 *952:36 *2430:B 0.000123295
19 *952:36 *3366:A 0.000221599
20 *952:40 *3366:A 0.000232585
21 *952:40 *953:39 5.74499e-06
22 *2383:C_N *2383:B 0.000323086
23 *2387:B *2665:B 3.39323e-05
24 *2387:C_N *2441:B 0.000135028
25 *2426:A *2383:B 0.00020112
26 *2426:C *952:40 0.000199726
27 *2671:A3 *2441:B 1.53129e-05
28 *2680:A *952:40 0.0003482
29 *2682:A *2383:B 0
30 *2695:D_N *2441:B 0.000216755
31 *2698:A3 *2383:B 2.44318e-05
32 *2698:B1 *2383:B 5.41794e-05
33 *2699:A2 *2383:B 0.000139907
34 *2699:B1 *2383:B 0.000184745
35 *2785:D *2383:B 0.0001879
36 *474:6 *952:40 0.000135028
37 *474:45 *2383:B 2.286e-05
38 *475:14 *2383:B 2.55587e-05
39 *502:42 *2383:B 1.39841e-05
40 *504:12 *952:36 8.6229e-06
41 *696:20 *2383:B 0.000166944
42 *696:20 *2665:B 0.000121411
43 *696:20 *952:36 0.000249604
44 *773:20 *2383:B 2.53003e-05
45 *951:51 *2441:B 0.00014784
46 *951:59 *2665:B 6.52205e-05
47 *951:83 *2441:B 0.000189347
*RES
1 *3231:X *952:4 9.3 
2 *952:4 *2441:B 26.5857 
3 *952:4 *952:19 4.5 
4 *952:19 *2665:B 17.2107 
5 *952:19 *952:36 9.73214 
6 *952:36 *952:40 12.875 
7 *952:40 *2383:B 33.5321 
8 *952:40 *2426:B 9.3 
9 *952:36 *2429:B 9.3 
*END

*D_NET *953 0.0109198
*CONN
*I *2387:A I *D sky130_fd_sc_hd__or3b_1
*I *2430:C I *D sky130_fd_sc_hd__nand3b_1
*I *2429:C I *D sky130_fd_sc_hd__and3b_2
*I *2450:C I *D sky130_fd_sc_hd__nand4b_1
*I *2441:D_N I *D sky130_fd_sc_hd__or4bb_4
*I *2426:D_N I *D sky130_fd_sc_hd__or4b_4
*I *2681:A I *D sky130_fd_sc_hd__or3_1
*I *2687:B I *D sky130_fd_sc_hd__or4_1
*I *2383:A I *D sky130_fd_sc_hd__or3b_4
*I *2428:A I *D sky130_fd_sc_hd__nand2_1
*I *3232:X O *D sky130_fd_sc_hd__clkbuf_2
*CAP
1 *2387:A 0.000147997
2 *2430:C 6.79584e-05
3 *2429:C 1.19308e-05
4 *2450:C 0.000469912
5 *2441:D_N 1.1624e-05
6 *2426:D_N 2.37855e-05
7 *2681:A 9.64498e-05
8 *2687:B 6.8442e-05
9 *2383:A 0
10 *2428:A 0.000109442
11 *3232:X 0
12 *953:112 0.000440437
13 *953:95 0.000254943
14 *953:73 0.000808752
15 *953:65 0.000875366
16 *953:52 0.000583292
17 *953:39 0.000401729
18 *953:10 0.00036538
19 *953:8 0.000559645
20 *953:4 0.000510657
21 *2387:A *3366:A 0.000103253
22 *2387:A *954:40 1.18064e-05
23 *2428:A *2699:A1 2.89016e-05
24 *2430:C *2430:B 3.45225e-05
25 *2681:A *956:26 2.22641e-05
26 *2681:A *969:50 0.000165164
27 *2687:B *1018:12 7.42485e-05
28 *953:8 *2378:A 9.90431e-05
29 *953:8 *2687:A 4.38128e-05
30 *953:8 *2687:C 0.000174375
31 *953:8 *2690:A1 5.52302e-05
32 *953:10 *2684:A1 1.12577e-05
33 *953:10 *2699:A1 3.43988e-06
34 *953:39 *2687:C 6.05161e-06
35 *953:65 *2450:D 9.71197e-05
36 *953:65 *3366:A 0.000359664
37 *953:95 *3366:A 3.03755e-05
38 *953:112 *2430:B 2.98258e-05
39 *953:112 *3366:A 5.15565e-05
40 *2383:B *953:39 4.16984e-05
41 *2387:C_N *2387:A 9.87617e-05
42 *2388:A *953:73 5.71472e-05
43 *2426:A *953:39 5.03772e-05
44 *2426:C *953:39 6.57032e-05
45 *2426:C *953:52 2.59355e-05
46 *2426:C *953:65 0.000154443
47 *2430:A_N *2429:C 0
48 *2430:A_N *2430:C 3.6353e-05
49 *2430:A_N *953:112 8.43535e-06
50 *2441:B *2450:C 1.72079e-05
51 *2441:B *953:73 0.000168733
52 *2450:B *2450:C 0
53 *2671:A3 *2450:C 0
54 *2671:A3 *953:73 0.000293086
55 *2673:A *2387:A 0
56 *2684:A2 *2428:A 4.46186e-06
57 *2684:A2 *953:10 6.37316e-05
58 *2684:B1 *953:10 1.90936e-05
59 *2685:B *2687:B 0
60 *2685:B *953:10 0
61 *2687:D *2687:B 4.24752e-05
62 *2687:D *953:10 9.54798e-06
63 *2689:C1 *2681:A 0.000209026
64 *2690:B1 *953:10 2.29592e-05
65 *2695:B *953:73 0
66 *2695:D_N *2387:A 4.16984e-05
67 *2697:A *953:10 1.34009e-05
68 *2697:D_N *953:10 0
69 *2698:A3 *953:10 0
70 *2699:A2 *2428:A 5.72775e-05
71 *2784:D *2450:C 0.000135064
72 *3367:A *953:65 5.33005e-05
73 *475:14 *2428:A 1.02504e-05
74 *475:14 *953:10 5.83233e-05
75 *502:10 *2428:A 9.82841e-05
76 *502:42 *2428:A 2.18827e-05
77 *509:8 *2450:C 0
78 *511:6 *2450:C 0.000178459
79 *672:43 *2387:A 0.000259129
80 *675:12 *953:73 0.000240645
81 *675:12 *953:112 2.94103e-05
82 *691:20 *953:8 0.000140933
83 *691:20 *953:10 6.2589e-06
84 *696:20 *953:112 5.41794e-05
85 *773:20 *2428:A 5.71472e-05
86 *950:63 *953:65 0.00014285
87 *950:123 *2441:D_N 5.52238e-05
88 *950:123 *953:73 0.000171289
89 *951:51 *2441:D_N 5.52238e-05
90 *951:51 *953:73 9.90431e-05
91 *951:83 *953:73 5.66608e-05
92 *951:91 *2429:C 9.85789e-06
93 *951:91 *2430:C 0
94 *951:91 *953:65 8.52322e-05
95 *951:91 *953:95 1.79387e-05
96 *951:91 *953:112 0.000166215
97 *952:40 *953:39 5.74499e-06
*RES
1 *3232:X *953:4 9.3 
2 *953:4 *953:8 9.55357 
3 *953:8 *953:10 4.375 
4 *953:10 *2428:A 16.8893 
5 *953:10 *2383:A 13.8 
6 *953:8 *2687:B 15.1393 
7 *953:4 *953:39 4.23214 
8 *953:39 *2681:A 21.1571 
9 *953:39 *953:52 0.535714 
10 *953:52 *2426:D_N 9.72857 
11 *953:52 *953:65 10.5357 
12 *953:65 *953:73 18.2857 
13 *953:73 *2441:D_N 9.83571 
14 *953:73 *2450:C 27.2107 
15 *953:65 *953:95 0.495536 
16 *953:95 *2429:C 9.72857 
17 *953:95 *953:112 12.692 
18 *953:112 *2430:C 10.8982 
19 *953:112 *2387:A 22.5768 
*END

*D_NET *954 0.00662625
*CONN
*I *2679:B I *D sky130_fd_sc_hd__nand2_1
*I *2665:A I *D sky130_fd_sc_hd__or4_4
*I *2447:C I *D sky130_fd_sc_hd__and3b_1
*I *2664:A_N I *D sky130_fd_sc_hd__and4bb_1
*I *2449:C I *D sky130_fd_sc_hd__and4b_1
*I *3233:X O *D sky130_fd_sc_hd__buf_1
*CAP
1 *2679:B 6.15018e-05
2 *2665:A 0
3 *2447:C 0.000203106
4 *2664:A_N 3.34103e-05
5 *2449:C 0.000151044
6 *3233:X 0
7 *954:40 0.000420146
8 *954:38 0.000844649
9 *954:8 0.000338077
10 *954:4 0.000719729
11 *2447:C *2447:A_N 0
12 *2449:C *966:16 7.08584e-05
13 *2679:B *997:20 5.52302e-05
14 *2679:B *1050:31 0
15 *954:38 *997:20 2.54304e-06
16 *954:40 *3366:A 1.52988e-05
17 *2387:A *954:40 1.18064e-05
18 *2387:B *2447:C 9.25014e-06
19 *2387:B *954:40 0.000114759
20 *2388:A *2447:C 5.52238e-05
21 *2447:B *2447:C 0.000100823
22 *2449:D *2449:C 0.000125046
23 *2671:A1 *2679:B 2.89114e-05
24 *2671:A1 *954:38 5.33005e-05
25 *2676:B *2447:C 8.39893e-05
26 *2676:B *954:40 1.4867e-05
27 *2694:C *2449:C 0.00014204
28 *2694:C *954:8 0.000338569
29 *2695:A *2664:A_N 5.33005e-05
30 *2695:B *954:38 9.90431e-05
31 *2696:A *954:38 7.06479e-05
32 *2696:B *954:38 0.000141131
33 *2696:C *954:38 8.56851e-05
34 *2702:A2 *954:38 0.000249921
35 *3362:A *954:38 0.000142856
36 *474:25 *2449:C 0.00014204
37 *474:25 *954:8 0.000258485
38 *509:8 *2447:C 0
39 *672:43 *2679:B 6.82592e-05
40 *672:43 *954:40 0.000259516
41 *676:16 *954:38 7.48301e-06
42 *696:20 *2449:C 6.42095e-05
43 *772:10 *954:8 4.49722e-05
44 *774:12 *2449:C 0.000135028
45 *887:12 *2447:C 0.000213478
46 *887:12 *954:40 0.000343946
47 *887:22 *2447:C 0.000222878
48 *887:99 *2679:B 1.08601e-05
49 *887:99 *954:40 1.83317e-05
*RES
1 *3233:X *954:4 9.3 
2 *954:4 *954:8 9.17857 
3 *954:8 *2449:C 18.3357 
4 *954:8 *2664:A_N 14.3357 
5 *954:4 *954:38 14.6429 
6 *954:38 *954:40 6.5 
7 *954:40 *2447:C 19.925 
8 *954:40 *2665:A 13.8 
9 *954:38 *2679:B 15.3714 
*END

*D_NET *955 0.0138869
*CONN
*I *3087:RESET_B I *D sky130_fd_sc_hd__dfrtp_1
*I *3089:RESET_B I *D sky130_fd_sc_hd__dfrtp_1
*I *3088:RESET_B I *D sky130_fd_sc_hd__dfrtp_1
*I *3094:RESET_B I *D sky130_fd_sc_hd__dfrtp_1
*I *3093:RESET_B I *D sky130_fd_sc_hd__dfrtp_1
*I *2783:RESET_B I *D sky130_fd_sc_hd__dfrtp_1
*I *2784:RESET_B I *D sky130_fd_sc_hd__dfrtp_1
*I *3096:RESET_B I *D sky130_fd_sc_hd__dfrtp_1
*I *3095:RESET_B I *D sky130_fd_sc_hd__dfrtp_1
*I *3086:RESET_B I *D sky130_fd_sc_hd__dfrtp_1
*I *3234:X O *D sky130_fd_sc_hd__clkbuf_4
*CAP
1 *3087:RESET_B 0
2 *3089:RESET_B 0
3 *3088:RESET_B 0.000121819
4 *3094:RESET_B 0
5 *3093:RESET_B 0
6 *2783:RESET_B 0.000250865
7 *2784:RESET_B 0.00150068
8 *3096:RESET_B 0.00106293
9 *3095:RESET_B 0.000251059
10 *3086:RESET_B 0.000393973
11 *3234:X 0.000227937
12 *955:59 0.00267146
13 *955:30 0.000224468
14 *955:28 0.000370063
15 *955:26 0.000505202
16 *955:24 0.000210516
17 *955:10 0.000541145
18 *2783:RESET_B *2699:A1 0
19 *3086:RESET_B *2725:B 0
20 *955:10 *2656:A0 0.000230482
21 *2766:A0 *955:59 0
22 *2767:B *955:59 0.000490416
23 *2786:CLK *2784:RESET_B 0.000101169
24 *3086:D *3086:RESET_B 8.86413e-05
25 *3093:D *955:59 3.34295e-05
26 *3095:D *955:59 0.000107003
27 *3165:A *955:59 0.000559261
28 *380:10 *3086:RESET_B 0
29 *380:10 *955:10 0
30 *380:10 *955:59 0.000307878
31 *383:10 *3096:RESET_B 0
32 *383:10 *955:30 0
33 *386:10 *3095:RESET_B 0.000144417
34 *386:10 *955:24 0.000179656
35 *386:10 *955:26 0.000272672
36 *386:10 *955:28 0.000509472
37 *386:10 *955:30 0.000220964
38 *461:22 *3086:RESET_B 6.05161e-06
39 *461:22 *3088:RESET_B 2.79421e-05
40 *475:14 *2783:RESET_B 1.20135e-05
41 *485:12 *2783:RESET_B 0
42 *485:12 *2784:RESET_B 0
43 *510:32 *2783:RESET_B 0
44 *753:12 *955:59 0.00105704
45 *771:22 *3095:RESET_B 8.79458e-05
46 *772:12 *2784:RESET_B 0.000484418
47 *773:20 *2783:RESET_B 7.52982e-05
48 *782:6 *3086:RESET_B 9.90367e-05
49 *783:12 *3086:RESET_B 0
50 *801:31 *3086:RESET_B 0
51 *801:31 *955:10 0
52 *870:18 *955:59 2.24763e-05
53 *870:85 *955:59 3.67142e-05
54 *881:31 *2783:RESET_B 0
55 *881:31 *2784:RESET_B 0
56 *885:115 *955:24 0
57 *885:115 *955:26 0
58 *885:115 *955:28 0
59 *885:115 *955:30 0
60 *949:57 *3095:RESET_B 0.000132823
61 *949:57 *3096:RESET_B 0.000267551
*RES
1 *3234:X *955:10 17.3179 
2 *955:10 *3086:RESET_B 10.3125 
3 *3086:RESET_B *955:24 6.75 
4 *955:24 *955:26 3.46429 
5 *955:26 *955:28 6.5 
6 *955:28 *955:30 2.85714 
7 *955:30 *3095:RESET_B 7.33036 
8 *3095:RESET_B *3096:RESET_B 12.4643 
9 *3096:RESET_B *955:59 37.4732 
10 *955:59 *2784:RESET_B 25.3482 
11 *955:59 *2783:RESET_B 9.04464 
12 *955:30 *3093:RESET_B 4.5 
13 *955:28 *3094:RESET_B 4.5 
14 *955:26 *3088:RESET_B 6.11607 
15 *955:24 *3089:RESET_B 4.5 
16 *955:10 *3087:RESET_B 4.5 
*END

*D_NET *956 0.0142339
*CONN
*I *2787:RESET_B I *D sky130_fd_sc_hd__dfrtp_1
*I *3090:RESET_B I *D sky130_fd_sc_hd__dfrtp_1
*I *2789:RESET_B I *D sky130_fd_sc_hd__dfrtp_1
*I *3092:RESET_B I *D sky130_fd_sc_hd__dfrtp_1
*I *3091:RESET_B I *D sky130_fd_sc_hd__dfrtp_1
*I *2788:RESET_B I *D sky130_fd_sc_hd__dfrtp_1
*I *2790:RESET_B I *D sky130_fd_sc_hd__dfrtp_1
*I *2785:RESET_B I *D sky130_fd_sc_hd__dfrtp_1
*I *2786:RESET_B I *D sky130_fd_sc_hd__dfrtp_1
*I *3235:X O *D sky130_fd_sc_hd__clkbuf_4
*CAP
1 *2787:RESET_B 0
2 *3090:RESET_B 0.000702955
3 *2789:RESET_B 0.000906121
4 *3092:RESET_B 0.00023571
5 *3091:RESET_B 9.0122e-05
6 *2788:RESET_B 0.000577478
7 *2790:RESET_B 0.000197952
8 *2785:RESET_B 0
9 *2786:RESET_B 7.11563e-05
10 *3235:X 7.49785e-05
11 *956:70 0.00133183
12 *956:64 0.00120917
13 *956:26 0.00113569
14 *956:12 0.00143022
15 *956:10 0.000901
16 *956:8 0.000230773
17 *2786:RESET_B *2648:A0 0.000127439
18 *2789:RESET_B *2719:A0 0.000143009
19 *2789:RESET_B *1047:111 0
20 *2790:RESET_B *1047:82 0.000137983
21 *3090:RESET_B *3097:A 9.71197e-05
22 *3090:RESET_B *3349:A 0.000273449
23 *956:8 *2705:A1 3.17067e-05
24 *956:8 *996:16 2.28428e-05
25 *956:8 *1012:12 0
26 *956:10 *2705:A1 0.000117388
27 *956:10 *996:16 1.91418e-05
28 *956:10 *1012:12 0
29 *956:12 *2675:B 2.84494e-05
30 *956:12 *996:16 7.08001e-05
31 *956:12 *1048:31 5.41797e-06
32 *956:26 *2449:B 7.90091e-05
33 *956:26 *2648:A0 0.000105689
34 *956:26 *960:8 3.57844e-05
35 *956:26 *969:50 0.000258726
36 *956:26 *1012:12 0
37 *956:26 *1048:10 6.13753e-05
38 *956:26 *1048:31 0.00016446
39 *956:70 *2719:A0 4.53515e-05
40 *2449:A_N *956:26 6.43284e-05
41 *2450:A_N *956:26 8.22093e-05
42 *2664:D *956:26 0
43 *2669:A *956:70 1.87955e-05
44 *2681:A *956:26 2.22641e-05
45 *2681:C *956:26 1.44883e-05
46 *2689:C1 *956:26 7.58856e-05
47 *2693:B *956:70 1.80413e-05
48 *2693:C *956:70 5.52302e-05
49 *2693:D_N *956:70 0.000190305
50 *2702:B1 *956:26 4.5539e-05
51 *2705:A2 *2788:RESET_B 7.43578e-06
52 *2706:S *956:12 9.15186e-06
53 *2711:S *956:70 0
54 *2718:A2 *2788:RESET_B 2.48681e-05
55 *2718:B2 *2788:RESET_B 2.46427e-05
56 *2718:C1 *2788:RESET_B 0.000125248
57 *2719:A1 *2788:RESET_B 0.000385814
58 *2723:B1 *956:10 4.43046e-05
59 *2723:B1 *956:12 5.33978e-05
60 *2754:B *956:70 3.18676e-05
61 *2760:A2 *3092:RESET_B 5.81448e-05
62 *2760:A2 *956:70 9.9471e-06
63 *2785:D *2786:RESET_B 0
64 *2785:D *956:26 0
65 *2786:D *2786:RESET_B 0
66 *2789:D *2789:RESET_B 0.000110341
67 *2789:D *956:70 4.53515e-05
68 *2790:CLK *2790:RESET_B 8.9403e-05
69 *2790:D *2790:RESET_B 1.02504e-05
70 *2790:D *956:12 8.91822e-05
71 *3090:D *3090:RESET_B 0.000123603
72 *3091:D *3091:RESET_B 9.18702e-05
73 *3359:A *956:26 0.000166352
74 *505:38 *3091:RESET_B 9.91086e-05
75 *508:18 *956:26 1.95705e-05
76 *672:43 *956:26 0.00012401
77 *679:33 *956:26 1.90936e-05
78 *701:12 *956:12 7.67315e-05
79 *701:60 *956:70 0
80 *739:16 *3091:RESET_B 0.00017411
81 *772:12 *956:26 0.000141985
82 *772:56 *3091:RESET_B 9.91086e-05
83 *776:8 *956:26 0.000145399
84 *788:8 *3090:RESET_B 5.52302e-05
85 *789:8 *956:70 2.88424e-05
86 *789:38 *956:70 5.63007e-05
87 *868:20 *2790:RESET_B 6.08166e-05
88 *868:20 *956:26 0.000125071
*RES
1 *3235:X *956:8 15.4429 
2 *956:8 *956:10 3.46429 
3 *956:10 *956:12 5.13393 
4 *956:12 *956:26 31.4732 
5 *956:26 *2786:RESET_B 6.14286 
6 *956:26 *2785:RESET_B 4.5 
7 *956:12 *2790:RESET_B 8.14286 
8 *956:10 *2788:RESET_B 13.8661 
9 *2788:RESET_B *956:64 4.5 
10 *956:64 *956:70 18.5357 
11 *956:70 *3091:RESET_B 12.0446 
12 *956:70 *3092:RESET_B 3.49107 
13 *956:64 *2789:RESET_B 9.38393 
14 *2789:RESET_B *3090:RESET_B 11.3527 
15 *956:8 *2787:RESET_B 4.5 
*END

*D_NET *957 0.0125172
*CONN
*I *2735:A1 I *D sky130_fd_sc_hd__a21oi_1
*I *2738:A I *D sky130_fd_sc_hd__and3_1
*I *2704:A1_N I *D sky130_fd_sc_hd__o2bb2a_1
*I *2739:A1 I *D sky130_fd_sc_hd__a21oi_1
*I *2730:A1 I *D sky130_fd_sc_hd__o22a_1
*I *2734:A1 I *D sky130_fd_sc_hd__o21ai_1
*I *3259:X O *D sky130_fd_sc_hd__clkbuf_2
*CAP
1 *2735:A1 0
2 *2738:A 0
3 *2704:A1_N 0.000145129
4 *2739:A1 0
5 *2730:A1 0.000129569
6 *2734:A1 0
7 *3259:X 5.56323e-05
8 *957:77 0.000733092
9 *957:54 0.000846887
10 *957:44 0.000301422
11 *957:31 0.000338427
12 *957:18 0.00016636
13 *957:16 0.00279342
14 *957:10 0.00284905
15 *2704:A1_N *2738:C 1.99099e-05
16 *2704:A1_N *1047:8 1.87955e-05
17 *2704:A1_N *1047:27 2.05938e-05
18 *2730:A1 *3347:A 0.000429925
19 *957:16 *2731:A1 0
20 *957:16 *3347:A 0
21 *957:31 *2734:A2 9.40271e-05
22 *957:44 *2734:A2 1.38323e-05
23 *957:54 *2705:A1 0.000434806
24 *957:54 *2721:A 5.71472e-05
25 *957:54 *2734:A2 5.52302e-05
26 *957:54 *968:40 0.000443648
27 *957:54 *1018:12 4.78056e-05
28 *957:77 *2432:A 9.25014e-06
29 *957:77 *2721:A 1.30798e-05
30 *957:77 *2738:B 0.000344549
31 *957:77 *2738:C 5.27703e-06
32 *957:77 *2739:B1 9.41642e-05
33 *957:77 *968:24 5.31158e-05
34 *957:77 *968:26 4.43256e-05
35 *957:77 *981:18 9.78027e-05
36 awready *957:16 0
37 rlast *957:16 3.5707e-05
38 rvalid *957:10 0
39 *2704:B2 *2704:A1_N 7.09393e-05
40 *2705:A2 *2704:A1_N 5.52302e-05
41 *2705:A2 *957:77 5.52238e-05
42 *2709:B1 *957:54 4.78056e-05
43 *2715:A *957:77 0.000313241
44 *2721:B *957:54 4.13496e-05
45 *2735:B1 *957:31 5.52238e-05
46 *2736:C1 *957:31 1.74352e-05
47 *3259:A *957:10 0.000104974
48 *3272:A *957:16 0
49 *3317:A *957:16 0.000334602
50 *3317:A *957:31 5.52302e-05
51 *3364:A *957:77 0.000171334
52 *3365:A *957:54 1.02936e-05
53 *471:20 *2730:A1 0.000437219
54 *704:8 *957:16 0
55 *883:10 *2704:A1_N 2.89955e-05
56 *883:32 *2704:A1_N 0
57 *883:32 *957:77 2.61337e-05
*RES
1 *3259:X *957:10 19.6393 
2 *957:10 *957:16 47.5714 
3 *957:16 *957:18 4.5 
4 *957:18 *2734:A1 9.3 
5 *957:18 *957:31 3.16071 
6 *957:31 *2730:A1 23.8893 
7 *957:31 *957:44 0.535714 
8 *957:44 *957:54 17.0536 
9 *957:54 *2739:A1 9.3 
10 *957:54 *957:77 30.5357 
11 *957:77 *2704:A1_N 21.4652 
12 *957:77 *2738:A 9.3 
13 *957:44 *2735:A1 9.3 
*END

*D_NET *958 0.000604502
*CONN
*I *2432:A I *D sky130_fd_sc_hd__nand2_1
*I *3364:X O *D sky130_fd_sc_hd__dlygate4sd1_1
*CAP
1 *2432:A 0.00017107
2 *3364:X 0.00017107
3 *2432:A *2738:C 6.09476e-05
4 *2432:A *2739:B1 9.71197e-05
5 *2432:A *979:27 4.08637e-05
6 *2432:A *981:18 5.41797e-05
7 *957:77 *2432:A 9.25014e-06
*RES
1 *3364:X *2432:A 30.6 
*END

*D_NET *959 0.000708225
*CONN
*I *2740:A1 I *D sky130_fd_sc_hd__o32a_1
*I *3365:X O *D sky130_fd_sc_hd__dlygate4sd1_1
*CAP
1 *2740:A1 0.000215936
2 *3365:X 0.000215936
3 *2740:A1 *2734:B1 2.89114e-05
4 *2740:A1 *2744:A 7.83659e-05
5 *2740:A3 *2740:A1 0
6 *2740:B2 *2740:A1 5.66377e-05
7 *471:20 *2740:A1 0.000112438
*RES
1 *3365:X *2740:A1 32.2071 
*END

*D_NET *960 0.00117791
*CONN
*I *2664:C I *D sky130_fd_sc_hd__and4bb_1
*I *2449:B I *D sky130_fd_sc_hd__and4b_1
*I *3366:X O *D sky130_fd_sc_hd__dlygate4sd1_1
*CAP
1 *2664:C 0.00010375
2 *2449:B 0.000159095
3 *3366:X 3.00779e-05
4 *960:8 0.000292924
5 *2449:B *966:16 5.33334e-05
6 *2449:B *1048:10 7.55804e-05
7 *2664:C *969:12 0.000137983
8 *960:8 *1048:10 7.83659e-05
9 *2664:D *2449:B 7.39312e-05
10 *679:33 *2449:B 7.69776e-06
11 *696:20 *2449:B 5.03772e-05
12 *956:26 *2449:B 7.90091e-05
13 *956:26 *960:8 3.57844e-05
*RES
1 *3366:X *960:8 14.8357 
2 *960:8 *2449:B 17.9071 
3 *960:8 *2664:C 15.1571 
*END

*D_NET *961 0.00213547
*CONN
*I *2450:D I *D sky130_fd_sc_hd__nand4b_1
*I *3367:X O *D sky130_fd_sc_hd__dlygate4sd1_1
*CAP
1 *2450:D 0.000524182
2 *3367:X 0.000524182
3 *2450:A_N *2450:D 0
4 *2450:B *2450:D 0.000124723
5 *2694:A *2450:D 0.000175374
6 *474:45 *2450:D 0
7 *510:12 *2450:D 0.000188118
8 *774:12 *2450:D 0.000348807
9 *775:8 *2450:D 2.28335e-05
10 *950:46 *2450:D 8.58292e-05
11 *950:63 *2450:D 4.43046e-05
12 *953:65 *2450:D 9.71197e-05
*RES
1 *3367:X *2450:D 39.9036 
*END

*D_NET *962 0.019976
*CONN
*I *2632:A I *D sky130_fd_sc_hd__nor2_1
*I *2640:A I *D sky130_fd_sc_hd__nor2_1
*I *2631:A I *D sky130_fd_sc_hd__nor2_1
*I *2628:A I *D sky130_fd_sc_hd__nor2_1
*I *2639:A I *D sky130_fd_sc_hd__nor2_1
*I *3105:X O *D sky130_fd_sc_hd__clkbuf_1
*CAP
1 *2632:A 0.000232865
2 *2640:A 0
3 *2631:A 0.000198487
4 *2628:A 0.000567987
5 *2639:A 0.00503499
6 *3105:X 5.66086e-05
7 *962:73 0.000338703
8 *962:60 0.0012067
9 *962:16 0.00663635
10 *962:10 0.00199236
11 *2639:A *1016:22 0
12 *2482:B2 *2639:A 1.20192e-05
13 *2509:B1 *2639:A 2.04825e-05
14 *2509:B1 *962:16 7.39741e-05
15 *2515:A2 *962:60 0.00074773
16 *2515:A2 *962:73 0.000109578
17 *2516:A *2632:A 0
18 *2516:A *962:73 0
19 *2516:B *962:60 0
20 *2616:B1 *962:16 2.03578e-05
21 *2625:B2 *2639:A 4.37712e-06
22 *2632:B *2632:A 6.20656e-05
23 *2640:B *962:73 3.74032e-05
24 *2792:D *2628:A 7.32272e-05
25 *2841:GATE_N *2639:A 4.46689e-05
26 *3037:GATE_N *2628:A 0.000308997
27 *3037:GATE_N *962:16 0.000116374
28 *3106:A *2639:A 0
29 *3126:A *2639:A 1.90936e-05
30 *3126:A *962:16 8.04387e-05
31 *3136:A *962:60 3.22304e-05
32 *3136:A *962:73 6.57603e-05
33 *3143:A *962:60 4.43256e-05
34 *3163:A *2631:A 0.00022459
35 *3163:A *962:60 0.000157673
36 *3214:A *2639:A 0
37 *391:12 *2639:A 1.49084e-05
38 *810:22 *962:10 3.92854e-05
39 *838:18 *2631:A 0.000139907
40 *839:75 *962:10 0
41 *867:6 *2631:A 2.95726e-05
42 *885:32 *962:60 0
43 *889:26 *2632:A 1.49084e-05
44 *889:56 *2632:A 2.19791e-05
45 *895:81 *962:10 5.80706e-06
46 *911:72 *2639:A 0.00011563
47 *915:54 *962:16 2.14955e-05
48 *917:79 *962:16 0.0001863
49 *917:79 *962:60 0.000127647
50 *917:90 *962:60 0.000738138
*RES
1 *3105:X *962:10 19.3357 
2 *962:10 *962:16 17.5714 
3 *962:16 *2639:A 37.459 
4 *962:16 *2628:A 23.7821 
5 *962:10 *962:60 24.9821 
6 *962:60 *2631:A 18.05 
7 *962:60 *962:73 2.55357 
8 *962:73 *2640:A 13.8 
9 *962:73 *2632:A 18.1393 
*END

*D_NET *963 0.00358231
*CONN
*I *3366:A I *D sky130_fd_sc_hd__dlygate4sd1_1
*I *3368:X O *D sky130_fd_sc_hd__dlygate4sd1_1
*CAP
1 *3366:A 0.000661642
2 *3368:X 0.000661642
3 *3366:A *2430:B 0.00012401
4 *3366:A *2447:A_N 0
5 *3366:A *3368:A 3.5707e-05
6 *2387:A *3366:A 0.000103253
7 *2430:A_N *3366:A 9.71197e-05
8 *2447:B *3366:A 1.13883e-05
9 *2665:B *3366:A 5.78355e-05
10 *2676:B *3366:A 0.00035602
11 *2680:A *3366:A 0.000224577
12 *3367:A *3366:A 5.33005e-05
13 *474:6 *3366:A 0.000122591
14 *672:43 *3366:A 4.25473e-05
15 *950:63 *3366:A 9.90367e-05
16 *951:91 *3366:A 2.05612e-05
17 *952:36 *3366:A 0.000221599
18 *952:40 *3366:A 0.000232585
19 *953:65 *3366:A 0.000359664
20 *953:95 *3366:A 3.03755e-05
21 *953:112 *3366:A 5.15565e-05
22 *954:40 *3366:A 1.52988e-05
*RES
1 *3368:X *3366:A 45.7786 
*END

*D_NET *964 0.00139049
*CONN
*I *3368:A I *D sky130_fd_sc_hd__dlygate4sd1_1
*I *3369:X O *D sky130_fd_sc_hd__dlymetal6s2s_1
*CAP
1 *3368:A 0.000369022
2 *3369:X 0.000369022
3 *3368:A *2447:A_N 0.000150142
4 *3368:A *2665:D 0.000221212
5 *3368:A *3360:A 0.000104803
6 *3368:A *966:16 5.80266e-05
7 *2676:B *3368:A 0
8 *3366:A *3368:A 3.5707e-05
9 *3369:A *3368:A 1.38323e-05
10 *951:59 *3368:A 6.87245e-05
*RES
1 *3369:X *3368:A 35.0286 
*END

*D_NET *965 0.00346076
*CONN
*I *2772:A2 I *D sky130_fd_sc_hd__a22o_1
*I *2782:A2 I *D sky130_fd_sc_hd__a22o_1
*I *2778:A2 I *D sky130_fd_sc_hd__a22o_1
*I *3370:X O *D sky130_fd_sc_hd__buf_1
*CAP
1 *2772:A2 0.000133021
2 *2782:A2 7.29352e-05
3 *2778:A2 0
4 *3370:X 0.000655652
5 *965:19 0.000314249
6 *965:10 0.000763945
7 *2766:A0 *965:10 0.000299424
8 *2772:B1 *2772:A2 4.70092e-05
9 *2782:A1 *2782:A2 0.00014285
10 *2782:B1 *2782:A2 0.000186662
11 *3094:D *2772:A2 3.69047e-06
12 *3218:A *2782:A2 2.14658e-05
13 *3218:A *965:19 1.94945e-05
14 *3219:A *2772:A2 9.25014e-06
15 *3219:A *965:19 3.42764e-05
16 *752:10 *965:10 0.000163757
17 *752:19 *2772:A2 1.08359e-05
18 *752:19 *965:10 1.41029e-05
19 *752:19 *965:19 0.000103525
20 *771:22 *2772:A2 0.000119767
21 *780:10 *965:19 3.90796e-05
22 *939:6 *2782:A2 9.60939e-05
23 *942:12 *965:10 0.000102545
24 *945:14 *2772:A2 8.09146e-06
25 *945:25 *2772:A2 9.90367e-05
26 *945:25 *965:10 0
27 *945:25 *965:19 0
*RES
1 *3370:X *965:10 23.3714 
2 *965:10 *2778:A2 13.8 
3 *965:10 *965:19 2.85714 
4 *965:19 *2782:A2 16.3893 
5 *965:19 *2772:A2 16.9964 
*END

*D_NET *966 0.00295468
*CONN
*I *2382:B I *D sky130_fd_sc_hd__and2b_1
*I *3360:A I *D sky130_fd_sc_hd__dlymetal6s2s_1
*I *3359:X O *D sky130_fd_sc_hd__dlygate4sd1_1
*CAP
1 *2382:B 0.000191497
2 *3360:A 2.78257e-05
3 *3359:X 0.000373207
4 *966:16 0.000592529
5 *2449:B *966:16 5.33334e-05
6 *2449:C *966:16 7.08584e-05
7 *2449:D *966:16 0.000125046
8 *2694:A *966:16 9.41642e-05
9 *2695:B *2382:B 0.000263948
10 *2695:C *2382:B 5.64742e-05
11 *2784:D *2382:B 0.000120506
12 *3362:A *2382:B 2.20608e-05
13 *3368:A *3360:A 0.000104803
14 *3368:A *966:16 5.80266e-05
15 *3369:A *3360:A 5.922e-05
16 *474:45 *966:16 0.000134372
17 *510:12 *966:16 9.41642e-05
18 *696:20 *966:16 4.82919e-05
19 *774:12 *966:16 0.000150189
20 *774:16 *2382:B 0.000116202
21 *774:42 *3360:A 1.69961e-05
22 *774:42 *966:16 8.27532e-05
23 *950:35 *966:16 9.41642e-05
24 *951:59 *3360:A 0
25 *951:83 *2382:B 4.04691e-06
*RES
1 *3359:X *966:16 18.9607 
2 *966:16 *3360:A 10.675 
3 *966:16 *2382:B 23.5857 
*END

*D_NET *967 0.0007033
*CONN
*I *2665:D I *D sky130_fd_sc_hd__or4_4
*I *3360:X O *D sky130_fd_sc_hd__dlymetal6s2s_1
*CAP
1 *2665:D 8.566e-05
2 *3360:X 8.566e-05
3 *3368:A *2665:D 0.000221212
4 *951:59 *2665:D 0.000310768
*RES
1 *3360:X *2665:D 21.6 
*END

*D_NET *968 0.0108778
*CONN
*I *2710:A1 I *D sky130_fd_sc_hd__a221o_1
*I *2738:B I *D sky130_fd_sc_hd__and3_1
*I *2739:A2 I *D sky130_fd_sc_hd__a21oi_1
*I *2735:A2 I *D sky130_fd_sc_hd__a21oi_1
*I *2734:A2 I *D sky130_fd_sc_hd__o21ai_1
*I *3260:X O *D sky130_fd_sc_hd__dlymetal6s2s_1
*CAP
1 *2710:A1 1.51012e-05
2 *2738:B 0.000229552
3 *2739:A2 0
4 *2735:A2 0
5 *2734:A2 6.23017e-05
6 *3260:X 0.000706821
7 *968:40 0.000283872
8 *968:26 0.00033449
9 *968:24 0.00202128
10 *968:14 0.00240073
11 *2734:A2 *2734:B1 0.000179745
12 *2738:B *2721:A 6.54045e-05
13 *2738:B *2738:C 6.4336e-05
14 *968:14 *3348:A 0.000191362
15 *968:14 *3349:A 0.000139913
16 *968:14 *1056:26 1.16624e-05
17 *968:24 *2721:A 0
18 *968:24 *3235:A 0
19 *968:24 *979:27 8.36572e-05
20 *968:24 *981:18 0
21 *968:24 *1012:12 0
22 *968:26 *2739:B1 0.00022266
23 *968:26 *979:27 0.000137983
24 *968:40 *2734:B1 0.000315876
25 bresp *968:14 3.48705e-05
26 rdata[13] *968:14 0.000226507
27 *2709:B1 *968:24 0
28 *2710:B1 *2710:A1 9.54798e-06
29 *2710:B2 *2710:A1 2.75651e-06
30 *2710:B2 *968:24 0.000306402
31 *2714:A *968:40 1.33343e-05
32 *2715:A *968:24 9.41642e-05
33 *2715:A *968:26 0.000481568
34 *2715:A *968:40 4.13595e-05
35 *2721:B *968:40 0.000178525
36 *2735:B1 *2734:A2 5.52238e-05
37 *2736:C1 *2734:A2 4.88637e-05
38 *2740:A3 *968:40 1.02821e-05
39 *2740:B1 *968:40 0.000123295
40 *2787:D *2738:B 0.000135975
41 *3271:A *968:14 0.000224583
42 *3276:A *968:24 1.21859e-05
43 *3278:A *968:14 8.20256e-06
44 *3278:A *968:24 3.73017e-05
45 *3293:A *968:24 5.7836e-06
46 *3364:A *968:24 8.6229e-06
47 *3365:A *968:40 2.44318e-05
48 *709:8 *968:40 1.21371e-05
49 *710:8 *968:40 5.33005e-05
50 *795:26 *968:14 0.000167156
51 *795:26 *968:24 4.5958e-05
52 *957:31 *2734:A2 9.40271e-05
53 *957:44 *2734:A2 1.38323e-05
54 *957:54 *2734:A2 5.52302e-05
55 *957:54 *968:40 0.000443648
56 *957:77 *2738:B 0.000344549
57 *957:77 *968:24 5.31158e-05
58 *957:77 *968:26 4.43256e-05
*RES
1 *3260:X *968:14 27.6467 
2 *968:14 *968:24 14.9392 
3 *968:24 *968:26 4.64286 
4 *968:26 *968:40 17.0893 
5 *968:40 *2734:A2 11.8893 
6 *968:40 *2735:A2 9.3 
7 *968:26 *2739:A2 9.3 
8 *968:24 *2738:B 24.3536 
9 *968:14 *2710:A1 17.4868 
*END

*D_NET *969 0.0102956
*CONN
*I *2687:C I *D sky130_fd_sc_hd__or4_1
*I *2428:B I *D sky130_fd_sc_hd__nand2_1
*I *2681:B I *D sky130_fd_sc_hd__or3_1
*I *2430:B I *D sky130_fd_sc_hd__nand3b_1
*I *2447:A_N I *D sky130_fd_sc_hd__and3b_1
*I *3103:X O *D sky130_fd_sc_hd__clkbuf_1
*CAP
1 *2687:C 0.000179196
2 *2428:B 0.000557785
3 *2681:B 0
4 *2430:B 0.00018958
5 *2447:A_N 0.000366314
6 *3103:X 0
7 *969:63 0.000971279
8 *969:50 0.000449572
9 *969:12 0.0014248
10 *969:4 0.00108417
11 *2428:B *2699:A1 9.60875e-05
12 *2687:C *2378:A 9.71197e-05
13 *2687:C *2687:A 5.52302e-05
14 *2687:C *2690:A1 5.33005e-05
15 *969:12 *3103:A 0.000362839
16 *2383:B *2428:B 0.000186812
17 *2383:B *969:63 3.10885e-05
18 *2387:C_N *2430:B 6.26276e-05
19 *2387:C_N *969:12 2.59355e-05
20 *2388:A *2447:A_N 6.2332e-05
21 *2430:A_N *2430:B 9.58181e-05
22 *2430:C *2430:B 3.45225e-05
23 *2441:B *969:12 5.38242e-05
24 *2447:C *2447:A_N 0
25 *2664:B_N *969:12 5.33005e-05
26 *2664:C *969:12 0.000137983
27 *2671:A3 *2447:A_N 0.000137276
28 *2681:A *969:50 0.000165164
29 *2681:C *969:50 2.42516e-05
30 *2681:C *969:63 2.59355e-05
31 *2689:C1 *969:50 4.82225e-05
32 *2695:A *2428:B 5.17614e-05
33 *2695:A *969:12 5.5674e-05
34 *2698:A3 *2428:B 0
35 *2699:B1 *2428:B 0
36 *2762:B1 *2687:C 0.000310292
37 *2784:CLK *2447:A_N 3.18676e-05
38 *3233:A *2428:B 9.21418e-06
39 *3233:A *969:63 0.000132249
40 *3366:A *2430:B 0.00012401
41 *3366:A *2447:A_N 0
42 *3368:A *2447:A_N 0.000150142
43 *501:8 *969:63 4.84319e-05
44 *502:42 *2428:B 0
45 *508:10 *2428:B 0.000245913
46 *508:46 *2428:B 6.55169e-05
47 *509:8 *2447:A_N 2.37761e-05
48 *672:53 *969:63 0.000139913
49 *675:12 *2447:A_N 2.58997e-05
50 *679:16 *969:12 1.3701e-05
51 *679:16 *969:63 0
52 *679:33 *969:12 2.59355e-05
53 *683:6 *969:63 0.000307343
54 *691:20 *2428:B 3.42974e-05
55 *696:20 *2447:A_N 0.000190805
56 *696:28 *2428:B 9.41642e-05
57 *773:20 *2428:B 0.000424133
58 *774:59 *2447:A_N 0.000165904
59 *952:36 *2430:B 0.000123295
60 *953:8 *2687:C 0.000174375
61 *953:39 *2687:C 6.05161e-06
62 *953:112 *2430:B 2.98258e-05
63 *956:26 *969:50 0.000258726
*RES
1 *3103:X *969:4 9.3 
2 *969:4 *969:12 12.1964 
3 *969:12 *2447:A_N 27.0857 
4 *969:12 *2430:B 22.2464 
5 *969:4 *969:50 13.4107 
6 *969:50 *2681:B 9.3 
7 *969:50 *969:63 10.6964 
8 *969:63 *2428:B 35.4786 
9 *969:63 *2687:C 18.8536 
*END

*D_NET *970 0.00691385
*CONN
*I *2662:S I *D sky130_fd_sc_hd__mux2_1
*I *2674:B I *D sky130_fd_sc_hd__nand2_1
*I *2661:S I *D sky130_fd_sc_hd__mux2_1
*I *2663:S I *D sky130_fd_sc_hd__mux2_1
*I *2660:S I *D sky130_fd_sc_hd__mux2_1
*I *3361:X O *D sky130_fd_sc_hd__dlygate4sd1_1
*CAP
1 *2662:S 6.93756e-05
2 *2674:B 0.000470975
3 *2661:S 9.0053e-05
4 *2663:S 0
5 *2660:S 0.000101516
6 *3361:X 0.000397744
7 *970:26 0.000406043
8 *970:16 0.000462648
9 *970:14 0.000606406
10 *970:12 0.000534483
11 *2660:S *3328:A 3.67356e-05
12 *2661:S *988:14 5.33005e-05
13 *2662:S *3324:A 0.000222666
14 *2662:S *989:18 9.71197e-05
15 *970:12 *3345:A 2.26327e-05
16 *970:12 *988:14 0.000207015
17 *970:12 *1024:12 2.59795e-05
18 *970:14 *3345:A 0.000173812
19 *970:14 *988:14 5.15901e-05
20 *970:16 *3345:A 0.000226021
21 *970:16 *988:14 8.08376e-05
22 *970:26 *2663:A0 9.71197e-05
23 *970:26 *3328:A 0.000184516
24 *970:26 *3345:A 3.34295e-05
25 *970:26 *988:14 9.69119e-06
26 PSEL2 *2662:S 4.58194e-05
27 *2435:C *970:12 0.000128154
28 *2436:A_N *970:12 0.00019187
29 *2438:B *970:12 0.000307885
30 *2516:A *2674:B 0.000139632
31 *2661:A1 *2661:S 4.8843e-05
32 *2663:A1 *2660:S 0.000324167
33 *2827:D *970:26 0.00020455
34 *2828:D *2674:B 0.00018372
35 *2828:GATE_N *2674:B 2.6269e-05
36 *374:8 *970:12 7.83587e-05
37 *431:10 *970:26 0
38 *505:10 *970:12 0.000139907
39 *507:24 *970:12 4.06875e-05
40 *935:12 *2660:S 0.000392283
*RES
1 *3361:X *970:12 24.6214 
2 *970:12 *970:14 2.25 
3 *970:14 *970:16 2.85714 
4 *970:16 *970:26 11.9107 
5 *970:26 *2660:S 23.2821 
6 *970:26 *2663:S 9.3 
7 *970:16 *2661:S 15.5679 
8 *970:14 *2674:B 21.4607 
9 *970:12 *2662:S 15.9786 
*END

*D_NET *971 0.00208946
*CONN
*I *3103:A I *D sky130_fd_sc_hd__clkbuf_1
*I *3362:X O *D sky130_fd_sc_hd__dlygate4sd1_1
*CAP
1 *3103:A 0.000283538
2 *3362:X 0.000283538
3 *3103:A *1048:10 5.33005e-05
4 *2664:B_N *3103:A 5.33005e-05
5 *2695:A *3103:A 0.000446199
6 *3362:A *3103:A 0.000128086
7 *772:10 *3103:A 0.000307286
8 *774:16 *3103:A 0.000171375
9 *969:12 *3103:A 0.000362839
*RES
1 *3362:X *3103:A 37.1357 
*END

*D_NET *972 0.00695899
*CONN
*I *2725:B I *D sky130_fd_sc_hd__or2_1
*I *2677:B1 I *D sky130_fd_sc_hd__o31a_1
*I *2829:D I *D sky130_fd_sc_hd__dlxtn_1
*I *2768:A1 I *D sky130_fd_sc_hd__o21a_1
*I *2769:B I *D sky130_fd_sc_hd__or3_1
*I *3104:Y O *D sky130_fd_sc_hd__clkinvlp_2
*CAP
1 *2725:B 0.000698197
2 *2677:B1 0
3 *2829:D 0.00037606
4 *2768:A1 3.17002e-05
5 *2769:B 0.000107318
6 *3104:Y 0
7 *972:49 0.00077159
8 *972:36 0.000710797
9 *972:10 0.00125511
10 *972:4 0.00137743
11 *2725:B *2656:A0 3.18676e-05
12 *2725:B *2747:A1 5.57727e-05
13 *2725:B *992:16 2.65105e-05
14 *2392:A *972:36 5.71472e-05
15 *2392:C *972:36 0.000157095
16 *2737:A2 *2725:B 7.53108e-05
17 *2737:B2 *2725:B 1.27784e-05
18 *2747:A2 *2725:B 0
19 *2764:A *2829:D 0
20 *2768:A2 *2769:B 7.83587e-05
21 *2768:B1 *2768:A1 0.000186662
22 *3086:RESET_B *2725:B 0
23 *3099:A *2768:A1 0.000102197
24 *3099:A *2829:D 0.000166416
25 *3104:A *972:36 3.9846e-05
26 *3240:A *2725:B 2.39876e-05
27 *3318:A *2725:B 7.83659e-05
28 *471:20 *2725:B 0.00010096
29 *722:42 *2725:B 7.76647e-05
30 *737:26 *2725:B 0.000173804
31 *771:12 *972:10 0
32 *771:14 *2769:B 0
33 *771:67 *972:10 0
34 *783:12 *2725:B 0
35 *783:26 *2725:B 1.02504e-05
36 *783:26 *2829:D 3.69697e-05
37 *783:26 *972:49 3.34783e-05
38 *784:14 *2725:B 5.51406e-05
39 *784:32 *2725:B 6.37408e-06
40 *801:31 *2725:B 4.38243e-05
41 *804:14 *2725:B 0
*RES
1 *3104:Y *972:4 9.3 
2 *972:4 *972:10 21.3214 
3 *972:10 *2769:B 15.7464 
4 *972:10 *2768:A1 15.5679 
5 *972:4 *972:36 8.875 
6 *972:36 *2829:D 20.8714 
7 *972:36 *972:49 1.03571 
8 *972:49 *2677:B1 13.8 
9 *972:49 *2725:B 27.4786 
*END

*D_NET *973 0.00403194
*CONN
*I *3347:A I *D sky130_fd_sc_hd__buf_4
*I *2728:B2 I *D sky130_fd_sc_hd__o221a_2
*I *3363:X O *D sky130_fd_sc_hd__clkbuf_2
*CAP
1 *3347:A 0.000775127
2 *2728:B2 0.000107247
3 *3363:X 0.000494128
4 *973:8 0.0013765
5 *3347:A *2705:A1 0
6 *3347:A *2731:A1 0
7 *3347:A *3235:A 0.000166407
8 *3347:A *991:8 0
9 *973:8 *2380:A 5.71472e-05
10 *2390:A *3347:A 1.59782e-05
11 *2726:A *2728:B2 0
12 *2726:A *3347:A 0
13 *2728:B1 *2728:B2 0.000227729
14 *2728:B1 *3347:A 3.17148e-05
15 *2728:B1 *973:8 5.33005e-05
16 *2730:A1 *3347:A 0.000429925
17 *2731:B1 *3347:A 0
18 *3272:A *3347:A 0
19 *3317:A *3347:A 0.000112555
20 *471:20 *3347:A 9.73086e-05
21 *481:14 *3347:A 0
22 *718:25 *2728:B2 0
23 *737:26 *3347:A 8.68665e-05
24 *957:16 *3347:A 0
*RES
1 *3363:X *973:8 21.3179 
2 *973:8 *2728:B2 16.6571 
3 *973:8 *3347:A 29.4964 
*END

*D_NET *974 0.00210615
*CONN
*I *2760:A1 I *D sky130_fd_sc_hd__a22o_1
*I *3236:X O *D sky130_fd_sc_hd__dlygate4sd3_1
*CAP
1 *2760:A1 0.0003237
2 *3236:X 0.0003237
3 *2760:A1 *3321:A 5.08481e-05
4 *2760:A1 *3327:A 0.000308107
5 *2760:A1 *988:14 2.89016e-05
6 *2760:A1 *989:18 0.000698314
7 *2760:A1 *1024:12 0
8 *2760:B1 *2760:A1 0.000341175
9 *2760:B2 *2760:A1 3.14048e-05
*RES
1 *3236:X *2760:A1 39.225 
*END

*D_NET *975 0.000644008
*CONN
*I *2747:A1 I *D sky130_fd_sc_hd__a22o_1
*I *3237:X O *D sky130_fd_sc_hd__dlygate4sd3_1
*CAP
1 *2747:A1 0.00014627
2 *3237:X 0.00014627
3 *2725:B *2747:A1 5.57727e-05
4 *2747:A2 *2747:A1 0.000295695
*RES
1 *3237:X *2747:A1 30.9036 
*END

*D_NET *976 0.000348195
*CONN
*I *2723:A1 I *D sky130_fd_sc_hd__a22o_1
*I *3238:X O *D sky130_fd_sc_hd__dlygate4sd3_1
*CAP
1 *2723:A1 0.000104148
2 *3238:X 0.000104148
3 *2723:A2 *2723:A1 0.0001399
*RES
1 *3238:X *2723:A1 20.3679 
*END

*D_NET *977 0.0015381
*CONN
*I *2719:A0 I *D sky130_fd_sc_hd__mux2_1
*I *3239:X O *D sky130_fd_sc_hd__dlygate4sd3_1
*CAP
1 *2719:A0 0.000348976
2 *3239:X 0.000348976
3 *2719:A0 *997:20 5.52302e-05
4 *2719:A0 *1047:111 0
5 *2719:A0 *1047:123 0.000104663
6 *2711:S *2719:A0 0.000234325
7 *2719:A1 *2719:A0 7.57673e-05
8 *2789:RESET_B *2719:A0 0.000143009
9 *787:14 *2719:A0 0.000181803
10 *956:70 *2719:A0 4.53515e-05
*RES
1 *3239:X *2719:A0 36.7964 
*END

*D_NET *978 0.00092716
*CONN
*I *2742:A1 I *D sky130_fd_sc_hd__a22o_1
*I *3240:X O *D sky130_fd_sc_hd__dlygate4sd3_1
*CAP
1 *2742:A1 0.000229061
2 *3240:X 0.000229061
3 *2742:A2 *2742:A1 0.000100831
4 *2742:B1 *2742:A1 0.000100831
5 *782:53 *2742:A1 0.000267377
*RES
1 *3240:X *2742:A1 31.5286 
*END

*D_NET *979 0.00713916
*CONN
*I *2738:C I *D sky130_fd_sc_hd__and3_1
*I *2739:B1 I *D sky130_fd_sc_hd__a21oi_1
*I *2718:A1 I *D sky130_fd_sc_hd__a221o_1
*I *3261:X O *D sky130_fd_sc_hd__buf_1
*CAP
1 *2738:C 0.000245915
2 *2739:B1 6.42513e-05
3 *2718:A1 0.000225374
4 *3261:X 0.000386509
5 *979:27 0.000772479
6 *979:10 0.0010742
7 *2718:A1 *1047:111 0
8 *2738:C *2721:A 0.000120505
9 *2738:C *981:18 0
10 *2738:C *1047:27 4.53834e-05
11 *979:10 *1047:111 0.000168067
12 *2432:A *2738:C 6.09476e-05
13 *2432:A *2739:B1 9.71197e-05
14 *2432:A *979:27 4.08637e-05
15 *2667:A *2718:A1 4.75428e-05
16 *2704:A1_N *2738:C 1.99099e-05
17 *2705:A2 *2738:C 1.21101e-05
18 *2709:A1 *2718:A1 3.72078e-05
19 *2709:A1 *979:10 7.15591e-05
20 *2709:A2 *2718:A1 0
21 *2709:A2 *979:27 0.000219711
22 *2710:C1 *979:10 0.000328389
23 *2711:A1 *979:10 0.000615969
24 *2715:A *979:27 8.61656e-05
25 *2716:B *2718:A1 0.000168301
26 *2718:B2 *979:27 0.000522432
27 *2738:B *2738:C 6.4336e-05
28 *2787:D *2738:C 6.07232e-05
29 *3365:A *2738:C 7.60306e-05
30 *506:10 *2738:C 7.80714e-06
31 *674:18 *2718:A1 0.000150611
32 *786:47 *2718:A1 1.37292e-05
33 *868:20 *979:10 0.000274294
34 *882:8 *979:10 0.000445016
35 *882:19 *979:10 7.19677e-05
36 *957:77 *2738:C 5.27703e-06
37 *957:77 *2739:B1 9.41642e-05
38 *968:24 *979:27 8.36572e-05
39 *968:26 *2739:B1 0.00022266
40 *968:26 *979:27 0.000137983
*RES
1 *3261:X *979:10 27.3714 
2 *979:10 *2718:A1 19.0857 
3 *979:10 *979:27 14.9286 
4 *979:27 *2739:B1 11.4786 
5 *979:27 *2738:C 24.3402 
*END

*D_NET *980 0.0016141
*CONN
*I *2757:A1 I *D sky130_fd_sc_hd__o22a_1
*I *3241:X O *D sky130_fd_sc_hd__dlygate4sd3_1
*CAP
1 *2757:A1 0.000340185
2 *3241:X 0.000340185
3 *2757:A1 *2659:A0 3.92854e-05
4 *2757:A1 *2751:B2 3.88168e-05
5 *2757:A1 *3327:A 0.000502184
6 *2757:A1 *1024:12 3.65544e-05
7 *2659:A1 *2757:A1 0.000316887
*RES
1 *3241:X *2757:A1 35.8679 
*END

*D_NET *981 0.00603325
*CONN
*I *2744:A I *D sky130_fd_sc_hd__nand2_1
*I *2722:B1 I *D sky130_fd_sc_hd__a2bb2o_1
*I *2745:A1 I *D sky130_fd_sc_hd__o21a_1
*I *3262:X O *D sky130_fd_sc_hd__buf_1
*CAP
1 *2744:A 0.000372421
2 *2722:B1 0
3 *2745:A1 0.000187493
4 *3262:X 0.000769333
5 *981:35 0.0004931
6 *981:18 0.00107751
7 *2745:A1 *1047:8 2.8266e-06
8 *2745:A1 *1047:27 3.45116e-05
9 *981:18 *2721:A 0
10 *981:18 *3235:A 0.000711565
11 *981:18 *996:16 9.41642e-05
12 *981:18 *1012:12 5.52302e-05
13 *981:35 *1047:27 1.54142e-05
14 *2432:A *981:18 5.41797e-05
15 *2704:B2 *2745:A1 3.31038e-05
16 *2709:B1 *981:18 0.000355043
17 *2710:C1 *981:18 0.000305181
18 *2722:A1_N *981:35 5.33005e-05
19 *2722:A2_N *2744:A 1.21258e-05
20 *2722:A2_N *981:35 0.00018372
21 *2738:C *981:18 0
22 *2740:A1 *2744:A 7.83659e-05
23 *2740:A2 *2745:A1 1.04232e-05
24 *2740:A3 *2744:A 6.8646e-06
25 *2740:B2 *2744:A 4.46186e-06
26 *2744:B *2744:A 9.80173e-05
27 *2746:A1_N *2744:A 1.21258e-05
28 *2746:B1 *2744:A 0.000184729
29 *3365:A *981:18 1.17968e-05
30 *506:10 *2745:A1 3.17148e-05
31 *506:10 *981:18 0.000128161
32 *720:33 *2744:A 0.000118792
33 *868:20 *981:18 9.80173e-05
34 *883:10 *2745:A1 8.27184e-06
35 *891:32 *2745:A1 0.000144038
36 *891:32 *981:18 0.000189455
37 *957:77 *981:18 9.78027e-05
38 *968:24 *981:18 0
*RES
1 *3262:X *981:18 32.5143 
2 *981:18 *2745:A1 17.425 
3 *981:18 *981:35 7.08929 
4 *981:35 *2722:B1 9.3 
5 *981:35 *2744:A 24.425 
*END

*D_NET *982 0.0137229
*CONN
*I *2700:B1 I *D sky130_fd_sc_hd__o2bb2a_4
*I *2688:A I *D sky130_fd_sc_hd__or3_1
*I *2378:A I *D sky130_fd_sc_hd__inv_2
*I *2448:A I *D sky130_fd_sc_hd__or2_1
*I *2674:A I *D sky130_fd_sc_hd__nand2_1
*I *3263:X O *D sky130_fd_sc_hd__dlymetal6s2s_1
*CAP
1 *2700:B1 0
2 *2688:A 8.85989e-05
3 *2378:A 0.000296852
4 *2448:A 1.16062e-05
5 *2674:A 0.000175476
6 *3263:X 0.000296603
7 *982:75 0.000349997
8 *982:52 0.00242889
9 *982:27 0.0022995
10 *982:8 0.000889329
11 *2378:A *1018:12 0
12 *982:27 *2672:A 0.000276572
13 *982:27 *1050:10 5.01448e-05
14 *982:27 *1050:25 8.54471e-05
15 *982:27 *1050:31 8.98447e-05
16 *982:75 *2700:A2_N 1.76039e-05
17 *2388:B *982:27 3.79104e-05
18 *2435:A_N *982:8 0.000114577
19 *2435:C *982:8 6.25848e-05
20 *2437:A *982:8 7.02611e-05
21 *2439:B *982:8 2.89016e-05
22 *2445:B *2448:A 5.52302e-05
23 *2445:B *982:27 9.69119e-06
24 *2445:B *982:52 5.53406e-05
25 *2516:A *2674:A 5.71472e-05
26 *2676:B *982:8 2.59355e-05
27 *2683:A1 *2378:A 4.40119e-05
28 *2685:A *982:52 0.000312215
29 *2687:C *2378:A 9.71197e-05
30 *2688:B *2688:A 0.000256345
31 *2688:B *982:75 0.000111172
32 *2691:B *982:27 0.000128154
33 *2691:C *2674:A 1.02504e-05
34 *2691:C *982:27 0.000137075
35 *2695:D_N *982:27 0.00010326
36 *2697:D_N *2378:A 0
37 *2703:C1 *982:75 0
38 *2755:B1 *982:52 8.07951e-05
39 *2756:A *982:52 7.17235e-05
40 *2756:B *982:52 0.000162684
41 *2757:B2 *2448:A 5.52302e-05
42 *2762:B1 *2378:A 2.03618e-05
43 *3180:A *2674:A 0
44 *3180:A *982:27 0
45 *3183:A *982:52 0.000335232
46 *3233:A *2378:A 0.000237688
47 *431:10 *982:8 0.000567277
48 *472:14 *982:75 0
49 *478:8 *982:27 7.80714e-06
50 *501:8 *2378:A 0
51 *501:8 *982:75 0
52 *505:38 *982:27 0.00018545
53 *505:38 *982:52 0.000234377
54 *507:26 *982:8 0.000128409
55 *672:43 *2688:A 4.27935e-05
56 *672:43 *982:52 0.00132601
57 *672:43 *982:75 0
58 *672:53 *2688:A 9.41642e-05
59 *678:8 *2674:A 0.000314458
60 *738:12 *2674:A 0.000360816
61 *738:12 *982:27 4.32957e-05
62 *739:10 *982:52 8.07397e-06
63 *767:42 *982:8 3.97677e-05
64 *770:10 *2378:A 5.01117e-05
65 *885:14 *982:8 0.00018372
66 *891:23 *2378:A 0
67 *891:23 *982:75 0
68 *953:8 *2378:A 9.90431e-05
*RES
1 *3263:X *982:8 22.9607 
2 *982:8 *2674:A 19.55 
3 *982:8 *982:27 11.2143 
4 *982:27 *2448:A 14.3357 
5 *982:27 *982:52 37.625 
6 *982:52 *2378:A 20.6393 
7 *982:52 *982:75 9.19643 
8 *982:75 *2688:A 11.9071 
9 *982:75 *2700:B1 9.3 
*END

*D_NET *983 0.0022244
*CONN
*I *2654:A1 I *D sky130_fd_sc_hd__mux2_1
*I *3264:X O *D sky130_fd_sc_hd__clkbuf_1
*CAP
1 *2654:A1 0.000703818
2 *3264:X 0.000703818
3 *2654:A1 *2646:A0 5.71472e-05
4 *2654:A1 *2654:A0 0
5 *2475:B1 *2654:A1 9.21965e-05
6 *3151:A *2654:A1 5.31158e-05
7 *3168:A *2654:A1 0
8 *3169:A *2654:A1 0.000221641
9 *790:8 *2654:A1 0.000171023
10 *873:10 *2654:A1 0
11 *873:28 *2654:A1 0
12 *873:44 *2654:A1 0
13 *884:65 *2654:A1 0.000221641
*RES
1 *3264:X *2654:A1 39.6893 
*END

*D_NET *984 0.00292827
*CONN
*I *2751:B2 I *D sky130_fd_sc_hd__a221o_1
*I *3265:X O *D sky130_fd_sc_hd__clkbuf_1
*CAP
1 *2751:B2 0.000758924
2 *3265:X 0.000758924
3 *2751:B2 *2759:A2 0.000125724
4 *2751:B2 *2759:B2 1.91414e-05
5 *2444:A *2751:B2 4.58194e-05
6 *2751:A2 *2751:B2 2.61387e-05
7 *2751:C1 *2751:B2 0
8 *2752:A1 *2751:B2 0.000258402
9 *2757:A1 *2751:B2 3.88168e-05
10 *2758:A_N *2751:B2 0.000137983
11 *2759:C1 *2751:B2 7.83659e-05
12 *3241:A *2751:B2 4.58194e-05
13 *115:16 *2751:B2 0.000177815
14 *116:57 *2751:B2 4.16711e-05
15 *739:44 *2751:B2 0.000334016
16 *882:25 *2751:B2 6.76856e-05
17 *882:44 *2751:B2 1.3025e-05
*RES
1 *3265:X *2751:B2 44.1714 
*END

*D_NET *985 0.000739274
*CONN
*I *2659:A0 I *D sky130_fd_sc_hd__mux2_1
*I *3266:X O *D sky130_fd_sc_hd__clkbuf_1
*CAP
1 *2659:A0 0.000298583
2 *3266:X 0.000298583
3 *2659:A0 *1024:12 8.00806e-05
4 *2757:A1 *2659:A0 3.92854e-05
5 *2757:A2 *2659:A0 2.27416e-05
*RES
1 *3266:X *2659:A0 31.6357 
*END

*D_NET *986 0.00250679
*CONN
*I *2759:B2 I *D sky130_fd_sc_hd__a221o_1
*I *3267:X O *D sky130_fd_sc_hd__clkbuf_1
*CAP
1 *2759:B2 0.000399038
2 *3267:X 0.000399038
3 *2759:B2 *2759:A2 0.000772526
4 *2759:B2 *1024:12 0.000196785
5 *2759:B2 *1047:123 6.53035e-05
6 PADDR[1] *2759:B2 0.000271345
7 PSEL1 *2759:B2 2.59355e-05
8 *2751:B2 *2759:B2 1.91414e-05
9 *2759:A1 *2759:B2 0.000158981
10 *2759:B1 *2759:B2 1.28809e-05
11 *2759:C1 *2759:B2 1.02504e-05
12 *3254:A *2759:B2 1.02821e-05
13 *115:10 *2759:B2 0.000151476
14 *116:57 *2759:B2 1.38106e-05
*RES
1 *3267:X *2759:B2 41.033 
*END

*D_NET *987 0.00731093
*CONN
*I *2660:A0 I *D sky130_fd_sc_hd__mux2_1
*I *3268:X O *D sky130_fd_sc_hd__buf_1
*CAP
1 *2660:A0 0.000349761
2 *3268:X 0.000122374
3 *987:10 0.00307041
4 *987:8 0.00284303
5 *987:10 *3330:A 0
6 *987:10 *3332:A 0
7 *987:10 *3333:A 0
8 *987:10 *3335:A 0
9 *987:10 *3336:A 0
10 *987:10 *3338:A 0
11 *987:10 *3342:A 0
12 *987:10 *3343:A 0
13 PSEL4 *987:10 0
14 PWDATA[13] *987:10 9.59532e-06
15 PWDATA[14] *987:10 1.01912e-05
16 PWDATA[15] *987:10 5.92267e-05
17 PWDATA[1] *987:10 8.74238e-05
18 PWDATA[3] *987:10 3.15282e-05
19 PWDATA[4] *987:10 9.60337e-06
20 PWDATA[6] *987:10 5.92181e-05
21 PWDATA[8] *987:10 0
22 *2649:A1 *987:10 5.01401e-05
23 *2660:A1 *2660:A0 0.000141985
24 *3246:A *987:10 0.000115485
25 *3258:A *987:10 4.5539e-05
26 *3275:A *987:10 0.00011549
27 *3301:A *987:10 2.11419e-05
28 *3310:A *987:10 0.000168782
29 *935:12 *987:10 0
*RES
1 *3268:X *987:8 15.1571 
2 *987:8 *987:10 52.0357 
3 *987:10 *2660:A0 18.0321 
*END

*D_NET *988 0.00476054
*CONN
*I *2661:A0 I *D sky130_fd_sc_hd__mux2_1
*I *3269:X O *D sky130_fd_sc_hd__clkbuf_1
*CAP
1 *2661:A0 0
2 *3269:X 0.00126005
3 *988:14 0.00126005
4 *2438:B *988:14 0.000310314
5 *2661:A1 *988:14 4.87953e-05
6 *2661:S *988:14 5.33005e-05
7 *2757:A2 *988:14 0.000196269
8 *2758:B *988:14 5.2177e-05
9 *2760:A1 *988:14 2.89016e-05
10 *3091:D *988:14 0.000240462
11 *116:10 *988:14 5.52302e-05
12 *116:38 *988:14 9.60875e-05
13 *374:8 *988:14 6.81459e-05
14 *374:27 *988:14 2.55743e-05
15 *431:10 *988:14 0.000547828
16 *739:22 *988:14 0.000168224
17 *885:14 *988:14 0
18 *970:12 *988:14 0.000207015
19 *970:14 *988:14 5.15901e-05
20 *970:16 *988:14 8.08376e-05
21 *970:26 *988:14 9.69119e-06
*RES
1 *3269:X *988:14 46.8 
2 *988:14 *2661:A0 9.3 
*END

*D_NET *989 0.00485886
*CONN
*I *2662:A0 I *D sky130_fd_sc_hd__mux2_1
*I *3270:X O *D sky130_fd_sc_hd__clkbuf_1
*CAP
1 *2662:A0 0
2 *3270:X 0.00106905
3 *989:18 0.00106905
4 *989:18 *3321:A 7.40571e-05
5 *989:18 *3324:A 4.43256e-05
6 *989:18 *3327:A 0.000653898
7 PADDR[2] *989:18 0
8 PENABLE *989:18 0
9 *2434:A1 *989:18 7.15591e-05
10 *2436:C *989:18 9.74237e-05
11 *2437:A *989:18 4.38063e-05
12 *2662:S *989:18 9.71197e-05
13 *2760:A1 *989:18 0.000698314
14 *2760:B2 *989:18 1.24368e-05
15 *3263:A *989:18 0.000114992
16 *3266:A *989:18 0
17 *3269:A *989:18 0
18 *3311:A *989:18 0.000300389
19 *507:12 *989:18 0.000244372
20 *766:27 *989:18 0.000111787
21 *767:42 *989:18 0.000107503
22 *794:12 *989:18 0
23 *935:12 *989:18 4.87854e-05
*RES
1 *3270:X *989:18 47.9071 
2 *989:18 *2662:A0 9.3 
*END

*D_NET *990 0.00639579
*CONN
*I *2663:A0 I *D sky130_fd_sc_hd__mux2_1
*I *3271:X O *D sky130_fd_sc_hd__clkbuf_1
*CAP
1 *2663:A0 0.000979474
2 *3271:X 0.00124306
3 *990:12 0.00222253
4 PADDR[0] *990:12 0.000452468
5 *3260:A *990:12 0.000141975
6 *3270:A *990:12 0.000317452
7 *794:12 *2663:A0 0.00063062
8 *794:12 *990:12 0.000311095
9 *970:26 *2663:A0 9.71197e-05
*RES
1 *3271:X *990:12 42.7911 
2 *990:12 *2663:A0 33.9161 
*END

*D_NET *991 0.00744419
*CONN
*I *2713:A I *D sky130_fd_sc_hd__and3_1
*I *2705:A1 I *D sky130_fd_sc_hd__o21ai_1
*I *2712:A1 I *D sky130_fd_sc_hd__a21oi_1
*I *2731:A1 I *D sky130_fd_sc_hd__o21ai_1
*I *2707:A I *D sky130_fd_sc_hd__xor2_1
*I *3272:X O *D sky130_fd_sc_hd__dlymetal6s2s_1
*CAP
1 *2713:A 1.1624e-05
2 *2705:A1 0.00124432
3 *2712:A1 0
4 *2731:A1 0.000274192
5 *2707:A 6.2549e-05
6 *3272:X 0.000124059
7 *991:16 0.000443511
8 *991:14 0.000234484
9 *991:8 0.00150772
10 *2705:A1 *2721:A 0.000323313
11 *2705:A1 *993:12 8.6229e-06
12 *2705:A1 *996:16 0.000272665
13 *2707:A *992:27 0.000262388
14 *2713:A *2712:B1 5.52238e-05
15 *991:8 *993:12 0.00019539
16 *991:14 *2713:B 1.72894e-05
17 *991:16 *2713:B 1.32552e-05
18 *991:16 *992:27 0.000484524
19 *2443:A *2731:A1 0.000113151
20 *2443:B *2731:A1 1.94945e-05
21 *2714:A *2713:A 5.52238e-05
22 *2731:A2 *2731:A1 7.25515e-05
23 *2732:A1 *2731:A1 2.21447e-05
24 *2736:B1 *2731:A1 0
25 *2736:B2 *2731:A1 5.85561e-05
26 *2740:A3 *2705:A1 4.26495e-05
27 *2742:B2 *2731:A1 2.7547e-05
28 *2787:CLK *2705:A1 2.55568e-05
29 *3347:A *2705:A1 0
30 *3347:A *2731:A1 0
31 *3347:A *991:8 0
32 *471:20 *2707:A 0.000281769
33 *471:20 *991:16 0.000470164
34 *481:14 *2731:A1 0
35 *722:75 *2731:A1 9.08261e-06
36 *786:10 *2705:A1 0.000127267
37 *956:8 *2705:A1 3.17067e-05
38 *956:10 *2705:A1 0.000117388
39 *957:16 *2731:A1 0
40 *957:54 *2705:A1 0.000434806
*RES
1 *3272:X *991:8 16.6571 
2 *991:8 *991:14 6.39286 
3 *991:14 *991:16 5.05357 
4 *991:16 *2707:A 12.3179 
5 *991:16 *2731:A1 23.742 
6 *991:14 *2712:A1 9.3 
7 *991:8 *2705:A1 41.2821 
8 *991:8 *2713:A 14.3357 
*END

*D_NET *992 0.00642766
*CONN
*I *2713:B I *D sky130_fd_sc_hd__and3_1
*I *2712:A2 I *D sky130_fd_sc_hd__a21oi_1
*I *2707:B I *D sky130_fd_sc_hd__xor2_1
*I *3273:X O *D sky130_fd_sc_hd__clkbuf_1
*CAP
1 *2713:B 0.000246178
2 *2712:A2 0
3 *2707:B 0
4 *3273:X 0.0018004
5 *992:27 0.000560955
6 *992:16 0.00211517
7 *992:16 *2647:A0 0.00017089
8 *992:16 *2656:A0 0.000201737
9 *2647:A1 *992:16 0.000153466
10 *2647:S *992:16 0.000117533
11 *2656:S *992:16 7.77751e-05
12 *2707:A *992:27 0.000262388
13 *2714:A *2713:B 7.06885e-05
14 *2725:B *992:16 2.65105e-05
15 *74:9 *992:16 0
16 *471:20 *992:16 9.67766e-05
17 *471:20 *992:27 1.21289e-05
18 *991:14 *2713:B 1.72894e-05
19 *991:16 *2713:B 1.32552e-05
20 *991:16 *992:27 0.000484524
*RES
1 *3273:X *992:16 42.9071 
2 *992:16 *2707:B 9.3 
3 *992:16 *992:27 8.07143 
4 *992:27 *2712:A2 9.3 
5 *992:27 *2713:B 12.925 
*END

*D_NET *993 0.00173778
*CONN
*I *2713:C I *D sky130_fd_sc_hd__and3_1
*I *2712:B1 I *D sky130_fd_sc_hd__a21oi_1
*I *3274:X O *D sky130_fd_sc_hd__clkbuf_1
*CAP
1 *2713:C 5.83572e-06
2 *2712:B1 0.000122905
3 *3274:X 0.000280072
4 *993:12 0.000408813
5 *993:12 *3235:A 0.000449546
6 *993:12 *1018:12 5.52302e-05
7 *2705:A1 *993:12 8.6229e-06
8 *2713:A *2712:B1 5.52238e-05
9 *2714:A *2712:B1 3.98559e-05
10 *2714:A *2713:C 1.95435e-05
11 *2740:A3 *993:12 7.8201e-05
12 *709:8 *2712:B1 1.85392e-05
13 *991:8 *993:12 0.00019539
*RES
1 *3274:X *993:12 25.0857 
2 *993:12 *2712:B1 11.5143 
3 *993:12 *2713:C 9.49643 
*END

*D_NET *994 0.00660737
*CONN
*I *2655:A1 I *D sky130_fd_sc_hd__mux2_1
*I *3275:X O *D sky130_fd_sc_hd__clkbuf_1
*CAP
1 *2655:A1 0
2 *3275:X 0.00263967
3 *994:18 0.00263967
4 *2561:B1 *994:18 3.18676e-05
5 *2561:B2 *994:18 0.000114577
6 *2562:A1 *994:18 8.7531e-05
7 *2562:A2 *994:18 0.000142288
8 *2562:B1 *994:18 1.67389e-05
9 *2562:B2 *994:18 1.28809e-05
10 *2562:C1 *994:18 0.00015672
11 *2570:B1 *994:18 3.06878e-06
12 *2593:A *994:18 1.92789e-05
13 *2593:B *994:18 0.000134461
14 *2655:S *994:18 4.45751e-05
15 *2819:D *994:18 4.55324e-05
16 *2819:GATE_N *994:18 3.14048e-05
17 *2936:GATE_N *994:18 0.000136958
18 *932:49 *994:18 0.000350143
*RES
1 *3275:X *994:18 44.0321 
2 *994:18 *2655:A1 9.3 
*END

*D_NET *995 0.00140812
*CONN
*I *2721:A I *D sky130_fd_sc_hd__xnor2_1
*I *3276:X O *D sky130_fd_sc_hd__clkbuf_1
*CAP
1 *2721:A 0.000326829
2 *3276:X 0.000326829
3 *2432:B *2721:A 5.33005e-05
4 *2705:A1 *2721:A 0.000323313
5 *2738:B *2721:A 6.54045e-05
6 *2738:C *2721:A 0.000120505
7 *2787:CLK *2721:A 2.55587e-05
8 *3365:A *2721:A 9.61542e-05
9 *957:54 *2721:A 5.71472e-05
10 *957:77 *2721:A 1.30798e-05
11 *968:24 *2721:A 0
12 *981:18 *2721:A 0
*RES
1 *3276:X *2721:A 35.7429 
*END

*D_NET *996 0.00404323
*CONN
*I *2675:A I *D sky130_fd_sc_hd__nand2_2
*I *2380:A I *D sky130_fd_sc_hd__inv_2
*I *3277:X O *D sky130_fd_sc_hd__buf_1
*CAP
1 *2675:A 2.98489e-05
2 *2380:A 0.000372049
3 *3277:X 0.000651218
4 *996:16 0.00105312
5 *2380:A *3363:A 3.67142e-05
6 *2380:A *1047:82 0.000321802
7 *2380:A *1048:35 1.39841e-05
8 *2675:A *1047:82 6.09899e-05
9 *996:16 *3235:A 0
10 *996:16 *1012:12 0
11 *996:16 *1047:82 1.57523e-05
12 *2705:A1 *996:16 0.000272665
13 *2709:A2 *996:16 0.00014699
14 *2790:CLK *996:16 9.6087e-05
15 *2790:D *996:16 7.6644e-05
16 *868:20 *996:16 0.00063127
17 *956:8 *996:16 2.28428e-05
18 *956:10 *996:16 1.91418e-05
19 *956:12 *996:16 7.08001e-05
20 *973:8 *2380:A 5.71472e-05
21 *981:18 *996:16 9.41642e-05
*RES
1 *3277:X *996:16 33.3179 
2 *996:16 *2380:A 17.2464 
3 *996:16 *2675:A 10.2643 
*END

*D_NET *997 0.00494841
*CONN
*I *2672:A I *D sky130_fd_sc_hd__nand2_1
*I *2679:A I *D sky130_fd_sc_hd__nand2_1
*I *3278:X O *D sky130_fd_sc_hd__buf_1
*CAP
1 *2672:A 0.000321263
2 *2679:A 0
3 *3278:X 0.00101608
4 *997:20 0.00133735
5 *2672:A *1022:24 7.40536e-05
6 *2672:A *1050:25 3.34295e-05
7 *2381:A *997:20 6.94952e-05
8 *2439:B *2672:A 8.47107e-05
9 *2445:A *2672:A 0.000318197
10 *2445:B *2672:A 0.000256949
11 *2671:A1 *2672:A 2.59355e-05
12 *2671:A1 *997:20 3.59758e-05
13 *2679:B *997:20 5.52302e-05
14 *2680:C *997:20 5.71472e-05
15 *2693:B *997:20 7.83366e-05
16 *2710:B1 *997:20 0
17 *2711:S *997:20 8.13643e-05
18 *2717:A1 *997:20 0
19 *2717:A2 *997:20 0
20 *2719:A0 *997:20 5.52302e-05
21 *2749:A4 *997:20 1.18451e-05
22 *2749:B1 *997:20 9.22939e-05
23 *2757:B2 *2672:A 2.54632e-05
24 *3178:A *2672:A 0
25 *503:16 *2672:A 4.99283e-06
26 *504:12 *997:20 0.000148911
27 *696:20 *997:20 1.02504e-05
28 *701:60 *997:20 0.000107035
29 *787:14 *997:20 0.000289915
30 *891:84 *997:20 4.43698e-05
31 *891:110 *997:20 0
32 *950:94 *997:20 3.34687e-05
33 *954:38 *997:20 2.54304e-06
34 *982:27 *2672:A 0.000276572
*RES
1 *3278:X *997:20 38.8357 
2 *997:20 *2679:A 9.3 
3 *997:20 *2672:A 27.3536 
*END

*D_NET *998 0.00786029
*CONN
*I *3235:A I *D sky130_fd_sc_hd__clkbuf_4
*I *3234:A I *D sky130_fd_sc_hd__clkbuf_4
*I *3279:X O *D sky130_fd_sc_hd__buf_1
*CAP
1 *3235:A 0.00124498
2 *3234:A 0.000115748
3 *3279:X 0.000442016
4 *998:10 0.00180274
5 *3234:A *2647:A0 0
6 *3235:A *2647:A0 0.000215096
7 *3235:A *2656:A0 0.000166485
8 *3235:A *1012:12 0
9 *998:10 *2644:A0 0.000187593
10 *998:10 *2644:A1 0.000186662
11 *998:10 *2647:A0 0.00040381
12 *998:10 *1005:16 0.00027902
13 *2709:A2 *3235:A 0
14 *2709:B1 *3235:A 0.000501833
15 *3299:A *3235:A 5.71472e-05
16 *3318:A *3234:A 0.000193118
17 *3320:A *3235:A 0.000143557
18 *3320:A *998:10 0.000592967
19 *3347:A *3235:A 0.000166407
20 *968:24 *3235:A 0
21 *981:18 *3235:A 0.000711565
22 *993:12 *3235:A 0.000449546
23 *996:16 *3235:A 0
*RES
1 *3279:X *998:10 24.3536 
2 *998:10 *3234:A 20.8536 
3 *998:10 *3235:A 49.4964 
*END

*D_NET *999 0.00132066
*CONN
*I *2379:A I *D sky130_fd_sc_hd__inv_2
*I *3280:X O *D sky130_fd_sc_hd__clkbuf_1
*CAP
1 *2379:A 0.000324317
2 *3280:X 0.000324317
3 *2379:A *2647:A0 0.000399828
4 *2379:A *2656:A0 0.00012401
5 *3318:A *2379:A 0.000148189
6 *3320:A *2379:A 0
*RES
1 *3280:X *2379:A 33.3679 
*END

*D_NET *1000 0.00083936
*CONN
*I *2643:A0 I *D sky130_fd_sc_hd__mux2_1
*I *3281:X O *D sky130_fd_sc_hd__clkbuf_1
*CAP
1 *2643:A0 9.30921e-05
2 *3281:X 9.30921e-05
3 *2643:A0 *3353:A 0.000315158
4 *3247:A *2643:A0 0.000315158
5 *3281:A *2643:A0 2.28598e-05
*RES
1 *3281:X *2643:A0 22.4393 
*END

*D_NET *1001 0.00138872
*CONN
*I *2653:A0 I *D sky130_fd_sc_hd__mux2_1
*I *3282:X O *D sky130_fd_sc_hd__clkbuf_1
*CAP
1 *2653:A0 0.000319316
2 *3282:X 0.000319316
3 *2653:A0 *2657:A0 0.000149911
4 *2653:A0 *1016:22 2.39923e-05
5 *2454:A1 *2653:A0 0.000170055
6 *2454:B2 *2653:A0 0.000356089
7 *2653:A1 *2653:A0 1.81709e-05
8 *381:16 *2653:A0 0
9 *790:8 *2653:A0 3.18676e-05
*RES
1 *3282:X *2653:A0 35.2429 
*END

*D_NET *1002 0.00138568
*CONN
*I *2654:A0 I *D sky130_fd_sc_hd__mux2_1
*I *3283:X O *D sky130_fd_sc_hd__clkbuf_1
*CAP
1 *2654:A0 0.000346594
2 *3283:X 0.000346594
3 *2654:A0 *2646:A0 0.000171599
4 *2475:A1 *2654:A0 0.000100474
5 *2475:A2 *2654:A0 0
6 *2475:B1 *2654:A0 0.000363848
7 *2654:A1 *2654:A0 0
8 *3151:A *2654:A0 3.43988e-06
9 *385:8 *2654:A0 5.31255e-05
*RES
1 *3283:X *2654:A0 35.6536 
*END

*D_NET *1003 0.00519629
*CONN
*I *2655:A0 I *D sky130_fd_sc_hd__mux2_1
*I *3284:X O *D sky130_fd_sc_hd__clkbuf_1
*CAP
1 *2655:A0 0
2 *3284:X 0.00113159
3 *1003:14 0.00113159
4 *1003:14 *2652:A0 0
5 *2550:A1 *1003:14 0
6 *2550:A2 *1003:14 6.04795e-05
7 *2572:A1 *1003:14 0.000145406
8 *2573:A2 *1003:14 0.000146474
9 *2639:B *1003:14 0.000887779
10 *2803:D *1003:14 2.37761e-05
11 *2841:GATE_N *1003:14 0
12 *391:12 *1003:14 7.50697e-05
13 *551:22 *1003:14 5.52238e-05
14 *859:14 *1003:14 0.000518586
15 *884:34 *1003:14 0.00040765
16 *898:118 *1003:14 7.4667e-05
17 *911:72 *1003:14 0
18 *932:49 *1003:14 5.52238e-05
19 *932:70 *1003:14 0.000482775
*RES
1 *3284:X *1003:14 46.4607 
2 *1003:14 *2655:A0 9.3 
*END

*D_NET *1004 0.00261545
*CONN
*I *2656:A0 I *D sky130_fd_sc_hd__mux2_1
*I *3285:X O *D sky130_fd_sc_hd__clkbuf_1
*CAP
1 *2656:A0 0.000649478
2 *3285:X 0.000649478
3 *2656:A0 *2647:A0 0.000419067
4 *2379:A *2656:A0 0.00012401
5 *2725:B *2656:A0 3.18676e-05
6 *3235:A *2656:A0 0.000166485
7 *3320:A *2656:A0 0
8 *386:10 *2656:A0 0.00014285
9 *955:10 *2656:A0 0.000230482
10 *992:16 *2656:A0 0.000201737
*RES
1 *3285:X *2656:A0 41.85 
*END

*D_NET *1005 0.00483096
*CONN
*I *2656:A1 I *D sky130_fd_sc_hd__mux2_1
*I *3286:X O *D sky130_fd_sc_hd__clkbuf_1
*CAP
1 *2656:A1 0
2 *3286:X 0.00152247
3 *1005:16 0.00152247
4 *1005:16 *2644:A0 0
5 *1005:16 *2647:A0 0
6 wready *1005:16 5.71472e-05
7 *2647:A1 *1005:16 0.00105543
8 *3279:A *1005:16 9.90431e-05
9 *3289:A *1005:16 9.69119e-06
10 *3319:A *1005:16 0.00014285
11 *3320:A *1005:16 0.00014285
12 *998:10 *1005:16 0.00027902
*RES
1 *3286:X *1005:16 45.5857 
2 *1005:16 *2656:A1 13.8 
*END

*D_NET *1006 0.00130556
*CONN
*I *2657:A0 I *D sky130_fd_sc_hd__mux2_1
*I *3287:X O *D sky130_fd_sc_hd__clkbuf_1
*CAP
1 *2657:A0 0.000227517
2 *3287:X 0.000227517
3 *2653:A0 *2657:A0 0.000149911
4 *2653:A1 *2657:A0 0.000249156
5 *790:8 *2657:A0 0.000451463
*RES
1 *3287:X *2657:A0 34.0821 
*END

*D_NET *1007 0.00754616
*CONN
*I *2658:A0 I *D sky130_fd_sc_hd__mux2_1
*I *3288:X O *D sky130_fd_sc_hd__clkbuf_1
*CAP
1 *2658:A0 0.00124618
2 *3288:X 0.000679915
3 *1007:8 0.0019261
4 *2658:A0 *1013:12 0
5 *2562:A1 *2658:A0 9.97552e-05
6 *2570:B1 *2658:A0 1.41029e-05
7 *2642:B *2658:A0 0.00054402
8 *2651:A1 *1007:8 7.32955e-05
9 *2655:S *2658:A0 0.000149695
10 *2793:D *2658:A0 0.000117457
11 *3315:A *2658:A0 0.000444335
12 *813:26 *2658:A0 0.000172922
13 *884:16 *2658:A0 0.000942705
14 *884:24 *2658:A0 1.43349e-05
15 *884:24 *1007:8 0.000922646
16 *888:86 *2658:A0 0.000198698
*RES
1 *3288:X *1007:8 23.7821 
2 *1007:8 *2658:A0 45.7821 
*END

*D_NET *1008 0.00151119
*CONN
*I *2644:A0 I *D sky130_fd_sc_hd__mux2_1
*I *3289:X O *D sky130_fd_sc_hd__clkbuf_1
*CAP
1 *2644:A0 0.000406507
2 *3289:X 0.000406507
3 *2644:A0 *2644:A1 0.000263663
4 *3098:A *2644:A0 9.80173e-05
5 *885:126 *2644:A0 0.000148903
6 *998:10 *2644:A0 0.000187593
7 *1005:16 *2644:A0 0
*RES
1 *3289:X *2644:A0 35.0107 
*END

*D_NET *1009 0.000843508
*CONN
*I *2645:A0 I *D sky130_fd_sc_hd__mux2_1
*I *3290:X O *D sky130_fd_sc_hd__clkbuf_1
*CAP
1 *2645:A0 0.000329912
2 *3290:X 0.000329912
3 *2645:A0 *2645:A1 0
4 *2556:A1 *2645:A0 2.51343e-06
5 *2645:S *2645:A0 3.05446e-05
6 *3070:GATE_N *2645:A0 0.000150625
*RES
1 *3290:X *2645:A0 33.5464 
*END

*D_NET *1010 0.00183533
*CONN
*I *2646:A0 I *D sky130_fd_sc_hd__mux2_1
*I *3291:X O *D sky130_fd_sc_hd__clkbuf_1
*CAP
1 *2646:A0 0.000328435
2 *3291:X 0.000328435
3 *2475:A1 *2646:A0 5.13222e-05
4 *2475:A2 *2646:A0 0.00017096
5 *2646:A1 *2646:A0 0
6 *2654:A0 *2646:A0 0.000171599
7 *2654:A1 *2646:A0 5.71472e-05
8 *2896:D *2646:A0 0.000181796
9 *3172:A *2646:A0 0.000181796
10 *790:8 *2646:A0 0.000363837
*RES
1 *3291:X *2646:A0 37.1536 
*END

*D_NET *1011 0.00288925
*CONN
*I *2647:A0 I *D sky130_fd_sc_hd__mux2_1
*I *3292:X O *D sky130_fd_sc_hd__clkbuf_1
*CAP
1 *2647:A0 0.000445515
2 *3292:X 0.000445515
3 *2379:A *2647:A0 0.000399828
4 *2647:S *2647:A0 0.000136951
5 *2656:A0 *2647:A0 0.000419067
6 *2656:S *2647:A0 0.000130419
7 *3234:A *2647:A0 0
8 *3235:A *2647:A0 0.000215096
9 *386:10 *2647:A0 0.000122159
10 *992:16 *2647:A0 0.00017089
11 *998:10 *2647:A0 0.00040381
12 *1005:16 *2647:A0 0
*RES
1 *3292:X *2647:A0 42.4214 
*END

*D_NET *1012 0.0128828
*CONN
*I *2648:A0 I *D sky130_fd_sc_hd__mux2_1
*I *3293:X O *D sky130_fd_sc_hd__buf_1
*CAP
1 *2648:A0 0.00188054
2 *3293:X 0.0011525
3 *1012:12 0.00303304
4 *1012:12 *1048:31 3.65544e-05
5 *2409:A *2648:A0 7.42595e-05
6 *2419:B *2648:A0 0.000243219
7 *2426:A *2648:A0 5.28358e-05
8 *2450:A_N *2648:A0 0
9 *2497:B2 *2648:A0 6.74e-05
10 *2498:A1 *2648:A0 0
11 *2509:C1 *2648:A0 2.26973e-05
12 *2680:B *1012:12 0.000599378
13 *2681:C *1012:12 0.000423992
14 *2689:C1 *1012:12 0.000150697
15 *2704:B2 *1012:12 0.000125724
16 *2706:S *1012:12 0.000186067
17 *2723:B1 *1012:12 7.79781e-06
18 *2785:D *2648:A0 0
19 *2786:RESET_B *2648:A0 0.000127439
20 *3042:D *2648:A0 0.000225577
21 *3075:GATE_N *2648:A0 0
22 *3109:A *2648:A0 0.00042457
23 *3112:A *2648:A0 5.20693e-05
24 *3113:A *2648:A0 6.07232e-05
25 *3162:A *2648:A0 8.23597e-06
26 *3235:A *1012:12 0
27 *3358:A *1012:12 0
28 *3359:A *2648:A0 0
29 *3364:A *1012:12 6.3113e-05
30 *448:28 *2648:A0 0
31 *501:17 *1012:12 0
32 *502:55 *2648:A0 1.38752e-05
33 *502:55 *1012:12 8.05091e-05
34 *508:18 *1012:12 7.40526e-05
35 *561:14 *2648:A0 0
36 *570:18 *2648:A0 0.00181699
37 *679:16 *1012:12 0.000136584
38 *701:12 *1012:12 0.000177131
39 *776:8 *2648:A0 0
40 *786:10 *1012:12 0.000220455
41 *808:54 *2648:A0 0.000419487
42 *813:26 *2648:A0 7.21208e-05
43 *841:21 *2648:A0 0.000117947
44 *883:32 *1012:12 2.6949e-05
45 *915:27 *2648:A0 0.000307533
46 *915:33 *2648:A0 0.000239796
47 *915:48 *2648:A0 0
48 *956:8 *1012:12 0
49 *956:10 *1012:12 0
50 *956:26 *2648:A0 0.000105689
51 *956:26 *1012:12 0
52 *968:24 *1012:12 0
53 *981:18 *1012:12 5.52302e-05
54 *996:16 *1012:12 0
*RES
1 *3293:X *1012:12 40.7375 
2 *1012:12 *2648:A0 48.755 
*END

*D_NET *1013 0.00894496
*CONN
*I *2649:A0 I *D sky130_fd_sc_hd__mux2_1
*I *3294:X O *D sky130_fd_sc_hd__clkbuf_1
*CAP
1 *2649:A0 0.000945891
2 *3294:X 0.00111799
3 *1013:12 0.00206388
4 *2474:B1 *2649:A0 2.97387e-05
5 *2474:B1 *1013:12 6.5919e-05
6 *2570:A1 *2649:A0 5.74562e-05
7 *2629:B *1013:12 0.000463686
8 *2634:B *2649:A0 0.000317594
9 *2635:B *2649:A0 0.000152333
10 *2649:S *2649:A0 2.84109e-05
11 *2658:A0 *1013:12 0
12 *3313:A *1013:12 3.29037e-05
13 *3315:A *1013:12 0
14 *427:10 *2649:A0 0.00119396
15 *427:10 *1013:12 2.61707e-05
16 *428:16 *2649:A0 1.51216e-05
17 *428:16 *1013:12 0.000124951
18 *521:18 *1013:12 0.00113185
19 *671:26 *2649:A0 2.09897e-05
20 *880:38 *1013:12 9.8958e-05
21 *885:36 *2649:A0 4.8476e-05
22 *888:19 *2649:A0 0.000219954
23 *888:21 *2649:A0 1.5942e-05
24 *932:22 *2649:A0 0
25 *932:119 *2649:A0 2.74804e-05
26 *932:134 *2649:A0 0.000745308
*RES
1 *3294:X *1013:12 33.7196 
2 *1013:12 *2649:A0 42.2911 
*END

*D_NET *1014 0.000959402
*CONN
*I *2650:A0 I *D sky130_fd_sc_hd__mux2_1
*I *3295:X O *D sky130_fd_sc_hd__clkbuf_1
*CAP
1 *2650:A0 0.000222278
2 *3295:X 0.000222278
3 *2650:A0 *1055:16 0
4 *2643:S *2650:A0 7.80714e-06
5 *2646:A1 *2650:A0 0
6 *2650:A1 *2650:A0 0.000129868
7 *376:10 *2650:A0 5.71472e-05
8 *790:8 *2650:A0 0.000320024
*RES
1 *3295:X *2650:A0 32.85 
*END

*D_NET *1015 0.000652724
*CONN
*I *2651:A0 I *D sky130_fd_sc_hd__mux2_1
*I *3296:X O *D sky130_fd_sc_hd__clkbuf_1
*CAP
1 *2651:A0 0.000184955
2 *3296:X 0.000184955
3 *3288:A *2651:A0 0.000186669
4 *884:34 *2651:A0 9.61455e-05
*RES
1 *3296:X *2651:A0 22.4393 
*END

*D_NET *1016 0.0139977
*CONN
*I *2657:A1 I *D sky130_fd_sc_hd__mux2_1
*I *3297:X O *D sky130_fd_sc_hd__buf_1
*CAP
1 *2657:A1 0
2 *3297:X 0.00555928
3 *1016:22 0.00555928
4 PWDATA[2] *1016:22 4.26315e-05
5 PWDATA[5] *1016:22 0.000415068
6 rdata[11] *1016:22 0
7 rdata[14] *1016:22 0.000194108
8 *2460:B2 *1016:22 0
9 *2482:B2 *1016:22 0
10 *2639:A *1016:22 0
11 *2653:A0 *1016:22 2.39923e-05
12 *3024:GATE_N *1016:22 9.0145e-05
13 *3248:A *1016:22 0
14 *3297:A *1016:22 0.000301715
15 *384:14 *1016:22 0.000113028
16 *813:26 *1016:22 0.0015994
17 *873:44 *1016:22 9.90096e-05
*RES
1 *3297:X *1016:22 48.2429 
2 *1016:22 *2657:A1 9.3 
*END

*D_NET *1017 0.00135653
*CONN
*I *2652:A0 I *D sky130_fd_sc_hd__mux2_1
*I *3298:X O *D sky130_fd_sc_hd__clkbuf_1
*CAP
1 *2652:A0 0.00027032
2 *3298:X 0.00027032
3 *2830:GATE_N *2652:A0 0.000109728
4 *874:20 *2652:A0 0.000353079
5 *881:79 *2652:A0 0.000353079
6 *1003:14 *2652:A0 0
*RES
1 *3298:X *2652:A0 34.7786 
*END

*D_NET *1018 0.00426501
*CONN
*I *2687:A I *D sky130_fd_sc_hd__or4_1
*I *2690:A1 I *D sky130_fd_sc_hd__o31ai_1
*I *3299:X O *D sky130_fd_sc_hd__clkbuf_1
*CAP
1 *2687:A 8.21614e-06
2 *2690:A1 0.000191788
3 *3299:X 0.00117782
4 *1018:12 0.00137783
5 *1018:12 *2745:B1 0.000148903
6 *2378:A *1018:12 0
7 *2683:A1 *1018:12 0
8 *2685:A *1018:12 0
9 *2687:B *1018:12 7.42485e-05
10 *2687:C *2687:A 5.52302e-05
11 *2687:C *2690:A1 5.33005e-05
12 *2687:D *2690:A1 0.000116545
13 *2697:D_N *1018:12 0
14 *2709:B1 *1018:12 0
15 *2715:A *1018:12 7.57946e-05
16 *2740:A3 *1018:12 0
17 *2740:B1 *1018:12 0.000493182
18 *2740:B2 *1018:12 0
19 *2762:B1 *2690:A1 1.38323e-05
20 *472:14 *1018:12 0.000104974
21 *691:20 *2690:A1 9.50762e-05
22 *891:23 *1018:12 0
23 *891:32 *1018:12 0
24 *931:34 *2690:A1 7.61932e-05
25 *953:8 *2687:A 4.38128e-05
26 *953:8 *2690:A1 5.52302e-05
27 *957:54 *1018:12 4.78056e-05
28 *993:12 *1018:12 5.52302e-05
*RES
1 *3299:X *1018:12 40.2107 
2 *1018:12 *2690:A1 14.1036 
3 *1018:12 *2687:A 9.83571 
*END

*D_NET *1019 0.0143401
*CONN
*I *2689:A1 I *D sky130_fd_sc_hd__o311a_1
*I *2684:A1 I *D sky130_fd_sc_hd__o311a_1
*I *2699:A1 I *D sky130_fd_sc_hd__a21o_1
*I *3300:X O *D sky130_fd_sc_hd__buf_1
*CAP
1 *2689:A1 0.000267609
2 *2684:A1 2.22953e-05
3 *2699:A1 0.000349946
4 *3300:X 0.0042671
5 *1019:14 0.000372241
6 *1019:12 0.0045347
7 *2426:A *2689:A1 4.19535e-05
8 *2428:A *2699:A1 2.89016e-05
9 *2428:B *2699:A1 9.60875e-05
10 *2682:B *2699:A1 0.000145598
11 *2684:A2 *2699:A1 0.000134634
12 *2684:B1 *2684:A1 5.80706e-06
13 *2684:B1 *2689:A1 0.000792111
14 *2685:B *2684:A1 0
15 *2697:A *2689:A1 4.57975e-05
16 *2697:A *1019:12 0.000770215
17 *2763:A2 *1019:12 0
18 *2783:RESET_B *2699:A1 0
19 *502:10 *2699:A1 0.000148903
20 *502:55 *2689:A1 4.19535e-05
21 *510:46 *1019:12 0.000779515
22 *675:37 *2689:A1 0.000841853
23 *675:37 *1019:12 0.000434076
24 *773:20 *2699:A1 4.17014e-05
25 *949:29 *1019:12 0.000162421
26 *953:10 *2684:A1 1.12577e-05
27 *953:10 *2699:A1 3.43988e-06
*RES
1 *3300:X *1019:12 49.6442 
2 *1019:12 *1019:14 3.41 
3 *1019:14 *2699:A1 20.3089 
4 *1019:14 *2684:A1 14.3804 
5 *1019:12 *2689:A1 19.2066 
*END

*D_NET *1020 0.00130923
*CONN
*I *3321:A I *D sky130_fd_sc_hd__buf_2
*I *2444:X O *D sky130_fd_sc_hd__and2_1
*CAP
1 *3321:A 0.000436968
2 *2444:X 0.000436968
3 *3321:A *1024:12 0
4 PSEL1 *3321:A 9.69119e-06
5 PSEL3 *3321:A 1.31516e-05
6 *2760:A1 *3321:A 5.08481e-05
7 *3254:A *3321:A 0
8 *3311:A *3321:A 0.000287542
9 *989:18 *3321:A 7.40571e-05
*RES
1 *2444:X *3321:A 34.2607 
*END

*D_NET *1021 0.00360574
*CONN
*I *3322:A I *D sky130_fd_sc_hd__buf_2
*I *2445:X O *D sky130_fd_sc_hd__and2_1
*CAP
1 *3322:A 0.000801211
2 *2445:X 0.000801211
3 arready *3322:A 3.19493e-05
4 *2755:A2_N *3322:A 0.000575888
5 *2757:B1 *3322:A 7.83659e-05
6 *2757:B2 *3322:A 0.000393949
7 *2758:A_N *3322:A 0.000128154
8 *2758:B *3322:A 0.00025188
9 *2759:A1 *3322:A 0.000153136
10 *2760:A2 *3322:A 0.000295792
11 *115:22 *3322:A 5.01213e-05
12 *882:52 *3322:A 4.40809e-05
*RES
1 *2445:X *3322:A 47.6357 
*END

*D_NET *1022 0.00335952
*CONN
*I *3323:A I *D sky130_fd_sc_hd__buf_2
*I *2446:X O *D sky130_fd_sc_hd__and2_1
*CAP
1 *3323:A 0
2 *2446:X 0.000797216
3 *1022:24 0.000797216
4 *1022:24 *1024:12 0.000265385
5 PADDR[2] *1022:24 0.000621107
6 *2439:B *1022:24 9.25014e-06
7 *2446:B *1022:24 0.00030824
8 *2672:A *1022:24 7.40536e-05
9 *2756:B *1022:24 0
10 *374:8 *1022:24 0.000101545
11 *374:27 *1022:24 0.000170661
12 *503:16 *1022:24 6.54576e-05
13 *505:6 *1022:24 5.33005e-05
14 *505:10 *1022:24 9.60939e-05
*RES
1 *2446:X *1022:24 42.05 
2 *1022:24 *3323:A 9.3 
*END

*D_NET *1023 0.00199417
*CONN
*I *3324:A I *D sky130_fd_sc_hd__buf_2
*I *2439:X O *D sky130_fd_sc_hd__or2_1
*CAP
1 *3324:A 0.00038077
2 *2439:X 0.00038077
3 *3324:A *3326:A 0.000100831
4 *3324:A *3345:A 0.00042994
5 PSEL2 *3324:A 2.77173e-05
6 *2438:B *3324:A 0.000306317
7 *2662:S *3324:A 0.000222666
8 *3178:A *3324:A 0.000100831
9 *989:18 *3324:A 4.43256e-05
*RES
1 *2439:X *3324:A 37.1893 
*END

*D_NET *1024 0.00437174
*CONN
*I *3325:A I *D sky130_fd_sc_hd__buf_6
*I *2434:Y O *D sky130_fd_sc_hd__a211oi_2
*CAP
1 *3325:A 0
2 *2434:Y 0.000839102
3 *1024:12 0.000839102
4 *1024:12 *3327:A 0
5 PADDR[1] *1024:12 2.89114e-05
6 PADDR[2] *1024:12 0.000262647
7 PSEL1 *1024:12 5.52302e-05
8 *2436:A_N *1024:12 9.24299e-05
9 *2436:C *1024:12 1.09232e-05
10 *2446:B *1024:12 0.000220455
11 *2659:A0 *1024:12 8.00806e-05
12 *2659:A1 *1024:12 0.000204277
13 *2757:A1 *1024:12 3.65544e-05
14 *2759:B2 *1024:12 0.000196785
15 *2759:C1 *1024:12 4.98055e-06
16 *2760:A1 *1024:12 0
17 *2760:B1 *1024:12 0
18 *3092:D *1024:12 0.000486942
19 *3254:A *1024:12 1.49749e-05
20 *3321:A *1024:12 0
21 *115:10 *1024:12 0.000151476
22 *116:57 *1024:12 6.80589e-05
23 *117:23 *1024:12 0.000244486
24 *374:8 *1024:12 9.55467e-05
25 *374:27 *1024:12 2.23987e-05
26 *507:24 *1024:12 0.00012501
27 *970:12 *1024:12 2.59795e-05
28 *1022:24 *1024:12 0.000265385
*RES
1 *2434:Y *1024:12 42.9429 
2 *1024:12 *3325:A 9.3 
*END

*D_NET *1025 0.0004595
*CONN
*I *3326:A I *D sky130_fd_sc_hd__buf_6
*I *2435:X O *D sky130_fd_sc_hd__and3b_1
*CAP
1 *3326:A 7.92683e-05
2 *2435:X 7.92683e-05
3 *2438:A *3326:A 0.00012894
4 *2438:B *3326:A 5.52238e-05
5 *3324:A *3326:A 0.000100831
6 *433:10 *3326:A 1.59689e-05
*RES
1 *2435:X *3326:A 30.0821 
*END

*D_NET *1026 0.00300309
*CONN
*I *3327:A I *D sky130_fd_sc_hd__buf_6
*I *2436:X O *D sky130_fd_sc_hd__and3b_1
*CAP
1 *3327:A 0.000517298
2 *2436:X 0.000517298
3 PADDR[2] *3327:A 6.26559e-05
4 *2659:A1 *3327:A 0.000178412
5 *2757:A1 *3327:A 0.000502184
6 *2760:A1 *3327:A 0.000308107
7 *2760:B1 *3327:A 0.000129868
8 *3092:D *3327:A 0.00012798
9 *507:12 *3327:A 5.39166e-06
10 *989:18 *3327:A 0.000653898
11 *1024:12 *3327:A 0
*RES
1 *2436:X *3327:A 45.0107 
*END

*D_NET *1027 0.00146062
*CONN
*I *2658:A1 I *D sky130_fd_sc_hd__mux2_1
*I *3301:X O *D sky130_fd_sc_hd__clkbuf_1
*CAP
1 *2658:A1 0.000659164
2 *3301:X 0.000659164
3 *2658:A1 *3335:A 1.72894e-05
4 *2655:S *2658:A1 2.89114e-05
5 *2822:GATE_N *2658:A1 9.60875e-05
*RES
1 *3301:X *2658:A1 28.6 
*END

*D_NET *1028 0.00208148
*CONN
*I *3328:A I *D sky130_fd_sc_hd__buf_6
*I *2437:X O *D sky130_fd_sc_hd__and3_1
*CAP
1 *3328:A 0.000464285
2 *2437:X 0.000464285
3 *3328:A *3345:A 8.39e-05
4 *2437:B *3328:A 1.02504e-05
5 *2660:S *3328:A 3.67356e-05
6 *2663:A1 *3328:A 0.00046625
7 *2827:D *3328:A 0.000125613
8 *431:10 *3328:A 0
9 *766:10 *3328:A 0.000138816
10 *935:12 *3328:A 0.000106826
11 *970:26 *3328:A 0.000184516
*RES
1 *2437:X *3328:A 42.3321 
*END

*D_NET *1029 0.000865472
*CONN
*I *3329:A I *D sky130_fd_sc_hd__buf_2
*I *2807:Q O *D sky130_fd_sc_hd__dlxtn_1
*CAP
1 *3329:A 0.000245379
2 *2807:Q 0.000245379
3 *2638:B *3329:A 3.48235e-05
4 *2797:GATE_N *3329:A 1.32552e-05
5 *77:20 *3329:A 0.000252536
6 *426:10 *3329:A 7.40992e-05
*RES
1 *2807:Q *3329:A 31.725 
*END

*D_NET *1030 0.000254709
*CONN
*I *3330:A I *D sky130_fd_sc_hd__buf_2
*I *2817:Q O *D sky130_fd_sc_hd__dlxtn_1
*CAP
1 *3330:A 7.98649e-05
2 *2817:Q 7.98649e-05
3 *3330:A *1057:14 0
4 PWDATA[10] *3330:A 4.15914e-05
5 *3310:A *3330:A 5.33882e-05
6 *987:10 *3330:A 0
*RES
1 *2817:Q *3330:A 29.5464 
*END

*D_NET *1031 0.000427585
*CONN
*I *3331:A I *D sky130_fd_sc_hd__buf_2
*I *2818:Q O *D sky130_fd_sc_hd__dlxtn_1
*CAP
1 *3331:A 0.00012746
2 *2818:Q 0.00012746
3 *3331:A *3337:A 1.02504e-05
4 *3331:A *3350:A 1.17968e-05
5 *3331:A *3351:A 0
6 *3310:A *3331:A 0.000150618
*RES
1 *2818:Q *3331:A 30.0821 
*END

*D_NET *1032 0.000239572
*CONN
*I *3332:A I *D sky130_fd_sc_hd__buf_2
*I *2819:Q O *D sky130_fd_sc_hd__dlxtn_1
*CAP
1 *3332:A 0.000108359
2 *2819:Q 0.000108359
3 *3332:A *1057:14 0
4 PWDATA[12] *3332:A 2.28544e-05
5 *987:10 *3332:A 0
*RES
1 *2819:Q *3332:A 29.5464 
*END

*D_NET *1033 0.000401976
*CONN
*I *3333:A I *D sky130_fd_sc_hd__buf_2
*I *2820:Q O *D sky130_fd_sc_hd__dlxtn_1
*CAP
1 *3333:A 0.000165884
2 *2820:Q 0.000165884
3 PWDATA[13] *3333:A 1.21859e-05
4 *935:12 *3333:A 5.80217e-05
5 *987:10 *3333:A 0
*RES
1 *2820:Q *3333:A 30.4929 
*END

*D_NET *1034 0.00015106
*CONN
*I *3334:A I *D sky130_fd_sc_hd__buf_2
*I *2821:Q O *D sky130_fd_sc_hd__dlxtn_1
*CAP
1 *3334:A 7.55302e-05
2 *2821:Q 7.55302e-05
*RES
1 *2821:Q *3334:A 19.8679 
*END

*D_NET *1035 0.000637506
*CONN
*I *3335:A I *D sky130_fd_sc_hd__buf_2
*I *2822:Q O *D sky130_fd_sc_hd__dlxtn_1
*CAP
1 *3335:A 0.000213802
2 *2822:Q 0.000213802
3 *3335:A *3342:A 0.000129868
4 *3335:A *1057:14 0
5 PWDATA[15] *3335:A 6.27457e-05
6 *2658:A1 *3335:A 1.72894e-05
7 *987:10 *3335:A 0
*RES
1 *2822:Q *3335:A 32.2071 
*END

*D_NET *1036 0.000344331
*CONN
*I *3336:A I *D sky130_fd_sc_hd__buf_2
*I *2808:Q O *D sky130_fd_sc_hd__dlxtn_1
*CAP
1 *3336:A 0.000133799
2 *2808:Q 0.000133799
3 PWDATA[1] *3336:A 3.92757e-05
4 *3257:A *3336:A 9.54798e-06
5 *842:18 *3336:A 0
6 *935:12 *3336:A 2.79092e-05
7 *987:10 *3336:A 0
*RES
1 *2808:Q *3336:A 30.0821 
*END

*D_NET *1037 0.000287235
*CONN
*I *3337:A I *D sky130_fd_sc_hd__buf_2
*I *2809:Q O *D sky130_fd_sc_hd__dlxtn_1
*CAP
1 *3337:A 4.44026e-05
2 *2809:Q 4.44026e-05
3 *3337:A *3350:A 0.000127446
4 *3310:A *3337:A 6.07328e-05
5 *3331:A *3337:A 1.02504e-05
*RES
1 *2809:Q *3337:A 29.2429 
*END

*D_NET *1038 0.0011224
*CONN
*I *2644:A1 I *D sky130_fd_sc_hd__mux2_1
*I *3302:X O *D sky130_fd_sc_hd__clkbuf_1
*CAP
1 *2644:A1 0.000316999
2 *3302:X 0.000316999
3 *2644:A0 *2644:A1 0.000263663
4 *885:115 *2644:A1 5.80706e-06
5 *885:126 *2644:A1 3.22738e-05
6 *998:10 *2644:A1 0.000186662
*RES
1 *3302:X *2644:A1 33.7429 
*END

*D_NET *1039 0.000952403
*CONN
*I *3338:A I *D sky130_fd_sc_hd__buf_2
*I *2810:Q O *D sky130_fd_sc_hd__dlxtn_1
*CAP
1 *3338:A 0.000387568
2 *2810:Q 0.000387568
3 *3338:A *3343:A 0.000129868
4 PWDATA[14] *3338:A 1.28585e-05
5 PWDATA[3] *3338:A 3.454e-05
6 *842:18 *3338:A 0
7 *987:10 *3338:A 0
*RES
1 *2810:Q *3338:A 34.6357 
*END

*D_NET *1040 0.00014024
*CONN
*I *3339:A I *D sky130_fd_sc_hd__buf_2
*I *2811:Q O *D sky130_fd_sc_hd__dlxtn_1
*CAP
1 *3339:A 7.01202e-05
2 *2811:Q 7.01202e-05
*RES
1 *2811:Q *3339:A 19.8679 
*END

*D_NET *1041 0.00811236
*CONN
*I *3340:A I *D sky130_fd_sc_hd__buf_2
*I *2812:Q O *D sky130_fd_sc_hd__dlxtn_1
*CAP
1 *3340:A 4.7356e-05
2 *2812:Q 0.000128161
3 *1041:10 0.00167178
4 *1041:8 0.00175258
5 *1041:10 *3350:A 0
6 *1041:10 *1057:14 0
7 PWDATA[0] *3340:A 5.17614e-05
8 *2461:A *3340:A 6.21846e-05
9 *2538:A *1041:10 0
10 *2805:D *1041:10 0.000177941
11 *2809:D *1041:10 0.000123288
12 *2810:D *1041:10 0.000181368
13 *2813:GATE_N *1041:10 0.00020212
14 *2815:D *1041:10 8.15939e-05
15 *842:14 *1041:10 6.76272e-05
16 *842:18 *1041:10 0.000435985
17 *842:20 *1041:10 0.000211913
18 *842:22 *1041:10 0.000381318
19 *842:24 *1041:10 0.000383747
20 *842:26 *1041:10 0.000383747
21 *842:32 *1041:10 0.000171368
22 *842:36 *1041:10 0.000362538
23 *843:14 *1041:10 0.000501225
24 *843:16 *1041:10 9.01334e-05
25 *843:20 *1041:10 0.000100726
26 *881:154 *1041:10 0
27 *886:30 *1041:10 0.000199258
28 *886:44 *1041:10 0
29 *886:46 *1041:10 0.000146648
30 *886:50 *1041:10 0.000195985
*RES
1 *2812:Q *1041:8 15.1571 
2 *1041:8 *1041:10 49.9107 
3 *1041:10 *3340:A 15.175 
*END

*D_NET *1042 0.000144023
*CONN
*I *3341:A I *D sky130_fd_sc_hd__buf_2
*I *2813:Q O *D sky130_fd_sc_hd__dlxtn_1
*CAP
1 *3341:A 6.06406e-05
2 *2813:Q 6.06406e-05
3 *2649:A1 *3341:A 2.27416e-05
*RES
1 *2813:Q *3341:A 19.8679 
*END

*D_NET *1043 0.000572904
*CONN
*I *3342:A I *D sky130_fd_sc_hd__buf_2
*I *2814:Q O *D sky130_fd_sc_hd__dlxtn_1
*CAP
1 *3342:A 0.000205754
2 *2814:Q 0.000205754
3 *3342:A *1057:14 0
4 PWDATA[7] *3342:A 3.15282e-05
5 *3246:A *3342:A 0
6 *3335:A *3342:A 0.000129868
7 *842:18 *3342:A 0
8 *987:10 *3342:A 0
*RES
1 *2814:Q *3342:A 31.975 
*END

*D_NET *1044 0.000575496
*CONN
*I *3343:A I *D sky130_fd_sc_hd__buf_2
*I *2815:Q O *D sky130_fd_sc_hd__dlxtn_1
*CAP
1 *3343:A 0.000197284
2 *2815:Q 0.000197284
3 PWDATA[8] *3343:A 5.10602e-05
4 *3338:A *3343:A 0.000129868
5 *842:18 *3343:A 0
6 *987:10 *3343:A 0
*RES
1 *2815:Q *3343:A 31.975 
*END

*D_NET *1045 0.000252328
*CONN
*I *3344:A I *D sky130_fd_sc_hd__buf_2
*I *2816:Q O *D sky130_fd_sc_hd__dlxtn_1
*CAP
1 *3344:A 8.20392e-05
2 *2816:Q 8.20392e-05
3 *3344:A *3351:A 0
4 *3344:A *1057:14 0
5 PWDATA[9] *3344:A 1.01912e-05
6 *3310:A *3344:A 7.80579e-05
*RES
1 *2816:Q *3344:A 29.5464 
*END

*D_NET *1046 0.00264003
*CONN
*I *3345:A I *D sky130_fd_sc_hd__buf_8
*I *2438:X O *D sky130_fd_sc_hd__and2_4
*CAP
1 *3345:A 0.000623093
2 *2438:X 0.000623093
3 PSEL2 *3345:A 0.0001406
4 *2437:B *3345:A 3.91289e-05
5 *2438:B *3345:A 1.69961e-05
6 *3178:A *3345:A 0.000180764
7 *3324:A *3345:A 0.00042994
8 *3328:A *3345:A 8.39e-05
9 *767:27 *3345:A 4.66203e-05
10 *970:12 *3345:A 2.26327e-05
11 *970:14 *3345:A 0.000173812
12 *970:16 *3345:A 0.000226021
13 *970:26 *3345:A 3.34295e-05
*RES
1 *2438:X *3345:A 39.7786 
*END

*D_NET *1047 0.0158234
*CONN
*I *3176:A I *D sky130_fd_sc_hd__buf_8
*I *2759:A2 I *D sky130_fd_sc_hd__a221o_1
*I *3346:A I *D sky130_fd_sc_hd__buf_2
*I *2702:A1 I *D sky130_fd_sc_hd__o32a_1
*I *2745:B1 I *D sky130_fd_sc_hd__o21a_1
*I *2722:B2 I *D sky130_fd_sc_hd__a2bb2o_1
*I *2734:B1 I *D sky130_fd_sc_hd__o21ai_1
*I *2704:A2_N I *D sky130_fd_sc_hd__o2bb2a_1
*I *2427:Y O *D sky130_fd_sc_hd__inv_8
*CAP
1 *3176:A 0
2 *2759:A2 0.000625421
3 *3346:A 0
4 *2702:A1 0.000296637
5 *2745:B1 8.3156e-05
6 *2722:B2 0
7 *2734:B1 0.000386058
8 *2704:A2_N 3.92213e-05
9 *2427:Y 0
10 *1047:123 0.00119609
11 *1047:111 0.00152685
12 *1047:82 0.0016477
13 *1047:29 0.000401034
14 *1047:27 0.000266735
15 *1047:8 0.000421214
16 *1047:4 0.000608272
17 *1047:82 *1048:35 0.000485893
18 *2380:A *1047:82 0.000321802
19 *2659:A1 *2759:A2 7.90375e-06
20 *2668:C *1047:111 0.000120661
21 *2675:A *1047:82 6.09899e-05
22 *2694:C *2702:A1 1.08192e-05
23 *2702:A2 *2702:A1 5.52302e-05
24 *2703:B1 *2702:A1 0.000233131
25 *2704:A1_N *1047:8 1.87955e-05
26 *2704:A1_N *1047:27 2.05938e-05
27 *2704:B2 *2704:A2_N 5.52302e-05
28 *2705:A2 *1047:27 4.18895e-05
29 *2709:A1 *1047:111 0
30 *2709:A2 *1047:111 4.60232e-06
31 *2710:B2 *1047:123 5.55895e-05
32 *2710:C1 *1047:111 0.00040381
33 *2711:A1 *1047:111 0
34 *2711:A1 *1047:123 0
35 *2711:S *1047:111 0
36 *2711:S *1047:123 9.25014e-06
37 *2716:B *1047:111 0.00010326
38 *2718:A1 *1047:111 0
39 *2719:A0 *1047:111 0
40 *2719:A0 *1047:123 0.000104663
41 *2722:A1_N *1047:27 9.60939e-05
42 *2722:A2_N *2734:B1 8.27532e-05
43 *2722:A2_N *1047:27 9.90431e-05
44 *2722:A2_N *1047:29 5.33005e-05
45 *2723:A2 *2702:A1 5.01117e-05
46 *2723:A2 *1047:111 0.0001574
47 *2734:A2 *2734:B1 0.000179745
48 *2736:C1 *2734:B1 5.52238e-05
49 *2738:C *1047:27 4.53834e-05
50 *2740:A1 *2734:B1 2.89114e-05
51 *2740:A2 *2745:B1 2.89114e-05
52 *2740:A3 *2734:B1 5.66657e-05
53 *2740:B1 *2734:B1 1.08359e-05
54 *2744:B *2734:B1 0.0001399
55 *2744:B *1047:27 4.08637e-05
56 *2744:B *1047:29 4.08637e-05
57 *2745:A1 *1047:8 2.8266e-06
58 *2745:A1 *1047:27 3.45116e-05
59 *2746:A1_N *2734:B1 5.52302e-05
60 *2746:B2 *2734:B1 1.02504e-05
61 *2751:B2 *2759:A2 0.000125724
62 *2759:A1 *2759:A2 2.46133e-05
63 *2759:A1 *1047:123 6.60826e-05
64 *2759:B1 *2759:A2 0.000139907
65 *2759:B2 *2759:A2 0.000772526
66 *2759:B2 *1047:123 6.53035e-05
67 *2760:B2 *2759:A2 7.30018e-05
68 *2788:D *1047:111 0.000314689
69 *2789:D *1047:111 0.000153387
70 *2789:RESET_B *1047:111 0
71 *2790:CLK *1047:82 7.94787e-05
72 *2790:RESET_B *1047:82 0.000137983
73 *3233:A *2702:A1 5.33005e-05
74 *3238:A *1047:111 0.000267377
75 *3254:A *2759:A2 0.000351029
76 *3254:A *1047:123 0.000111872
77 *3267:A *2759:A2 4.18895e-05
78 *3267:A *1047:123 0.000132872
79 *3278:A *1047:123 2.09897e-05
80 *3358:A *1047:8 0
81 *3365:A *2734:B1 9.09605e-05
82 *501:17 *1047:8 0
83 *676:10 *2702:A1 5.90443e-06
84 *676:16 *2702:A1 9.11365e-06
85 *679:16 *1047:82 5.52302e-05
86 *716:10 *2734:B1 0.000146474
87 *730:6 *1047:27 0.00022459
88 *730:25 *2745:B1 0.000126439
89 *739:44 *2759:A2 1.31516e-05
90 *787:34 *1047:111 1.01075e-05
91 *787:38 *1047:111 6.36324e-05
92 *868:20 *2702:A1 5.65001e-05
93 *868:20 *1047:111 0.000121222
94 *882:8 *1047:111 9.90367e-05
95 *883:32 *1047:8 0
96 *891:23 *1047:8 0
97 *891:32 *2745:B1 6.8646e-06
98 *891:32 *1047:8 0
99 *891:72 *2702:A1 0.000147995
100 *950:80 *2702:A1 0.000168781
101 *968:40 *2734:B1 0.000315876
102 *979:10 *1047:111 0.000168067
103 *981:35 *1047:27 1.54142e-05
104 *996:16 *1047:82 1.57523e-05
105 *1018:12 *2745:B1 0.000148903
*RES
1 *2427:Y *1047:4 9.3 
2 *1047:4 *1047:8 8.26786 
3 *1047:8 *2704:A2_N 14.3357 
4 *1047:8 *1047:27 9.39286 
5 *1047:27 *1047:29 0.535714 
6 *1047:29 *2734:B1 28.2286 
7 *1047:29 *2722:B2 9.3 
8 *1047:27 *2745:B1 20.7821 
9 *1047:4 *1047:82 14.9107 
10 *1047:82 *2702:A1 21.4964 
11 *1047:82 *1047:111 35.2679 
12 *1047:111 *1047:123 20.8571 
13 *1047:123 *3346:A 9.3 
14 *1047:123 *2759:A2 33.3179 
15 *1047:111 *3176:A 9.3 
*END

*D_NET *1048 0.00493794
*CONN
*I *2675:B I *D sky130_fd_sc_hd__nand2_2
*I *2700:A2_N I *D sky130_fd_sc_hd__o2bb2a_4
*I *3363:A I *D sky130_fd_sc_hd__clkbuf_2
*I *2702:A3 I *D sky130_fd_sc_hd__o32a_1
*I *2664:X O *D sky130_fd_sc_hd__and4bb_1
*CAP
1 *2675:B 2.26907e-05
2 *2700:A2_N 8.08124e-05
3 *3363:A 9.41276e-05
4 *2702:A3 6.22668e-05
5 *2664:X 0.000200622
6 *1048:35 0.000590595
7 *1048:31 0.000751068
8 *1048:10 0.000575611
9 *2380:A *3363:A 3.67142e-05
10 *2380:A *1048:35 1.39841e-05
11 *2449:B *1048:10 7.55804e-05
12 *2664:D *1048:10 8.6229e-06
13 *2680:A *1048:10 0.00012345
14 *2680:A *1048:31 0.000410034
15 *2689:C1 *1048:31 0.000148196
16 *2694:A *1048:10 8.15111e-05
17 *2695:A *1048:10 5.52302e-05
18 *2702:B1 *1048:31 1.76352e-05
19 *2702:B2 *2702:A3 6.05161e-06
20 *3103:A *1048:10 5.33005e-05
21 *3183:A *1048:31 0.000222666
22 *3233:A *2702:A3 1.21258e-05
23 *501:17 *2700:A2_N 0
24 *679:16 *1048:35 5.52302e-05
25 *701:12 *2675:B 4.49293e-05
26 *701:12 *1048:31 7.6644e-05
27 *868:20 *1048:31 0.000163916
28 *868:39 *1048:10 2.05487e-05
29 *891:23 *2700:A2_N 4.48206e-05
30 *891:72 *1048:31 1.08359e-05
31 *956:12 *2675:B 2.84494e-05
32 *956:12 *1048:31 5.41797e-06
33 *956:26 *1048:10 6.13753e-05
34 *956:26 *1048:31 0.00016446
35 *960:8 *1048:10 7.83659e-05
36 *982:75 *2700:A2_N 1.76039e-05
37 *1012:12 *1048:31 3.65544e-05
38 *1047:82 *1048:35 0.000485893
*RES
1 *2664:X *1048:10 19.0143 
2 *1048:10 *2702:A3 14.7643 
3 *1048:10 *1048:31 18.4107 
4 *1048:31 *1048:35 10.375 
5 *1048:35 *3363:A 10.675 
6 *1048:35 *2700:A2_N 19.9429 
7 *1048:31 *2675:B 14.5321 
*END

*D_NET *1049 0.000541412
*CONN
*I *2645:A1 I *D sky130_fd_sc_hd__mux2_1
*I *3303:X O *D sky130_fd_sc_hd__clkbuf_1
*CAP
1 *2645:A1 0.000254772
2 *3303:X 0.000254772
3 *2645:A0 *2645:A1 0
4 *3024:GATE_N *2645:A1 0
5 *790:8 *2645:A1 3.18676e-05
6 *877:18 *2645:A1 0
*RES
1 *3303:X *2645:A1 31.6 
*END

*D_NET *1050 0.00873989
*CONN
*I *2672:B I *D sky130_fd_sc_hd__nand2_1
*I *2448:B I *D sky130_fd_sc_hd__or2_1
*I *3348:A I *D sky130_fd_sc_hd__buf_2
*I *3097:A I *D sky130_fd_sc_hd__clkbuf_1
*I *2824:D I *D sky130_fd_sc_hd__dlxtn_1
*I *2447:X O *D sky130_fd_sc_hd__and3b_1
*CAP
1 *2672:B 9.95049e-05
2 *2448:B 5.68984e-05
3 *3348:A 0.000389436
4 *3097:A 4.31276e-05
5 *2824:D 0.000226997
6 *2447:X 0.000467559
7 *1050:37 0.000899645
8 *1050:31 0.000868335
9 *1050:25 0.000568458
10 *1050:10 0.000819154
11 *3348:A *3349:A 0.000139913
12 bresp *3348:A 5.71472e-05
13 bvalid *3348:A 0.000273269
14 rdata[13] *3348:A 0.00010477
15 rdata[5] *3348:A 0.000139913
16 *2388:A *1050:10 1.92905e-05
17 *2439:B *1050:10 3.56976e-05
18 *2439:B *1050:25 4.75252e-05
19 *2445:B *2448:B 5.49489e-05
20 *2671:A1 *1050:31 0
21 *2672:A *1050:25 3.34295e-05
22 *2673:A *2672:B 0
23 *2673:B *2672:B 0
24 *2673:B *1050:31 2.59355e-05
25 *2679:B *1050:31 0
26 *2691:A *2824:D 0
27 *2691:B *1050:25 0.000128154
28 *2695:D_N *1050:31 3.69047e-06
29 *2750:A *1050:37 0.00021985
30 *2754:A *1050:37 3.84385e-05
31 *2754:B *1050:37 7.6021e-05
32 *2757:B2 *2448:B 5.33005e-05
33 *2757:B2 *1050:37 0.000103267
34 *2823:GATE_N *2672:B 1.39726e-05
35 *2824:GATE_N *1050:25 6.65398e-05
36 *3090:CLK *1050:37 0.000565302
37 *3090:RESET_B *3097:A 9.71197e-05
38 *3178:A *1050:10 0.000305291
39 *3180:A *1050:31 5.48488e-05
40 *478:23 *2824:D 1.40415e-05
41 *478:36 *2824:D 1.72798e-05
42 *505:38 *2448:B 2.04825e-05
43 *505:38 *1050:31 8.61727e-05
44 *505:38 *1050:37 0.000141019
45 *672:43 *1050:31 0
46 *672:43 *1050:37 0
47 *677:6 *2672:B 4.72917e-05
48 *677:6 *1050:31 2.59355e-05
49 *738:12 *1050:10 0.000158055
50 *739:10 *1050:37 0.000111478
51 *772:56 *1050:37 0.000148189
52 *795:26 *3348:A 0.000136758
53 *882:19 *3348:A 0.000160421
54 *882:19 *1050:37 9.86413e-05
55 *882:25 *1050:37 1.4867e-05
56 *885:26 *1050:10 3.68995e-05
57 *887:22 *1050:10 8.81471e-06
58 *891:110 *1050:37 0
59 *968:14 *3348:A 0.000191362
60 *982:27 *1050:10 5.01448e-05
61 *982:27 *1050:25 8.54471e-05
62 *982:27 *1050:31 8.98447e-05
*RES
1 *2447:X *1050:10 21.4964 
2 *1050:10 *2824:D 16.7107 
3 *1050:10 *1050:25 8.26786 
4 *1050:25 *1050:31 10.6875 
5 *1050:31 *1050:37 15.2054 
6 *1050:37 *3097:A 14.7464 
7 *1050:37 *3348:A 24.9786 
8 *1050:31 *2448:B 15.1482 
9 *1050:25 *2672:B 11.0857 
*END

*D_NET *1051 0.00170055
*CONN
*I *3349:A I *D sky130_fd_sc_hd__buf_2
*I *3097:X O *D sky130_fd_sc_hd__clkbuf_1
*CAP
1 *3349:A 0.000443898
2 *3097:X 0.000443898
3 *3349:A *1056:26 0.000135138
4 arready *3349:A 1.02969e-05
5 *3090:RESET_B *3349:A 0.000273449
6 *3267:A *3349:A 0.000114039
7 *3348:A *3349:A 0.000139913
8 *968:14 *3349:A 0.000139913
*RES
1 *3097:X *3349:A 35.9214 
*END

*D_NET *1052 0.00229371
*CONN
*I *3350:A I *D sky130_fd_sc_hd__buf_2
*I *2791:Q O *D sky130_fd_sc_hd__dlxtn_1
*CAP
1 *3350:A 0.000446271
2 *2791:Q 0.000446271
3 *3350:A *3351:A 1.19309e-05
4 *3350:A *1057:14 9.90367e-05
5 PWDATA[2] *3350:A 0.000349222
6 rdata[0] *3350:A 0.000481575
7 rdata[10] *3350:A 2.86349e-05
8 rdata[14] *3350:A 0.000129487
9 *2809:D *3350:A 6.86693e-05
10 *3310:A *3350:A 8.91742e-05
11 *3331:A *3350:A 1.17968e-05
12 *3337:A *3350:A 0.000127446
13 *813:26 *3350:A 4.19624e-06
14 *1041:10 *3350:A 0
*RES
1 *2791:Q *3350:A 40.0107 
*END

*D_NET *1053 0.000855708
*CONN
*I *3351:A I *D sky130_fd_sc_hd__buf_2
*I *2801:Q O *D sky130_fd_sc_hd__dlxtn_1
*CAP
1 *3351:A 0.000278055
2 *2801:Q 0.000278055
3 *3351:A *1057:14 0.000287667
4 *3310:A *3351:A 0
5 *3331:A *3351:A 0
6 *3344:A *3351:A 0
7 *3350:A *3351:A 1.19309e-05
*RES
1 *2801:Q *3351:A 34.4036 
*END

*D_NET *1054 0.00318334
*CONN
*I *3352:A I *D sky130_fd_sc_hd__buf_2
*I *2802:Q O *D sky130_fd_sc_hd__dlxtn_1
*CAP
1 *3352:A 0
2 *2802:Q 0.000605861
3 *1054:28 0.000605861
4 PWDATA[0] *1054:28 0.00053027
5 PWDATA[5] *1054:28 0.000121573
6 rdata[10] *1054:28 0.000305889
7 *2461:A *1054:28 6.09773e-05
8 *2638:A *1054:28 5.52238e-05
9 *2638:B *1054:28 0.000168217
10 *2799:GATE_N *1054:28 2.59355e-05
11 *2802:D *1054:28 1.5424e-05
12 *2807:GATE_N *1054:28 0.000284529
13 *77:20 *1054:28 0.00033825
14 *791:14 *1054:28 6.53244e-05
*RES
1 *2802:Q *1054:28 43.1929 
2 *1054:28 *3352:A 9.3 
*END

*D_NET *1055 0.00820841
*CONN
*I *3353:A I *D sky130_fd_sc_hd__buf_2
*I *2803:Q O *D sky130_fd_sc_hd__dlxtn_1
*CAP
1 *3353:A 0.00212325
2 *2803:Q 0.000795744
3 *1055:16 0.00291899
4 *2452:A1 *1055:16 0.00010096
5 *2643:A0 *3353:A 0.000315158
6 *2643:S *1055:16 0
7 *2650:A0 *1055:16 0
8 *2652:S *1055:16 0
9 *2830:D *1055:16 0
10 *3247:A *3353:A 7.03393e-05
11 *3249:A *1055:16 2.26973e-05
12 *3253:A *3353:A 2.89114e-05
13 *3264:A *3353:A 2.89114e-05
14 *3281:A *1055:16 1.31235e-05
15 *3282:A *3353:A 7.77751e-05
16 *3283:A *3353:A 2.89114e-05
17 *3287:A *3353:A 5.52302e-05
18 *3290:A *3353:A 5.52302e-05
19 *3291:A *3353:A 2.89114e-05
20 *3295:A *3353:A 2.89114e-05
21 *3303:A *3353:A 0.000142856
22 *391:12 *1055:16 9.90367e-05
23 *521:12 *1055:16 0
24 *790:8 *3353:A 0.000943534
25 *878:16 *1055:16 0
26 *881:79 *1055:16 0.000329935
27 *884:34 *1055:16 0
*RES
1 *2803:Q *1055:16 31.8536 
2 *1055:16 *3353:A 41.6214 
*END

*D_NET *1056 0.0084306
*CONN
*I *3354:A I *D sky130_fd_sc_hd__buf_2
*I *2804:Q O *D sky130_fd_sc_hd__dlxtn_1
*CAP
1 *3354:A 0
2 *2804:Q 0.00406787
3 *1056:26 0.00406787
4 *2748:A_N *1056:26 5.7836e-06
5 *3278:A *1056:26 0.000142269
6 *3349:A *1056:26 0.000135138
7 *795:26 *1056:26 0
8 *968:14 *1056:26 1.16624e-05
*RES
1 *2804:Q *1056:26 40.8327 
2 *1056:26 *3354:A 9.3 
*END

*D_NET *1057 0.00359107
*CONN
*I *3355:A I *D sky130_fd_sc_hd__buf_2
*I *2805:Q O *D sky130_fd_sc_hd__dlxtn_1
*CAP
1 *3355:A 0
2 *2805:Q 0.00119078
3 *1057:14 0.00119078
4 PWDATA[10] *1057:14 0
5 PWDATA[12] *1057:14 0
6 PWDATA[9] *1057:14 0
7 rdata[14] *1057:14 8.1579e-05
8 *2816:D *1057:14 6.74911e-05
9 *2822:D *1057:14 8.15843e-05
10 *3275:A *1057:14 0
11 *3301:A *1057:14 0
12 *3310:A *1057:14 0
13 *3330:A *1057:14 0
14 *3332:A *1057:14 0
15 *3335:A *1057:14 0
16 *3342:A *1057:14 0
17 *3344:A *1057:14 0
18 *3350:A *1057:14 9.90367e-05
19 *3351:A *1057:14 0.000287667
20 *842:18 *1057:14 0.000129868
21 *842:20 *1057:14 2.41224e-05
22 *842:22 *1057:14 0.000138418
23 *842:24 *1057:14 0.000144417
24 *842:26 *1057:14 0.000141591
25 *842:32 *1057:14 1.37292e-05
26 *1041:10 *1057:14 0
*RES
1 *2805:Q *1057:14 45.2286 
2 *1057:14 *3355:A 9.3 
*END

*D_NET *1058 0.000896788
*CONN
*I *3356:A I *D sky130_fd_sc_hd__buf_2
*I *2806:Q O *D sky130_fd_sc_hd__dlxtn_1
*CAP
1 *3356:A 0.000376969
2 *2806:Q 0.000376969
3 *3309:A *3356:A 0
4 *3316:A *3356:A 0
5 *880:23 *3356:A 0.00014285
6 *884:16 *3356:A 0
*RES
1 *2806:Q *3356:A 33.3321 
*END

*D_NET *1059 0.0138594
*CONN
*I *3357:A I *D sky130_fd_sc_hd__buf_2
*I *2792:Q O *D sky130_fd_sc_hd__dlxtn_1
*CAP
1 *3357:A 0.00529809
2 *2792:Q 0.00529809
3 rdata[1] *3357:A 5.92267e-05
4 *2464:A2 *3357:A 2.11419e-05
5 *2625:B2 *3357:A 0.0028195
6 *437:26 *3357:A 1.20192e-05
7 *821:22 *3357:A 0.000101825
8 *830:31 *3357:A 1.01912e-05
9 *844:20 *3357:A 0.000239333
*RES
1 *2792:Q *3357:A 49.196 
*END
