*SPEF "ieee 1481-1999"
*DESIGN "bridge"
*DATE "10:07:24 Thursday May 07, 2026"
*VENDOR "The OpenROAD Project"
*PROGRAM "OpenROAD"
*VERSION "edf00dff99f6c40d67a30c0e22a8191c5d2ed9d6"
*DESIGN_FLOW "NAME_SCOPE LOCAL" "PIN_CAP NONE"
*DIVIDER /
*DELIMITER :
*BUS_DELIMITER []
*T_UNIT 1 NS
*C_UNIT 1 PF
*R_UNIT 1 OHM
*L_UNIT 1 HENRY

*NAME_MAP
*1 PADDR[0]
*2 PADDR[1]
*3 PADDR[2]
*4 PENABLE
*5 PRDATA[0]
*6 PRDATA[10]
*7 PRDATA[11]
*8 PRDATA[12]
*9 PRDATA[13]
*10 PRDATA[14]
*11 PRDATA[15]
*12 PRDATA[1]
*13 PRDATA[2]
*14 PRDATA[3]
*15 PRDATA[4]
*16 PRDATA[5]
*17 PRDATA[6]
*18 PRDATA[7]
*19 PRDATA[8]
*20 PRDATA[9]
*21 PREADY
*22 net57
*23 net58
*24 net59
*25 net60
*26 net61
*27 net71
*28 net72
*29 net73
*30 net74
*31 net75
*32 net76
*33 net62
*34 net63
*35 net64
*36 net65
*37 net66
*38 net67
*39 net68
*40 net69
*41 net70
*42 PWRITE
*45 araddr[0]
*46 araddr[1]
*47 araddr[2]
*48 araddr[3]
*49 araddr[4]
*50 arburst[0]
*51 arburst[1]
*52 arlen[0]
*53 arlen[1]
*54 arlen[2]
*55 arlen[3]
*56 arready
*57 arvalid
*58 awaddr[0]
*59 awaddr[1]
*60 awaddr[2]
*61 awaddr[3]
*62 awaddr[4]
*63 awburst[0]
*64 awburst[1]
*65 awlen[0]
*66 awlen[1]
*67 awlen[2]
*68 awlen[3]
*69 awready
*70 awvalid
*71 bready
*72 bresp
*73 bvalid
*74 clk
*75 net77
*76 net87
*77 net88
*78 net89
*79 net90
*80 net91
*81 net92
*82 net78
*83 net79
*84 net80
*85 net81
*86 net82
*87 net83
*88 net84
*89 net85
*90 net86
*91 res_n
*92 rlast
*93 rready
*94 rresp
*95 rvalid
*96 wdata[0]
*97 wdata[10]
*98 wdata[11]
*99 wdata[12]
*100 wdata[13]
*101 wdata[14]
*102 wdata[15]
*103 wdata[1]
*104 wdata[2]
*105 wdata[3]
*106 wdata[4]
*107 wdata[5]
*108 wdata[6]
*109 wdata[7]
*110 wdata[8]
*111 wdata[9]
*112 wlast
*113 wready
*114 wvalid
*115 DADDR\[0\]
*116 DADDR\[1\]
*117 DADDR\[2\]
*118 DWREQ
*119 _000_
*120 _001_
*121 _002_
*122 _003_
*123 _004_
*124 _005_
*125 _006_
*126 _007_
*127 _008_
*128 _009_
*129 _010_
*130 _011_
*131 _012_
*132 _013_
*133 _014_
*134 _015_
*135 _016_
*136 _017_
*137 _018_
*138 _019_
*139 _020_
*140 _021_
*141 _022_
*142 _023_
*143 _024_
*144 _025_
*145 _026_
*146 _027_
*147 _028_
*148 _029_
*149 _030_
*150 _031_
*151 _032_
*152 _033_
*153 _034_
*154 _035_
*155 _036_
*156 _037_
*157 _038_
*158 _039_
*159 _040_
*160 _041_
*161 _042_
*162 _043_
*163 _044_
*164 _045_
*165 _046_
*166 _047_
*167 _048_
*168 _049_
*169 _050_
*170 _051_
*171 _052_
*172 _053_
*173 _054_
*174 _055_
*175 _056_
*176 _057_
*177 _058_
*178 _059_
*179 _060_
*180 _061_
*181 _062_
*182 _063_
*183 _064_
*184 _065_
*185 _066_
*186 _067_
*187 _068_
*188 _069_
*189 _070_
*190 _071_
*191 _072_
*192 _073_
*193 _074_
*194 _075_
*195 _076_
*196 _077_
*197 _078_
*198 _079_
*199 _080_
*200 _081_
*201 _082_
*202 _083_
*203 _084_
*204 _085_
*205 _086_
*206 _087_
*207 _088_
*208 _089_
*209 _090_
*210 _091_
*211 _092_
*212 _093_
*213 _094_
*214 _095_
*215 _096_
*216 _097_
*217 _098_
*218 _099_
*219 _100_
*220 _101_
*221 _102_
*222 _103_
*223 _104_
*224 _105_
*225 _106_
*226 _107_
*227 _108_
*228 _109_
*229 _110_
*230 _111_
*231 _112_
*232 _113_
*233 _114_
*234 _115_
*235 _116_
*236 _117_
*237 _118_
*238 _119_
*239 _120_
*240 _121_
*241 _122_
*242 _123_
*243 _124_
*244 _125_
*245 araddr_pipe\[0\]
*246 araddr_pipe\[1\]
*247 araddr_pipe\[2\]
*248 arburst_pipe\[0\]
*249 arburst_pipe\[1\]
*250 arlen_pipe\[0\]
*251 arlen_pipe\[1\]
*252 arlen_pipe\[2\]
*253 arlen_pipe\[3\]
*254 arvalid_pipe
*255 awaddr_pipe\[0\]
*256 awaddr_pipe\[1\]
*257 awaddr_pipe\[2\]
*258 awburst_pipe\[0\]
*259 awburst_pipe\[1\]
*260 awlen_pipe\[0\]
*261 awlen_pipe\[1\]
*262 awlen_pipe\[2\]
*263 awlen_pipe\[3\]
*264 awvalid_pipe
*265 burst\[0\]
*266 burst\[1\]
*267 clknet_0_clk
*268 clknet_2_0__leaf_clk
*269 clknet_2_1__leaf_clk
*270 clknet_2_2__leaf_clk
*271 clknet_2_3__leaf_clk
*272 current_state\[0\]
*273 current_state\[1\]
*274 current_state\[2\]
*275 current_state\[3\]
*276 last
*277 lenM\[0\]
*278 lenM\[1\]
*279 lenM\[2\]
*280 lenM\[3\]
*281 lenS\[0\]
*282 lenS\[1\]
*283 lenS\[2\]
*284 lenS\[3\]
*285 net1
*286 net10
*287 net11
*288 net12
*289 net13
*290 net14
*291 net15
*292 net16
*293 net17
*294 net18
*295 net19
*296 net2
*297 net20
*298 net21
*299 net22
*300 net23
*301 net24
*302 net25
*303 net26
*304 net27
*305 net28
*306 net29
*307 net3
*308 net30
*309 net31
*310 net32
*311 net33
*312 net34
*313 net35
*314 net36
*315 net37
*316 net38
*317 net39
*318 net4
*319 net40
*320 net41
*321 net42
*322 net43
*323 net44
*324 net45
*325 net46
*326 net47
*327 net48
*328 net49
*329 net5
*330 net50
*331 net51
*332 net52
*333 net53
*334 net54
*335 net55
*336 net56
*337 net6
*338 net7
*339 net8
*340 net9
*341 net93
*342 net94
*343 net95
*344 net96
*345 net97
*346 net98
*347 wvalid_pipe
*348 FILLER_0_104
*349 FILLER_0_113
*350 FILLER_0_121
*351 FILLER_0_125
*352 FILLER_0_132
*353 FILLER_0_141
*354 FILLER_0_15
*355 FILLER_0_153
*356 FILLER_0_165
*357 FILLER_0_27
*358 FILLER_0_29
*359 FILLER_0_3
*360 FILLER_0_34
*361 FILLER_0_46
*362 FILLER_0_57
*363 FILLER_0_62
*364 FILLER_0_70
*365 FILLER_0_76
*366 FILLER_0_85
*367 FILLER_0_91
*368 FILLER_0_98
*369 FILLER_10_109
*370 FILLER_10_113
*371 FILLER_10_118
*372 FILLER_10_12
*373 FILLER_10_144
*374 FILLER_10_150
*375 FILLER_10_157
*376 FILLER_10_169
*377 FILLER_10_17
*378 FILLER_10_25
*379 FILLER_10_29
*380 FILLER_10_6
*381 FILLER_10_72
*382 FILLER_10_78
*383 FILLER_10_85
*384 FILLER_10_97
*385 FILLER_11_106
*386 FILLER_11_116
*387 FILLER_11_128
*388 FILLER_11_134
*389 FILLER_11_162
*390 FILLER_11_169
*391 FILLER_11_173
*392 FILLER_11_23
*393 FILLER_11_35
*394 FILLER_11_51
*395 FILLER_11_55
*396 FILLER_11_57
*397 FILLER_11_62
*398 FILLER_11_70
*399 FILLER_11_85
*400 FILLER_12_112
*401 FILLER_12_133
*402 FILLER_12_14
*403 FILLER_12_161
*404 FILLER_12_168
*405 FILLER_12_26
*406 FILLER_12_52
*407 FILLER_12_60
*408 FILLER_12_64
*409 FILLER_12_70
*410 FILLER_12_79
*411 FILLER_12_83
*412 FILLER_12_85
*413 FILLER_12_89
*414 FILLER_12_94
*415 FILLER_13_102
*416 FILLER_13_113
*417 FILLER_13_122
*418 FILLER_13_126
*419 FILLER_13_139
*420 FILLER_13_151
*421 FILLER_13_169
*422 FILLER_13_177
*423 FILLER_13_24
*424 FILLER_13_28
*425 FILLER_13_3
*426 FILLER_13_52
*427 FILLER_13_57
*428 FILLER_13_66
*429 FILLER_13_72
*430 FILLER_14_105
*431 FILLER_14_111
*432 FILLER_14_116
*433 FILLER_14_125
*434 FILLER_14_137
*435 FILLER_14_157
*436 FILLER_14_166
*437 FILLER_14_170
*438 FILLER_14_23
*439 FILLER_14_27
*440 FILLER_14_35
*441 FILLER_14_45
*442 FILLER_14_51
*443 FILLER_14_57
*444 FILLER_14_69
*445 FILLER_14_81
*446 FILLER_15_106
*447 FILLER_15_110
*448 FILLER_15_119
*449 FILLER_15_131
*450 FILLER_15_14
*451 FILLER_15_143
*452 FILLER_15_151
*453 FILLER_15_166
*454 FILLER_15_174
*455 FILLER_15_37
*456 FILLER_15_49
*457 FILLER_15_55
*458 FILLER_15_57
*459 FILLER_15_6
*460 FILLER_15_65
*461 FILLER_15_70
*462 FILLER_15_82
*463 FILLER_15_90
*464 FILLER_16_139
*465 FILLER_16_151
*466 FILLER_16_163
*467 FILLER_16_171
*468 FILLER_16_18
*469 FILLER_16_26
*470 FILLER_16_29
*471 FILLER_16_37
*472 FILLER_16_57
*473 FILLER_16_6
*474 FILLER_16_79
*475 FILLER_16_83
*476 FILLER_16_85
*477 FILLER_16_97
*478 FILLER_17_104
*479 FILLER_17_113
*480 FILLER_17_125
*481 FILLER_17_138
*482 FILLER_17_150
*483 FILLER_17_169
*484 FILLER_17_18
*485 FILLER_17_30
*486 FILLER_17_6
*487 FILLER_17_62
*488 FILLER_17_68
*489 FILLER_17_92
*490 FILLER_18_118
*491 FILLER_18_145
*492 FILLER_18_151
*493 FILLER_18_167
*494 FILLER_18_175
*495 FILLER_18_23
*496 FILLER_18_27
*497 FILLER_18_36
*498 FILLER_18_49
*499 FILLER_18_55
*500 FILLER_18_67
*501 FILLER_18_79
*502 FILLER_18_83
*503 FILLER_18_94
*504 FILLER_19_111
*505 FILLER_19_113
*506 FILLER_19_146
*507 FILLER_19_156
*508 FILLER_19_169
*509 FILLER_19_18
*510 FILLER_19_30
*511 FILLER_19_42
*512 FILLER_19_54
*513 FILLER_19_6
*514 FILLER_19_65
*515 FILLER_19_77
*516 FILLER_19_96
*517 FILLER_1_102
*518 FILLER_1_110
*519 FILLER_1_113
*520 FILLER_1_121
*521 FILLER_1_142
*522 FILLER_1_15
*523 FILLER_1_154
*524 FILLER_1_166
*525 FILLER_1_169
*526 FILLER_1_27
*527 FILLER_1_3
*528 FILLER_1_48
*529 FILLER_1_57
*530 FILLER_1_69
*531 FILLER_1_90
*532 FILLER_20_106
*533 FILLER_20_138
*534 FILLER_20_141
*535 FILLER_20_158
*536 FILLER_20_170
*537 FILLER_20_174
*538 FILLER_20_42
*539 FILLER_20_65
*540 FILLER_20_7
*541 FILLER_20_77
*542 FILLER_20_83
*543 FILLER_20_85
*544 FILLER_21_102
*545 FILLER_21_110
*546 FILLER_21_113
*547 FILLER_21_122
*548 FILLER_21_134
*549 FILLER_21_146
*550 FILLER_21_151
*551 FILLER_21_163
*552 FILLER_21_167
*553 FILLER_21_169
*554 FILLER_21_173
*555 FILLER_21_23
*556 FILLER_21_35
*557 FILLER_21_47
*558 FILLER_21_55
*559 FILLER_21_57
*560 FILLER_21_65
*561 FILLER_21_82
*562 FILLER_21_94
*563 FILLER_22_111
*564 FILLER_22_119
*565 FILLER_22_141
*566 FILLER_22_153
*567 FILLER_22_165
*568 FILLER_22_177
*569 FILLER_22_21
*570 FILLER_22_27
*571 FILLER_22_29
*572 FILLER_22_41
*573 FILLER_22_53
*574 FILLER_22_59
*575 FILLER_22_68
*576 FILLER_22_80
*577 FILLER_22_85
*578 FILLER_22_9
*579 FILLER_22_99
*580 FILLER_23_106
*581 FILLER_23_113
*582 FILLER_23_125
*583 FILLER_23_146
*584 FILLER_23_158
*585 FILLER_23_166
*586 FILLER_23_169
*587 FILLER_23_177
*588 FILLER_23_23
*589 FILLER_23_31
*590 FILLER_23_52
*591 FILLER_23_66
*592 FILLER_23_78
*593 FILLER_23_90
*594 FILLER_24_101
*595 FILLER_24_133
*596 FILLER_24_139
*597 FILLER_24_141
*598 FILLER_24_153
*599 FILLER_24_165
*600 FILLER_24_177
*601 FILLER_24_23
*602 FILLER_24_27
*603 FILLER_24_29
*604 FILLER_24_41
*605 FILLER_24_49
*606 FILLER_24_71
*607 FILLER_24_83
*608 FILLER_24_85
*609 FILLER_24_97
*610 FILLER_25_111
*611 FILLER_25_113
*612 FILLER_25_125
*613 FILLER_25_137
*614 FILLER_25_149
*615 FILLER_25_161
*616 FILLER_25_167
*617 FILLER_25_169
*618 FILLER_25_17
*619 FILLER_25_39
*620 FILLER_25_51
*621 FILLER_25_55
*622 FILLER_25_57
*623 FILLER_25_69
*624 FILLER_25_75
*625 FILLER_25_9
*626 FILLER_25_97
*627 FILLER_26_109
*628 FILLER_26_121
*629 FILLER_26_133
*630 FILLER_26_139
*631 FILLER_26_141
*632 FILLER_26_153
*633 FILLER_26_165
*634 FILLER_26_173
*635 FILLER_26_18
*636 FILLER_26_26
*637 FILLER_26_29
*638 FILLER_26_41
*639 FILLER_26_53
*640 FILLER_26_6
*641 FILLER_26_65
*642 FILLER_26_77
*643 FILLER_26_83
*644 FILLER_26_85
*645 FILLER_26_97
*646 FILLER_27_105
*647 FILLER_27_111
*648 FILLER_27_113
*649 FILLER_27_125
*650 FILLER_27_137
*651 FILLER_27_149
*652 FILLER_27_161
*653 FILLER_27_167
*654 FILLER_27_169
*655 FILLER_27_18
*656 FILLER_27_30
*657 FILLER_27_42
*658 FILLER_27_54
*659 FILLER_27_57
*660 FILLER_27_6
*661 FILLER_27_69
*662 FILLER_27_81
*663 FILLER_27_93
*664 FILLER_28_109
*665 FILLER_28_115
*666 FILLER_28_123
*667 FILLER_28_135
*668 FILLER_28_139
*669 FILLER_28_141
*670 FILLER_28_15
*671 FILLER_28_153
*672 FILLER_28_165
*673 FILLER_28_27
*674 FILLER_28_29
*675 FILLER_28_3
*676 FILLER_28_41
*677 FILLER_28_53
*678 FILLER_28_65
*679 FILLER_28_77
*680 FILLER_28_83
*681 FILLER_28_85
*682 FILLER_28_97
*683 FILLER_29_104
*684 FILLER_29_111
*685 FILLER_29_113
*686 FILLER_29_119
*687 FILLER_29_12
*688 FILLER_29_126
*689 FILLER_29_132
*690 FILLER_29_139
*691 FILLER_29_141
*692 FILLER_29_146
*693 FILLER_29_153
*694 FILLER_29_160
*695 FILLER_29_167
*696 FILLER_29_169
*697 FILLER_29_174
*698 FILLER_29_24
*699 FILLER_29_29
*700 FILLER_29_41
*701 FILLER_29_53
*702 FILLER_29_57
*703 FILLER_29_69
*704 FILLER_29_77
*705 FILLER_29_83
*706 FILLER_29_85
*707 FILLER_29_90
*708 FILLER_29_97
*709 FILLER_2_138
*710 FILLER_2_15
*711 FILLER_2_161
*712 FILLER_2_173
*713 FILLER_2_27
*714 FILLER_2_29
*715 FILLER_2_3
*716 FILLER_2_41
*717 FILLER_2_51
*718 FILLER_2_73
*719 FILLER_2_82
*720 FILLER_2_85
*721 FILLER_2_91
*722 FILLER_2_97
*723 FILLER_3_110
*724 FILLER_3_113
*725 FILLER_3_121
*726 FILLER_3_140
*727 FILLER_3_152
*728 FILLER_3_164
*729 FILLER_3_169
*730 FILLER_3_177
*731 FILLER_3_23
*732 FILLER_3_35
*733 FILLER_3_57
*734 FILLER_3_63
*735 FILLER_3_71
*736 FILLER_3_87
*737 FILLER_4_108
*738 FILLER_4_120
*739 FILLER_4_138
*740 FILLER_4_141
*741 FILLER_4_153
*742 FILLER_4_165
*743 FILLER_4_173
*744 FILLER_4_18
*745 FILLER_4_26
*746 FILLER_4_29
*747 FILLER_4_41
*748 FILLER_4_56
*749 FILLER_4_6
*750 FILLER_4_66
*751 FILLER_4_85
*752 FILLER_5_105
*753 FILLER_5_111
*754 FILLER_5_113
*755 FILLER_5_121
*756 FILLER_5_142
*757 FILLER_5_15
*758 FILLER_5_154
*759 FILLER_5_166
*760 FILLER_5_169
*761 FILLER_5_27
*762 FILLER_5_3
*763 FILLER_5_39
*764 FILLER_5_51
*765 FILLER_5_55
*766 FILLER_5_57
*767 FILLER_5_69
*768 FILLER_5_81
*769 FILLER_5_93
*770 FILLER_6_101
*771 FILLER_6_149
*772 FILLER_6_161
*773 FILLER_6_173
*774 FILLER_6_18
*775 FILLER_6_26
*776 FILLER_6_29
*777 FILLER_6_41
*778 FILLER_6_6
*779 FILLER_6_70
*780 FILLER_6_77
*781 FILLER_6_83
*782 FILLER_6_85
*783 FILLER_6_97
*784 FILLER_7_110
*785 FILLER_7_119
*786 FILLER_7_123
*787 FILLER_7_132
*788 FILLER_7_144
*789 FILLER_7_156
*790 FILLER_7_169
*791 FILLER_7_38
*792 FILLER_7_52
*793 FILLER_7_6
*794 FILLER_7_66
*795 FILLER_8_101
*796 FILLER_8_111
*797 FILLER_8_131
*798 FILLER_8_139
*799 FILLER_8_141
*800 FILLER_8_153
*801 FILLER_8_165
*802 FILLER_8_177
*803 FILLER_8_23
*804 FILLER_8_27
*805 FILLER_8_29
*806 FILLER_8_41
*807 FILLER_8_53
*808 FILLER_8_65
*809 FILLER_8_77
*810 FILLER_8_83
*811 FILLER_8_85
*812 FILLER_8_97
*813 FILLER_9_109
*814 FILLER_9_113
*815 FILLER_9_134
*816 FILLER_9_160
*817 FILLER_9_169
*818 FILLER_9_18
*819 FILLER_9_26
*820 FILLER_9_49
*821 FILLER_9_55
*822 FILLER_9_6
*823 FILLER_9_73
*824 FILLER_9_85
*825 FILLER_9_91
*826 PHY_EDGE_ROW_0_Left_30
*827 PHY_EDGE_ROW_0_Right_0
*828 PHY_EDGE_ROW_10_Left_40
*829 PHY_EDGE_ROW_10_Right_10
*830 PHY_EDGE_ROW_11_Left_41
*831 PHY_EDGE_ROW_11_Right_11
*832 PHY_EDGE_ROW_12_Left_42
*833 PHY_EDGE_ROW_12_Right_12
*834 PHY_EDGE_ROW_13_Left_43
*835 PHY_EDGE_ROW_13_Right_13
*836 PHY_EDGE_ROW_14_Left_44
*837 PHY_EDGE_ROW_14_Right_14
*838 PHY_EDGE_ROW_15_Left_45
*839 PHY_EDGE_ROW_15_Right_15
*840 PHY_EDGE_ROW_16_Left_46
*841 PHY_EDGE_ROW_16_Right_16
*842 PHY_EDGE_ROW_17_Left_47
*843 PHY_EDGE_ROW_17_Right_17
*844 PHY_EDGE_ROW_18_Left_48
*845 PHY_EDGE_ROW_18_Right_18
*846 PHY_EDGE_ROW_19_Left_49
*847 PHY_EDGE_ROW_19_Right_19
*848 PHY_EDGE_ROW_1_Left_31
*849 PHY_EDGE_ROW_1_Right_1
*850 PHY_EDGE_ROW_20_Left_50
*851 PHY_EDGE_ROW_20_Right_20
*852 PHY_EDGE_ROW_21_Left_51
*853 PHY_EDGE_ROW_21_Right_21
*854 PHY_EDGE_ROW_22_Left_52
*855 PHY_EDGE_ROW_22_Right_22
*856 PHY_EDGE_ROW_23_Left_53
*857 PHY_EDGE_ROW_23_Right_23
*858 PHY_EDGE_ROW_24_Left_54
*859 PHY_EDGE_ROW_24_Right_24
*860 PHY_EDGE_ROW_25_Left_55
*861 PHY_EDGE_ROW_25_Right_25
*862 PHY_EDGE_ROW_26_Left_56
*863 PHY_EDGE_ROW_26_Right_26
*864 PHY_EDGE_ROW_27_Left_57
*865 PHY_EDGE_ROW_27_Right_27
*866 PHY_EDGE_ROW_28_Left_58
*867 PHY_EDGE_ROW_28_Right_28
*868 PHY_EDGE_ROW_29_Left_59
*869 PHY_EDGE_ROW_29_Right_29
*870 PHY_EDGE_ROW_2_Left_32
*871 PHY_EDGE_ROW_2_Right_2
*872 PHY_EDGE_ROW_3_Left_33
*873 PHY_EDGE_ROW_3_Right_3
*874 PHY_EDGE_ROW_4_Left_34
*875 PHY_EDGE_ROW_4_Right_4
*876 PHY_EDGE_ROW_5_Left_35
*877 PHY_EDGE_ROW_5_Right_5
*878 PHY_EDGE_ROW_6_Left_36
*879 PHY_EDGE_ROW_6_Right_6
*880 PHY_EDGE_ROW_7_Left_37
*881 PHY_EDGE_ROW_7_Right_7
*882 PHY_EDGE_ROW_8_Left_38
*883 PHY_EDGE_ROW_8_Right_8
*884 PHY_EDGE_ROW_9_Left_39
*885 PHY_EDGE_ROW_9_Right_9
*886 TAP_TAPCELL_ROW_0_60
*887 TAP_TAPCELL_ROW_0_61
*888 TAP_TAPCELL_ROW_0_62
*889 TAP_TAPCELL_ROW_0_63
*890 TAP_TAPCELL_ROW_0_64
*891 TAP_TAPCELL_ROW_0_65
*892 TAP_TAPCELL_ROW_10_93
*893 TAP_TAPCELL_ROW_10_94
*894 TAP_TAPCELL_ROW_10_95
*895 TAP_TAPCELL_ROW_11_96
*896 TAP_TAPCELL_ROW_11_97
*897 TAP_TAPCELL_ROW_11_98
*898 TAP_TAPCELL_ROW_12_100
*899 TAP_TAPCELL_ROW_12_101
*900 TAP_TAPCELL_ROW_12_99
*901 TAP_TAPCELL_ROW_13_102
*902 TAP_TAPCELL_ROW_13_103
*903 TAP_TAPCELL_ROW_13_104
*904 TAP_TAPCELL_ROW_14_105
*905 TAP_TAPCELL_ROW_14_106
*906 TAP_TAPCELL_ROW_14_107
*907 TAP_TAPCELL_ROW_15_108
*908 TAP_TAPCELL_ROW_15_109
*909 TAP_TAPCELL_ROW_15_110
*910 TAP_TAPCELL_ROW_16_111
*911 TAP_TAPCELL_ROW_16_112
*912 TAP_TAPCELL_ROW_16_113
*913 TAP_TAPCELL_ROW_17_114
*914 TAP_TAPCELL_ROW_17_115
*915 TAP_TAPCELL_ROW_17_116
*916 TAP_TAPCELL_ROW_18_117
*917 TAP_TAPCELL_ROW_18_118
*918 TAP_TAPCELL_ROW_18_119
*919 TAP_TAPCELL_ROW_19_120
*920 TAP_TAPCELL_ROW_19_121
*921 TAP_TAPCELL_ROW_19_122
*922 TAP_TAPCELL_ROW_1_66
*923 TAP_TAPCELL_ROW_1_67
*924 TAP_TAPCELL_ROW_1_68
*925 TAP_TAPCELL_ROW_20_123
*926 TAP_TAPCELL_ROW_20_124
*927 TAP_TAPCELL_ROW_20_125
*928 TAP_TAPCELL_ROW_21_126
*929 TAP_TAPCELL_ROW_21_127
*930 TAP_TAPCELL_ROW_21_128
*931 TAP_TAPCELL_ROW_22_129
*932 TAP_TAPCELL_ROW_22_130
*933 TAP_TAPCELL_ROW_22_131
*934 TAP_TAPCELL_ROW_23_132
*935 TAP_TAPCELL_ROW_23_133
*936 TAP_TAPCELL_ROW_23_134
*937 TAP_TAPCELL_ROW_24_135
*938 TAP_TAPCELL_ROW_24_136
*939 TAP_TAPCELL_ROW_24_137
*940 TAP_TAPCELL_ROW_25_138
*941 TAP_TAPCELL_ROW_25_139
*942 TAP_TAPCELL_ROW_25_140
*943 TAP_TAPCELL_ROW_26_141
*944 TAP_TAPCELL_ROW_26_142
*945 TAP_TAPCELL_ROW_26_143
*946 TAP_TAPCELL_ROW_27_144
*947 TAP_TAPCELL_ROW_27_145
*948 TAP_TAPCELL_ROW_27_146
*949 TAP_TAPCELL_ROW_28_147
*950 TAP_TAPCELL_ROW_28_148
*951 TAP_TAPCELL_ROW_28_149
*952 TAP_TAPCELL_ROW_29_150
*953 TAP_TAPCELL_ROW_29_151
*954 TAP_TAPCELL_ROW_29_152
*955 TAP_TAPCELL_ROW_29_153
*956 TAP_TAPCELL_ROW_29_154
*957 TAP_TAPCELL_ROW_29_155
*958 TAP_TAPCELL_ROW_2_69
*959 TAP_TAPCELL_ROW_2_70
*960 TAP_TAPCELL_ROW_2_71
*961 TAP_TAPCELL_ROW_3_72
*962 TAP_TAPCELL_ROW_3_73
*963 TAP_TAPCELL_ROW_3_74
*964 TAP_TAPCELL_ROW_4_75
*965 TAP_TAPCELL_ROW_4_76
*966 TAP_TAPCELL_ROW_4_77
*967 TAP_TAPCELL_ROW_5_78
*968 TAP_TAPCELL_ROW_5_79
*969 TAP_TAPCELL_ROW_5_80
*970 TAP_TAPCELL_ROW_6_81
*971 TAP_TAPCELL_ROW_6_82
*972 TAP_TAPCELL_ROW_6_83
*973 TAP_TAPCELL_ROW_7_84
*974 TAP_TAPCELL_ROW_7_85
*975 TAP_TAPCELL_ROW_7_86
*976 TAP_TAPCELL_ROW_8_87
*977 TAP_TAPCELL_ROW_8_88
*978 TAP_TAPCELL_ROW_8_89
*979 TAP_TAPCELL_ROW_9_90
*980 TAP_TAPCELL_ROW_9_91
*981 TAP_TAPCELL_ROW_9_92
*982 _126_
*983 _127_
*984 _128_
*985 _129_
*986 _130_
*987 _131_
*988 _132_
*989 _133_
*990 _134_
*991 _135_
*992 _136_
*993 _137_
*994 _138_
*995 _139_
*996 _140_
*997 _141_
*998 _142_
*999 _143_
*1000 _144_
*1001 _145_
*1002 _146_
*1003 _147_
*1004 _148_
*1005 _149_
*1006 _150_
*1007 _151_
*1008 _152_
*1009 _153_
*1010 _154_
*1011 _155_
*1012 _156_
*1013 _157_
*1014 _158_
*1015 _159_
*1016 _160_
*1017 _161_
*1018 _162_
*1019 _163_
*1020 _164_
*1021 _165_
*1022 _166_
*1023 _167_
*1024 _168_
*1025 _169_
*1026 _170_
*1027 _171_
*1028 _172_
*1029 _173_
*1030 _174_
*1031 _175_
*1032 _176_
*1033 _177_
*1034 _178_
*1035 _179_
*1036 _180_
*1037 _181_
*1038 _182_
*1039 _183_
*1040 _184_
*1041 _185_
*1042 _186_
*1043 _187_
*1044 _188_
*1045 _189_
*1046 _190_
*1047 _191_
*1048 _192_
*1049 _193_
*1050 _194_
*1051 _195_
*1052 _196_
*1053 _197_
*1054 _198_
*1055 _199_
*1056 _200_
*1057 _201_
*1058 _202_
*1059 _203_
*1060 _204_
*1061 _205_
*1062 _206_
*1063 _207_
*1064 _208_
*1065 _209_
*1066 _210_
*1067 _211_
*1068 _212_
*1069 _213_
*1070 _214_
*1071 _215_
*1072 _216_
*1073 _217_
*1074 _218_
*1075 _219_
*1076 _220_
*1077 _221_
*1078 _222_
*1079 _223_
*1080 _224_
*1081 _225_
*1082 _226_
*1083 _227_
*1084 _228_
*1085 _229_
*1086 _230_
*1087 _231_
*1088 _232_
*1089 _233_
*1090 _234_
*1091 _235_
*1092 _236_
*1093 _237_
*1094 _238_
*1095 _239_
*1096 _240_
*1097 _241_
*1098 _242_
*1099 _243_
*1100 _244_
*1101 _245_
*1102 _246_
*1103 _247_
*1104 _248_
*1105 _249_
*1106 _250_
*1107 _251_
*1108 _252_
*1109 _253_
*1110 _254_
*1111 _255_
*1112 _256_
*1113 _257_
*1114 _258_
*1115 _259_
*1116 _260_
*1117 _261_
*1118 _262_
*1119 _263_
*1120 _264_
*1121 _265_
*1122 _266_
*1123 _267_
*1124 _268_
*1125 _269_
*1126 _270_
*1127 _271_
*1128 _272_
*1129 _273_
*1130 _274_
*1131 _275_
*1132 _276_
*1133 _277_
*1134 _278_
*1135 _279_
*1136 _280_
*1137 _281_
*1138 _282_
*1139 _283_
*1140 _284_
*1141 _285_
*1142 _286_
*1143 _287_
*1144 _288_
*1145 _289_
*1146 _290_
*1147 _291_
*1148 _292_
*1149 _293_
*1150 _294_
*1151 _295_
*1152 _296_
*1153 _297_
*1154 _298_
*1155 _299_
*1156 _300_
*1157 _301_
*1158 _302_
*1159 _339_
*1160 _340_
*1161 bridge_57
*1162 bridge_58
*1163 bridge_59
*1164 bridge_60
*1165 bridge_61
*1166 bridge_62
*1167 bridge_63
*1168 bridge_64
*1169 bridge_65
*1170 bridge_66
*1171 bridge_67
*1172 bridge_68
*1173 bridge_69
*1174 bridge_70
*1175 bridge_71
*1176 bridge_72
*1177 bridge_73
*1178 bridge_74
*1179 bridge_75
*1180 bridge_76
*1181 bridge_77
*1182 bridge_78
*1183 bridge_79
*1184 bridge_80
*1185 bridge_81
*1186 bridge_82
*1187 bridge_83
*1188 bridge_84
*1189 bridge_85
*1190 bridge_86
*1191 bridge_87
*1192 bridge_88
*1193 bridge_89
*1194 bridge_90
*1195 bridge_91
*1196 bridge_92
*1197 clkbuf_0_clk
*1198 clkbuf_2_0__f_clk
*1199 clkbuf_2_1__f_clk
*1200 clkbuf_2_2__f_clk
*1201 clkbuf_2_3__f_clk
*1202 clkload0
*1203 clkload1
*1204 clkload2
*1205 fanout41
*1206 fanout46
*1207 fanout47
*1208 fanout48
*1209 fanout49
*1210 fanout50
*1211 fanout51
*1212 fanout52
*1213 fanout53
*1214 fanout54
*1215 fanout55
*1216 fanout56
*1217 hold2
*1218 hold3
*1219 hold4
*1220 hold5
*1221 hold6
*1222 hold7
*1223 input1
*1224 input10
*1225 input11
*1226 input12
*1227 input13
*1228 input14
*1229 input15
*1230 input16
*1231 input17
*1232 input18
*1233 input19
*1234 input2
*1235 input20
*1236 input21
*1237 input22
*1238 input23
*1239 input24
*1240 input25
*1241 input26
*1242 input3
*1243 input4
*1244 input5
*1245 input6
*1246 input7
*1247 input8
*1248 input9
*1249 max_cap40
*1250 max_cap43
*1251 output27
*1252 output28
*1253 output29
*1254 output30
*1255 output31
*1256 output32
*1257 output33
*1258 output34
*1259 output35
*1260 output36
*1261 output37
*1262 output38
*1263 output39
*1264 rebuffer1
*1265 wire44
*1266 wire45

*PORTS
PADDR[0] O
PADDR[1] O
PADDR[2] O
PENABLE O
PRDATA[0] I
PRDATA[10] I
PRDATA[11] I
PRDATA[12] I
PRDATA[13] I
PRDATA[14] I
PRDATA[15] I
PRDATA[1] I
PRDATA[2] I
PRDATA[3] I
PRDATA[4] I
PRDATA[5] I
PRDATA[6] I
PRDATA[7] I
PRDATA[8] I
PRDATA[9] I
PREADY I
PSEL1 O
PSEL2 O
PSEL3 O
PSEL4 O
PWDATA[0] O
PWDATA[10] O
PWDATA[11] O
PWDATA[12] O
PWDATA[13] O
PWDATA[14] O
PWDATA[15] O
PWDATA[1] O
PWDATA[2] O
PWDATA[3] O
PWDATA[4] O
PWDATA[5] O
PWDATA[6] O
PWDATA[7] O
PWDATA[8] O
PWDATA[9] O
PWRITE O
araddr[0] I
araddr[1] I
araddr[2] I
araddr[3] I
araddr[4] I
arburst[0] I
arburst[1] I
arlen[0] I
arlen[1] I
arlen[2] I
arlen[3] I
arready O
arvalid I
awaddr[0] I
awaddr[1] I
awaddr[2] I
awaddr[3] I
awaddr[4] I
awburst[0] I
awburst[1] I
awlen[0] I
awlen[1] I
awlen[2] I
awlen[3] I
awready O
awvalid I
bready I
bresp O
bvalid O
clk I
rdata[0] O
rdata[10] O
rdata[11] O
rdata[12] O
rdata[13] O
rdata[14] O
rdata[15] O
rdata[1] O
rdata[2] O
rdata[3] O
rdata[4] O
rdata[5] O
rdata[6] O
rdata[7] O
rdata[8] O
rdata[9] O
res_n I
rlast O
rready I
rresp O
rvalid O
wdata[0] I
wdata[10] I
wdata[11] I
wdata[12] I
wdata[13] I
wdata[14] I
wdata[15] I
wdata[1] I
wdata[2] I
wdata[3] I
wdata[4] I
wdata[5] I
wdata[6] I
wdata[7] I
wdata[8] I
wdata[9] I
wlast I
wready O
wvalid I

*D_NET *1 0.000873426
*CONN
*P PADDR[0] O
*I *1251:X O *D sky130_fd_sc_hd__buf_2
*CAP
1 PADDR[0] 0.000436713
2 *1251:X 0.000436713
3 PADDR[0] PADDR[1] 0
4 PADDR[0] *1243:A 0
*RES
1 *1251:X PADDR[0] 10.53 
*END

*D_NET *2 0.000876668
*CONN
*P PADDR[1] O
*I *1252:X O *D sky130_fd_sc_hd__buf_2
*CAP
1 PADDR[1] 0.000438334
2 *1252:X 0.000438334
3 PADDR[1] PADDR[2] 0
4 PADDR[0] PADDR[1] 0
*RES
1 *1252:X PADDR[1] 10.53 
*END

*D_NET *3 0.000813966
*CONN
*P PADDR[2] O
*I *1253:X O *D sky130_fd_sc_hd__buf_2
*CAP
1 PADDR[2] 0.000406983
2 *1253:X 0.000406983
3 PADDR[2] *1245:A 0
4 PADDR[1] PADDR[2] 0
*RES
1 *1253:X PADDR[2] 10.185 
*END

*D_NET *4 0.000540106
*CONN
*P PENABLE O
*I *1254:X O *D sky130_fd_sc_hd__buf_2
*CAP
1 PENABLE 0.000171882
2 *1254:X 0.000171882
3 PENABLE PWRITE 9.41262e-05
4 PENABLE bvalid 0.000102216
*RES
1 *1254:X PENABLE 5.2183 
*END

*D_NET *21 0.000576459
*CONN
*P PREADY I
*I *1223:A I *D sky130_fd_sc_hd__buf_1
*CAP
1 PREADY 0.000193225
2 *1223:A 0.000193225
3 *1223:A awready 9.50048e-05
4 *1223:A *1237:A 9.50048e-05
5 *1223:A *285:18 0
*RES
1 PREADY *1223:A 5.92503 
*END

*D_NET *22 0.00119025
*CONN
*P PSEL1 O
*I *1161:LO O *D sky130_fd_sc_hd__conb_1
*CAP
1 PSEL1 0.000524433
2 *1161:LO 0.000524433
3 PSEL1 PWDATA[14] 6.1695e-05
4 PSEL1 PWDATA[8] 5.08971e-05
5 PSEL1 rdata[10] 2.87867e-05
6 PSEL1 rdata[1] 0
*RES
1 *1161:LO PSEL1 9.66983 
*END

*D_NET *23 0.00203624
*CONN
*P PSEL2 O
*I *1162:LO O *D sky130_fd_sc_hd__conb_1
*CAP
1 PSEL2 0.000985681
2 *1162:LO 0.000985681
3 PSEL2 PWDATA[14] 4.82919e-05
4 PSEL2 PWDATA[6] 1.65856e-05
5 PSEL2 PWDATA[8] 0
*RES
1 *1162:LO PSEL2 20.22 
*END

*D_NET *24 0.00055011
*CONN
*P PSEL3 O
*I *1163:LO O *D sky130_fd_sc_hd__conb_1
*CAP
1 PSEL3 0.000184658
2 *1163:LO 0.000184658
3 PSEL3 PWDATA[3] 9.50048e-05
4 PSEL3 rdata[11] 8.57882e-05
*RES
1 *1163:LO PSEL3 5.67003 
*END

*D_NET *25 0.00110773
*CONN
*P PSEL4 O
*I *1164:LO O *D sky130_fd_sc_hd__conb_1
*CAP
1 PSEL4 0.000407433
2 *1164:LO 0.000407433
3 PSEL4 PWDATA[7] 0.000292866
*RES
1 *1164:LO PSEL4 9.87523 
*END

*D_NET *26 0.000640753
*CONN
*P PWDATA[0] O
*I *1165:LO O *D sky130_fd_sc_hd__conb_1
*CAP
1 PWDATA[0] 0.0002266
2 *1165:LO 0.0002266
3 PWDATA[0] rdata[13] 9.50048e-05
4 PWDATA[0] rdata[14] 9.25475e-05
*RES
1 *1165:LO PWDATA[0] 6.43503 
*END

*D_NET *27 0.000955096
*CONN
*P PWDATA[10] O
*I *1175:LO O *D sky130_fd_sc_hd__conb_1
*CAP
1 PWDATA[10] 0.000475329
2 *1175:LO 0.000475329
3 PWDATA[10] PWDATA[2] 0
4 PWDATA[10] rresp 0
5 PWDATA[10] *1261:A 4.43871e-06
*RES
1 *1175:LO PWDATA[10] 11.88 
*END

*D_NET *28 0.000960313
*CONN
*P PWDATA[11] O
*I *1176:LO O *D sky130_fd_sc_hd__conb_1
*CAP
1 PWDATA[11] 0.000465138
2 *1176:LO 0.000465138
3 PWDATA[11] PWDATA[6] 3.00381e-05
4 PWDATA[11] rdata[1] 0
5 PWDATA[11] rdata[8] 0
*RES
1 *1176:LO PWDATA[11] 11.88 
*END

*D_NET *29 0.000547423
*CONN
*P PWDATA[12] O
*I *1177:LO O *D sky130_fd_sc_hd__conb_1
*CAP
1 PWDATA[12] 0.000221624
2 *1177:LO 0.000221624
3 PWDATA[12] PWDATA[7] 7.56675e-05
4 PWDATA[12] rdata[15] 2.85068e-05
*RES
1 *1177:LO PWDATA[12] 5.86677 
*END

*D_NET *30 0.000950729
*CONN
*P PWDATA[13] O
*I *1178:LO O *D sky130_fd_sc_hd__conb_1
*CAP
1 PWDATA[13] 0.000475364
2 *1178:LO 0.000475364
3 PWDATA[13] rdata[9] 0
4 PWDATA[13] *1236:A 0
*RES
1 *1178:LO PWDATA[13] 11.88 
*END

*D_NET *31 0.00131841
*CONN
*P PWDATA[14] O
*I *1179:LO O *D sky130_fd_sc_hd__conb_1
*CAP
1 PWDATA[14] 0.000528502
2 *1179:LO 0.000528502
3 PWDATA[14] PWDATA[6] 0
4 PWDATA[14] PWDATA[8] 7.90632e-05
5 PWDATA[14] rdata[10] 7.23602e-05
6 PWDATA[14] rdata[1] 0
7 PSEL1 PWDATA[14] 6.1695e-05
8 PSEL2 PWDATA[14] 4.82919e-05
*RES
1 *1179:LO PWDATA[14] 13.965 
*END

*D_NET *32 0.000950729
*CONN
*P PWDATA[15] O
*I *1180:LO O *D sky130_fd_sc_hd__conb_1
*CAP
1 PWDATA[15] 0.000475364
2 *1180:LO 0.000475364
3 PWDATA[15] rdata[3] 0
4 PWDATA[15] rdata[4] 0
*RES
1 *1180:LO PWDATA[15] 11.88 
*END

*D_NET *33 0.000950729
*CONN
*P PWDATA[1] O
*I *1166:LO O *D sky130_fd_sc_hd__conb_1
*CAP
1 PWDATA[1] 0.000475364
2 *1166:LO 0.000475364
3 PWDATA[1] rdata[8] 0
4 PWDATA[1] rdata[9] 0
*RES
1 *1166:LO PWDATA[1] 11.88 
*END

*D_NET *34 0.000950729
*CONN
*P PWDATA[2] O
*I *1167:LO O *D sky130_fd_sc_hd__conb_1
*CAP
1 PWDATA[2] 0.000475364
2 *1167:LO 0.000475364
3 PWDATA[2] rdata[4] 0
4 PWDATA[10] PWDATA[2] 0
*RES
1 *1167:LO PWDATA[2] 11.88 
*END

*D_NET *35 0.000513138
*CONN
*P PWDATA[3] O
*I *1168:LO O *D sky130_fd_sc_hd__conb_1
*CAP
1 PWDATA[3] 0.000209067
2 *1168:LO 0.000209067
3 PSEL3 PWDATA[3] 9.50048e-05
*RES
1 *1168:LO PWDATA[3] 5.41503 
*END

*D_NET *36 0.000591711
*CONN
*P PWDATA[4] O
*I *1169:LO O *D sky130_fd_sc_hd__conb_1
*CAP
1 PWDATA[4] 0.000203308
2 *1169:LO 0.000203308
3 PWDATA[4] rdata[12] 9.25475e-05
4 PWDATA[4] *1225:A 9.25475e-05
*RES
1 *1169:LO PWDATA[4] 5.92503 
*END

*D_NET *37 0.00152836
*CONN
*P PWDATA[5] O
*I *1170:LO O *D sky130_fd_sc_hd__conb_1
*CAP
1 PWDATA[5] 0.000606212
2 *1170:LO 0.000606212
3 PWDATA[5] *1230:A 0.000315934
*RES
1 *1170:LO PWDATA[5] 13.9668 
*END

*D_NET *38 0.00205742
*CONN
*P PWDATA[6] O
*I *1171:LO O *D sky130_fd_sc_hd__conb_1
*CAP
1 PWDATA[6] 0.000968193
2 *1171:LO 0.000968193
3 PWDATA[6] PWDATA[8] 4.437e-05
4 PWDATA[6] rdata[1] 3.00381e-05
5 PSEL2 PWDATA[6] 1.65856e-05
6 PWDATA[11] PWDATA[6] 3.00381e-05
7 PWDATA[14] PWDATA[6] 0
*RES
1 *1171:LO PWDATA[6] 19.29 
*END

*D_NET *39 0.000903953
*CONN
*P PWDATA[7] O
*I *1172:LO O *D sky130_fd_sc_hd__conb_1
*CAP
1 PWDATA[7] 0.00026771
2 *1172:LO 0.00026771
3 PSEL4 PWDATA[7] 0.000292866
4 PWDATA[12] PWDATA[7] 7.56675e-05
*RES
1 *1172:LO PWDATA[7] 7.8185 
*END

*D_NET *40 0.00121188
*CONN
*P PWDATA[8] O
*I *1173:LO O *D sky130_fd_sc_hd__conb_1
*CAP
1 PWDATA[8] 0.000491838
2 *1173:LO 0.000491838
3 PWDATA[8] rdata[10] 5.3873e-05
4 PSEL1 PWDATA[8] 5.08971e-05
5 PSEL2 PWDATA[8] 0
6 PWDATA[14] PWDATA[8] 7.90632e-05
7 PWDATA[6] PWDATA[8] 4.437e-05
*RES
1 *1173:LO PWDATA[8] 11.782 
*END

*D_NET *41 0.000477401
*CONN
*P PWDATA[9] O
*I *1174:LO O *D sky130_fd_sc_hd__conb_1
*CAP
1 PWDATA[9] 0.000227455
2 *1174:LO 0.000227455
3 PWDATA[9] *1226:A 0
4 PWDATA[9] *1227:A 0
5 PWDATA[9] *1234:A 2.24901e-05
*RES
1 *1174:LO PWDATA[9] 5.35677 
*END

*D_NET *42 0.000540718
*CONN
*P PWRITE O
*I *1255:X O *D sky130_fd_sc_hd__buf_2
*CAP
1 PWRITE 0.00016322
2 *1255:X 0.00016322
3 PWRITE *1225:A 9.50048e-05
4 PWRITE *1255:A 2.51475e-05
5 PENABLE PWRITE 9.41262e-05
*RES
1 *1255:X PWRITE 5.2183 
*END

*D_NET *45 0.000535548
*CONN
*P araddr[0] I
*I *1234:A I *D sky130_fd_sc_hd__clkbuf_1
*CAP
1 araddr[0] 0.000242276
2 *1234:A 0.000242276
3 *1234:A *1226:A 2.85068e-05
4 PWDATA[9] *1234:A 2.24901e-05
*RES
1 araddr[0] *1234:A 6.8343 
*END

*D_NET *46 0.000878701
*CONN
*P araddr[1] I
*I *1242:A I *D sky130_fd_sc_hd__clkbuf_1
*CAP
1 araddr[1] 0.000439351
2 *1242:A 0.000439351
*RES
1 araddr[1] *1242:A 11.04 
*END

*D_NET *47 0.000877785
*CONN
*P araddr[2] I
*I *1243:A I *D sky130_fd_sc_hd__clkbuf_1
*CAP
1 araddr[2] 0.000438892
2 *1243:A 0.000438892
3 PADDR[0] *1243:A 0
*RES
1 araddr[2] *1243:A 11.04 
*END

*D_NET *50 0.00087992
*CONN
*P arburst[0] I
*I *1244:A I *D sky130_fd_sc_hd__clkbuf_1
*CAP
1 arburst[0] 0.000430768
2 *1244:A 0.000430768
3 *1244:A *1145:D 1.83847e-05
4 *1244:A *1229:A 0
*RES
1 arburst[0] *1244:A 11.04 
*END

*D_NET *51 0.000879763
*CONN
*P arburst[1] I
*I *1245:A I *D sky130_fd_sc_hd__clkbuf_1
*CAP
1 arburst[1] 0.000437789
2 *1245:A 0.000437789
3 *1245:A *1253:A 4.18603e-06
4 PADDR[2] *1245:A 0
*RES
1 arburst[1] *1245:A 11.04 
*END

*D_NET *52 0.000544701
*CONN
*P arlen[0] I
*I *1246:A I *D sky130_fd_sc_hd__clkbuf_1
*CAP
1 arlen[0] 0.000243936
2 *1246:A 0.000243936
3 *1246:A *1235:A 2.85068e-05
4 *1246:A *1247:A 2.24901e-05
5 *1246:A *269:16 5.83121e-06
*RES
1 arlen[0] *1246:A 6.8343 
*END

*D_NET *53 0.000652744
*CONN
*P arlen[1] I
*I *1247:A I *D sky130_fd_sc_hd__clkbuf_1
*CAP
1 arlen[1] 0.000263229
2 *1247:A 0.000263229
3 *1247:A *1152:D 9.58678e-06
4 *1247:A *1197:A 0
5 *1247:A *1224:A 3.14094e-05
6 *1247:A *1235:A 0
7 *1247:A *269:18 6.28008e-05
8 *1246:A *1247:A 2.24901e-05
*RES
1 arlen[1] *1247:A 5.86503 
*END

*D_NET *54 0.000618994
*CONN
*P arlen[2] I
*I *1248:A I *D sky130_fd_sc_hd__clkbuf_1
*CAP
1 arlen[2] 0.000298252
2 *1248:A 0.000298252
3 *1248:A *1219:A 2.24901e-05
4 *1248:A *1226:A 0
*RES
1 arlen[2] *1248:A 7.5993 
*END

*D_NET *55 0.000623158
*CONN
*P arlen[3] I
*I *1224:A I *D sky130_fd_sc_hd__clkbuf_1
*CAP
1 arlen[3] 0.000284629
2 *1224:A 0.000284629
3 *1224:A *1197:A 2.24901e-05
4 *1224:A *269:18 0
5 *1247:A *1224:A 3.14094e-05
*RES
1 arlen[3] *1224:A 7.5993 
*END

*D_NET *56 0.00083395
*CONN
*P arready O
*I *1256:X O *D sky130_fd_sc_hd__buf_2
*CAP
1 arready 0.000391699
2 *1256:X 0.000391699
3 arready *1228:A 0
4 arready *1256:A 5.05521e-05
*RES
1 *1256:X arready 10.185 
*END

*D_NET *57 0.000588827
*CONN
*P arvalid I
*I *1225:A I *D sky130_fd_sc_hd__clkbuf_1
*CAP
1 arvalid 0.000194499
2 *1225:A 0.000194499
3 *1225:A *1255:A 1.22762e-05
4 PWDATA[4] *1225:A 9.25475e-05
5 PWRITE *1225:A 9.50048e-05
*RES
1 arvalid *1225:A 5.92503 
*END

*D_NET *58 0.000642578
*CONN
*P awaddr[0] I
*I *1226:A I *D sky130_fd_sc_hd__clkbuf_1
*CAP
1 awaddr[0] 0.000292642
2 *1226:A 0.000292642
3 *1226:A *1134:D 2.87867e-05
4 PWDATA[9] *1226:A 0
5 *1234:A *1226:A 2.85068e-05
6 *1248:A *1226:A 0
*RES
1 awaddr[0] *1226:A 6.63177 
*END

*D_NET *59 0.000638333
*CONN
*P awaddr[1] I
*I *1227:A I *D sky130_fd_sc_hd__clkbuf_1
*CAP
1 awaddr[1] 0.000319167
2 *1227:A 0.000319167
3 *1227:A *1135:D 0
4 PWDATA[9] *1227:A 0
*RES
1 awaddr[1] *1227:A 7.8543 
*END

*D_NET *60 0.000883162
*CONN
*P awaddr[2] I
*I *1228:A I *D sky130_fd_sc_hd__clkbuf_1
*CAP
1 awaddr[2] 0.000432388
2 *1228:A 0.000432388
3 *1228:A *1136:D 1.83847e-05
4 arready *1228:A 0
*RES
1 awaddr[2] *1228:A 11.04 
*END

*D_NET *63 0.00087992
*CONN
*P awburst[0] I
*I *1229:A I *D sky130_fd_sc_hd__clkbuf_1
*CAP
1 awburst[0] 0.000430768
2 *1229:A 0.000430768
3 *1229:A *1143:D 1.83847e-05
4 *1244:A *1229:A 0
*RES
1 awburst[0] *1229:A 11.04 
*END

*D_NET *64 0.00169735
*CONN
*P awburst[1] I
*I *1230:A I *D sky130_fd_sc_hd__clkbuf_1
*CAP
1 awburst[1] 0.000575759
2 *1230:A 0.000575759
3 *1230:A rdata[0] 0.000106824
4 *1230:A rdata[6] 0.000111366
5 *1230:A rdata[7] 1.17114e-05
6 PWDATA[5] *1230:A 0.000315934
*RES
1 awburst[1] *1230:A 13.8866 
*END

*D_NET *65 0.000809659
*CONN
*P awlen[0] I
*I *1231:A I *D sky130_fd_sc_hd__clkbuf_1
*CAP
1 awlen[0] 0.000345763
2 *1231:A 0.000345763
3 *1231:A *1232:A 3.45293e-05
4 *1231:A *1240:A 8.36038e-05
*RES
1 awlen[0] *1231:A 8.47043 
*END

*D_NET *66 0.00130489
*CONN
*P awlen[1] I
*I *1232:A I *D sky130_fd_sc_hd__clkbuf_1
*CAP
1 awlen[1] 0.000368989
2 *1232:A 0.000368989
3 *1232:A *1148:D 0.000273329
4 *1232:A *1149:D 3.57768e-05
5 *1232:A *1240:A 0
6 *1232:A *1241:A 7.07764e-05
7 *1232:A *269:67 0.000152503
8 *1231:A *1232:A 3.45293e-05
*RES
1 awlen[1] *1232:A 9.18003 
*END

*D_NET *67 0.000536302
*CONN
*P awlen[2] I
*I *1233:A I *D sky130_fd_sc_hd__clkbuf_1
*CAP
1 awlen[2] 0.000239833
2 *1233:A 0.000239833
3 *1233:A rdata[15] 2.69997e-05
4 *1233:A *1241:A 2.96366e-05
*RES
1 awlen[2] *1233:A 6.8343 
*END

*D_NET *68 0.000876961
*CONN
*P awlen[3] I
*I *1235:A I *D sky130_fd_sc_hd__clkbuf_1
*CAP
1 awlen[3] 0.000297101
2 *1235:A 0.000297101
3 *1235:A wready 2.24901e-05
4 *1235:A *1150:D 5.78448e-05
5 *1235:A *1240:A 0
6 *1235:A *269:47 0.000173916
7 *1246:A *1235:A 2.85068e-05
8 *1247:A *1235:A 0
*RES
1 awlen[3] *1235:A 7.14003 
*END

*D_NET *69 0.000651667
*CONN
*P awready O
*I *1257:X O *D sky130_fd_sc_hd__buf_2
*CAP
1 awready 0.000278331
2 *1257:X 0.000278331
3 *1223:A awready 9.50048e-05
*RES
1 *1257:X awready 6.2383 
*END

*D_NET *70 0.00104981
*CONN
*P awvalid I
*I *1236:A I *D sky130_fd_sc_hd__clkbuf_1
*CAP
1 awvalid 0.000524903
2 *1236:A 0.000524903
3 *1236:A rlast 0
4 *1236:A *1260:A 0
5 PWDATA[13] *1236:A 0
*RES
1 awvalid *1236:A 12.57 
*END

*D_NET *71 0.000682011
*CONN
*P bready I
*I *1237:A I *D sky130_fd_sc_hd__clkbuf_1
*CAP
1 bready 0.000216885
2 *1237:A 0.000216885
3 *1237:A *1239:A 9.25475e-05
4 *1237:A *285:18 0
5 *1237:A *299:8 6.06899e-05
6 *1223:A *1237:A 9.50048e-05
*RES
1 bready *1237:A 6.69003 
*END

*D_NET *72 0.0006817
*CONN
*P bresp O
*I *1258:X O *D sky130_fd_sc_hd__buf_2
*CAP
1 bresp 0.00019364
2 *1258:X 0.00019364
3 bresp bvalid 0
4 bresp rdata[2] 9.50048e-05
5 bresp *1049:A 0.000112883
6 bresp *1239:A 8.65319e-05
*RES
1 *1258:X bresp 5.9833 
*END

*D_NET *73 0.000629406
*CONN
*P bvalid O
*I *1259:X O *D sky130_fd_sc_hd__buf_2
*CAP
1 bvalid 0.000216092
2 *1259:X 0.000216092
3 bvalid rdata[2] 9.50048e-05
4 bvalid *285:18 0
5 PENABLE bvalid 0.000102216
6 bresp bvalid 0
*RES
1 *1259:X bvalid 5.9833 
*END

*D_NET *74 0.00530291
*CONN
*P clk I
*I *1197:A I *D sky130_fd_sc_hd__clkbuf_16
*CAP
1 clk 0.00232592
2 *1197:A 0.00232592
3 *1197:A *1212:A 0.000110632
4 *1197:A *1216:A 0.000489441
5 *1197:A *1219:A 2.85068e-05
6 *1224:A *1197:A 2.24901e-05
7 *1247:A *1197:A 0
*RES
1 clk *1197:A 9.44983 
*END

*D_NET *75 0.000810123
*CONN
*P rdata[0] O
*I *1181:LO O *D sky130_fd_sc_hd__conb_1
*CAP
1 rdata[0] 0.000224588
2 *1181:LO 0.000224588
3 rdata[0] rdata[6] 0.000162095
4 rdata[0] rdata[7] 9.20289e-05
5 *1230:A rdata[0] 0.000106824
*RES
1 *1181:LO rdata[0] 6.09983 
*END

*D_NET *76 0.000796808
*CONN
*P rdata[10] O
*I *1191:LO O *D sky130_fd_sc_hd__conb_1
*CAP
1 rdata[10] 0.000274621
2 *1191:LO 0.000274621
3 rdata[10] rdata[11] 9.25475e-05
4 PSEL1 rdata[10] 2.87867e-05
5 PWDATA[14] rdata[10] 7.23602e-05
6 PWDATA[8] rdata[10] 5.3873e-05
*RES
1 *1191:LO rdata[10] 5.92503 
*END

*D_NET *77 0.00053237
*CONN
*P rdata[11] O
*I *1192:LO O *D sky130_fd_sc_hd__conb_1
*CAP
1 rdata[11] 0.000177017
2 *1192:LO 0.000177017
3 PSEL3 rdata[11] 8.57882e-05
4 rdata[10] rdata[11] 9.25475e-05
*RES
1 *1192:LO rdata[11] 4.90503 
*END

*D_NET *78 0.000464895
*CONN
*P rdata[12] O
*I *1193:LO O *D sky130_fd_sc_hd__conb_1
*CAP
1 rdata[12] 0.000142908
2 *1193:LO 0.000142908
3 rdata[12] rdata[5] 8.65319e-05
4 PWDATA[4] rdata[12] 9.25475e-05
*RES
1 *1193:LO rdata[12] 4.90503 
*END

*D_NET *79 0.000457753
*CONN
*P rdata[13] O
*I *1194:LO O *D sky130_fd_sc_hd__conb_1
*CAP
1 rdata[13] 0.000138108
2 *1194:LO 0.000138108
3 rdata[13] rdata[7] 8.65319e-05
4 PWDATA[0] rdata[13] 9.50048e-05
*RES
1 *1194:LO rdata[13] 4.90503 
*END

*D_NET *80 0.000534897
*CONN
*P rdata[14] O
*I *1195:LO O *D sky130_fd_sc_hd__conb_1
*CAP
1 rdata[14] 0.000174901
2 *1195:LO 0.000174901
3 rdata[14] rdata[5] 9.25475e-05
4 PWDATA[0] rdata[14] 9.25475e-05
*RES
1 *1195:LO rdata[14] 5.41503 
*END

*D_NET *81 0.000543635
*CONN
*P rdata[15] O
*I *1196:LO O *D sky130_fd_sc_hd__conb_1
*CAP
1 rdata[15] 0.000244064
2 *1196:LO 0.000244064
3 PWDATA[12] rdata[15] 2.85068e-05
4 *1233:A rdata[15] 2.69997e-05
*RES
1 *1196:LO rdata[15] 6.8343 
*END

*D_NET *82 0.000960313
*CONN
*P rdata[1] O
*I *1182:LO O *D sky130_fd_sc_hd__conb_1
*CAP
1 rdata[1] 0.000465138
2 *1182:LO 0.000465138
3 PSEL1 rdata[1] 0
4 PWDATA[11] rdata[1] 0
5 PWDATA[14] rdata[1] 0
6 PWDATA[6] rdata[1] 3.00381e-05
*RES
1 *1182:LO rdata[1] 11.88 
*END

*D_NET *83 0.000517034
*CONN
*P rdata[2] O
*I *1183:LO O *D sky130_fd_sc_hd__conb_1
*CAP
1 rdata[2] 0.000163512
2 *1183:LO 0.000163512
3 rdata[2] *285:18 0
4 bresp rdata[2] 9.50048e-05
5 bvalid rdata[2] 9.50048e-05
*RES
1 *1183:LO rdata[2] 5.41503 
*END

*D_NET *84 0.000950729
*CONN
*P rdata[3] O
*I *1184:LO O *D sky130_fd_sc_hd__conb_1
*CAP
1 rdata[3] 0.000475364
2 *1184:LO 0.000475364
3 rdata[3] rvalid 0
4 PWDATA[15] rdata[3] 0
*RES
1 *1184:LO rdata[3] 11.88 
*END

*D_NET *85 0.000950729
*CONN
*P rdata[4] O
*I *1185:LO O *D sky130_fd_sc_hd__conb_1
*CAP
1 rdata[4] 0.000475364
2 *1185:LO 0.000475364
3 PWDATA[15] rdata[4] 0
4 PWDATA[2] rdata[4] 0
*RES
1 *1185:LO rdata[4] 11.88 
*END

*D_NET *86 0.000524615
*CONN
*P rdata[5] O
*I *1186:LO O *D sky130_fd_sc_hd__conb_1
*CAP
1 rdata[5] 0.000172768
2 *1186:LO 0.000172768
3 rdata[12] rdata[5] 8.65319e-05
4 rdata[14] rdata[5] 9.25475e-05
*RES
1 *1186:LO rdata[5] 5.41503 
*END

*D_NET *87 0.00113907
*CONN
*P rdata[6] O
*I *1187:LO O *D sky130_fd_sc_hd__conb_1
*CAP
1 rdata[6] 0.000432804
2 *1187:LO 0.000432804
3 rdata[0] rdata[6] 0.000162095
4 *1230:A rdata[6] 0.000111366
*RES
1 *1187:LO rdata[6] 8.82463 
*END

*D_NET *88 0.000468571
*CONN
*P rdata[7] O
*I *1188:LO O *D sky130_fd_sc_hd__conb_1
*CAP
1 rdata[7] 0.000139149
2 *1188:LO 0.000139149
3 rdata[0] rdata[7] 9.20289e-05
4 rdata[13] rdata[7] 8.65319e-05
5 *1230:A rdata[7] 1.17114e-05
*RES
1 *1188:LO rdata[7] 4.90503 
*END

*D_NET *89 0.000950729
*CONN
*P rdata[8] O
*I *1189:LO O *D sky130_fd_sc_hd__conb_1
*CAP
1 rdata[8] 0.000475364
2 *1189:LO 0.000475364
3 PWDATA[11] rdata[8] 0
4 PWDATA[1] rdata[8] 0
*RES
1 *1189:LO rdata[8] 11.88 
*END

*D_NET *90 0.000950729
*CONN
*P rdata[9] O
*I *1190:LO O *D sky130_fd_sc_hd__conb_1
*CAP
1 rdata[9] 0.000475364
2 *1190:LO 0.000475364
3 PWDATA[13] rdata[9] 0
4 PWDATA[1] rdata[9] 0
*RES
1 *1190:LO rdata[9] 11.88 
*END

*D_NET *91 0.000540052
*CONN
*P res_n I
*I *1219:A I *D sky130_fd_sc_hd__dlygate4sd3_1
*CAP
1 res_n 0.000244528
2 *1219:A 0.000244528
3 *1197:A *1219:A 2.85068e-05
4 *1248:A *1219:A 2.24901e-05
*RES
1 res_n *1219:A 6.8343 
*END

*D_NET *92 0.00104768
*CONN
*P rlast O
*I *1260:X O *D sky130_fd_sc_hd__buf_2
*CAP
1 rlast 0.00052384
2 *1260:X 0.00052384
3 rlast rvalid 0
4 *1236:A rlast 0
*RES
1 *1260:X rlast 12.06 
*END

*D_NET *93 0.000510721
*CONN
*P rready I
*I *1239:A I *D sky130_fd_sc_hd__clkbuf_1
*CAP
1 rready 0.000152083
2 *1239:A 0.000152083
3 *1239:A *1049:A 1.03755e-05
4 *1239:A *299:8 1.71013e-05
5 bresp *1239:A 8.65319e-05
6 *1237:A *1239:A 9.25475e-05
*RES
1 rready *1239:A 5.16003 
*END

*D_NET *94 0.000977835
*CONN
*P rresp O
*I *1261:X O *D sky130_fd_sc_hd__buf_2
*CAP
1 rresp 0.000488918
2 *1261:X 0.000488918
3 PWDATA[10] rresp 0
*RES
1 *1261:X rresp 11.715 
*END

*D_NET *95 0.00104445
*CONN
*P rvalid O
*I *1262:X O *D sky130_fd_sc_hd__buf_2
*CAP
1 rvalid 0.000522225
2 *1262:X 0.000522225
3 rdata[3] rvalid 0
4 rlast rvalid 0
*RES
1 *1262:X rvalid 12.06 
*END

*D_NET *112 0.00106337
*CONN
*P wlast I
*I *1240:A I *D sky130_fd_sc_hd__buf_1
*CAP
1 wlast 0.000305513
2 *1240:A 0.000305513
3 *1240:A wready 3.14094e-05
4 *1240:A *1147:D 1.34361e-05
5 *1240:A *269:47 6.44676e-05
6 *1240:A *269:56 0.000185398
7 *1240:A *302:28 7.4027e-05
8 *1231:A *1240:A 8.36038e-05
9 *1232:A *1240:A 0
10 *1235:A *1240:A 0
*RES
1 wlast *1240:A 7.90503 
*END

*D_NET *113 0.000663831
*CONN
*P wready O
*I *1263:X O *D sky130_fd_sc_hd__buf_2
*CAP
1 wready 0.000304966
2 *1263:X 0.000304966
3 *1235:A wready 2.24901e-05
4 *1240:A wready 3.14094e-05
*RES
1 *1263:X wready 7.1793 
*END

*D_NET *114 0.000816566
*CONN
*P wvalid I
*I *1241:A I *D sky130_fd_sc_hd__clkbuf_1
*CAP
1 wvalid 0.000358077
2 *1241:A 0.000358077
3 *1232:A *1241:A 7.07764e-05
4 *1233:A *1241:A 2.96366e-05
*RES
1 wvalid *1241:A 8.7393 
*END

*D_NET *115 0.00553162
*CONN
*I *1088:A1 I *D sky130_fd_sc_hd__mux2_1
*I *1086:A I *D sky130_fd_sc_hd__nor2_1
*I *1089:A I *D sky130_fd_sc_hd__nand2_1
*I *1095:A I *D sky130_fd_sc_hd__nand3_1
*I *1094:A1 I *D sky130_fd_sc_hd__a21o_1
*I *1010:B I *D sky130_fd_sc_hd__and2_1
*I *1090:A I *D sky130_fd_sc_hd__or2_1
*I *1131:Q O *D sky130_fd_sc_hd__dfrtp_2
*CAP
1 *1088:A1 1.25806e-05
2 *1086:A 0.000108238
3 *1089:A 3.86921e-05
4 *1095:A 0.000103003
5 *1094:A1 0
6 *1010:B 0.000154356
7 *1090:A 9.04962e-05
8 *1131:Q 0.000225682
9 *115:75 0.000176869
10 *115:31 0.000709988
11 *115:16 0.000603938
12 *115:10 0.000390577
13 *115:8 0.000572804
14 *1010:B *1010:A 4.82919e-05
15 *1010:B *1011:A 1.73877e-05
16 *1010:B *1092:B1 9.1566e-05
17 *1010:B *1097:B2 6.54674e-05
18 *1010:B *1097:C1 0.000116151
19 *1010:B *1122:RESET_B 0
20 *1010:B *116:45 9.14049e-05
21 *1010:B *310:34 7.21296e-06
22 *1086:A *1087:A2 6.92319e-05
23 *1086:A *1093:S 0.000235568
24 *1086:A *1122:CLK 4.66108e-05
25 *1086:A *268:16 0.000235568
26 *1088:A1 *1093:S 8.65961e-05
27 *1088:A1 *1122:CLK 7.57202e-05
28 *1089:A *1091:A 4.99619e-05
29 *1089:A *1091:B 4.65607e-05
30 *1089:A *1091:C 5.83121e-06
31 *1090:A *1089:B 0
32 *1090:A *1091:C 7.06865e-05
33 *1090:A *1092:C1 1.65105e-05
34 *1090:A *116:8 4.82863e-05
35 *1095:A *1096:C 8.23457e-05
36 *1095:A *1097:C1 4.9968e-05
37 *1095:A *117:23 0
38 *115:8 *1087:A2 0.00011964
39 *115:8 *150:12 1.39472e-05
40 *115:10 *1087:A2 2.24336e-05
41 *115:10 *1093:S 0
42 *115:10 *1131:D 2.97004e-06
43 *115:10 *268:18 0
44 *115:10 *326:34 0
45 *115:10 *326:38 0
46 *115:16 *1089:B 0
47 *115:16 *268:18 0
48 *115:31 *1091:A 0.000277223
49 *115:31 *1096:B 1.76069e-06
50 *115:31 *1096:C 0.000254517
51 *115:75 *1087:A2 4.19967e-05
52 *115:75 *1093:S 0
53 *115:75 *1131:D 2.37321e-05
54 *115:75 *268:10 2.92496e-05
*RES
1 *1131:Q *115:8 6.465 
2 *115:8 *115:10 4.95 
3 *115:10 *115:16 1.17 
4 *115:16 *1090:A 5.43 
5 *115:16 *115:31 7.97 
6 *115:31 *1010:B 9.725 
7 *115:31 *1094:A1 1.6 
8 *115:31 *1095:A 7.01 
9 *115:10 *1089:A 4.74 
10 *115:8 *115:75 3.38 
11 *115:75 *1086:A 5.17 
12 *115:75 *1088:A1 2.395 
*END

*D_NET *116 0.00273104
*CONN
*I *1093:A1 I *D sky130_fd_sc_hd__mux2_1
*I *1095:B I *D sky130_fd_sc_hd__nand3_1
*I *1094:A2 I *D sky130_fd_sc_hd__a21o_1
*I *1011:B I *D sky130_fd_sc_hd__and2_1
*I *1089:B I *D sky130_fd_sc_hd__nand2_1
*I *1090:B I *D sky130_fd_sc_hd__or2_1
*I *1132:Q O *D sky130_fd_sc_hd__dfrtp_1
*CAP
1 *1093:A1 0.000149
2 *1095:B 3.43077e-05
3 *1094:A2 0
4 *1011:B 2.08101e-05
5 *1089:B 0.000118545
6 *1090:B 0
7 *1132:Q 0
8 *116:45 0.000117217
9 *116:28 0.000379952
10 *116:15 0.000475316
11 *116:8 0.000254352
12 *116:4 0.000322813
13 *1011:B *1097:B1 0
14 *1089:B *1122:RESET_B 0
15 *1089:B *326:38 0
16 *1093:A1 *1092:C1 2.66935e-05
17 *1093:A1 *268:18 3.86529e-05
18 *1095:B *1094:B1 7.70212e-05
19 *1095:B *1096:C 4.08514e-05
20 *1095:B *1097:C1 1.08758e-05
21 *116:8 *1091:C 8.65961e-05
22 *116:8 *1135:RESET_B 0
23 *116:28 *1011:A 4.66742e-05
24 *116:28 *1097:B1 1.08758e-05
25 *116:45 *1011:A 2.16917e-05
26 *116:45 *1092:B1 2.92496e-05
27 *116:45 *1094:B1 4.82919e-05
28 *116:45 *1096:C 8.49205e-05
29 *116:45 *1097:B1 4.66108e-05
30 *116:45 *1097:C1 3.62338e-05
31 *116:45 *150:85 0.000113797
32 *1010:B *116:45 9.14049e-05
33 *1090:A *1089:B 0
34 *1090:A *116:8 4.82863e-05
35 *115:16 *1089:B 0
*RES
1 *1132:Q *116:4 1.6 
2 *116:4 *116:8 2.88 
3 *116:8 *1090:B 1.6 
4 *116:8 *116:15 1.14 
5 *116:15 *1089:B 7.235 
6 *116:15 *116:28 3.9 
7 *116:28 *1011:B 1.96 
8 *116:28 *116:45 6.88 
9 *116:45 *1094:A2 1.6 
10 *116:45 *1095:B 3.115 
11 *116:4 *1093:A1 7.61 
*END

*D_NET *117 0.00297293
*CONN
*I *1221:A I *D sky130_fd_sc_hd__dlygate4sd3_1
*I *1094:B1 I *D sky130_fd_sc_hd__a21o_1
*I *1095:C I *D sky130_fd_sc_hd__nand3_1
*I *1012:B I *D sky130_fd_sc_hd__and2_1
*I *1133:Q O *D sky130_fd_sc_hd__dfrtp_1
*CAP
1 *1221:A 0.000317517
2 *1094:B1 0.000251459
3 *1095:C 0
4 *1012:B 0.000232048
5 *1133:Q 0
6 *117:25 0.000420359
7 *117:23 0.000553404
8 *117:6 0.000299035
9 *1012:B *1097:A1 0
10 *1012:B *1252:A 4.49498e-05
11 *1012:B *118:12 0.000127416
12 *1012:B *118:18 8.65905e-05
13 *1094:B1 *1096:C 1.91597e-05
14 *1094:B1 *1097:C1 0.000160781
15 *1094:B1 *150:85 2.7881e-05
16 *1221:A *1098:A1 0.000241483
17 *117:23 *118:12 6.55328e-05
18 *1095:A *117:23 0
19 *1095:B *1094:B1 7.70212e-05
20 *116:45 *1094:B1 4.82919e-05
*RES
1 *1133:Q *117:6 3.6 
2 *117:6 *1012:B 8.1 
3 *117:6 *117:23 3.38 
4 *117:23 *117:25 2.52 
5 *117:25 *1095:C 1.6 
6 *117:25 *1094:B1 10.07 
7 *117:23 *1221:A 7.225 
*END

*D_NET *118 0.00705697
*CONN
*I *1050:A1 I *D sky130_fd_sc_hd__o31a_1
*I *1012:A I *D sky130_fd_sc_hd__and2_1
*I *1011:A I *D sky130_fd_sc_hd__and2_1
*I *1010:A I *D sky130_fd_sc_hd__and2_1
*I *1125:Q O *D sky130_fd_sc_hd__dfrtp_1
*CAP
1 *1050:A1 0.000926668
2 *1012:A 0
3 *1011:A 0.000148358
4 *1010:A 6.12126e-05
5 *1125:Q 4.87699e-05
6 *118:18 0.000483189
7 *118:12 0.000710506
8 *118:6 0.00141232
9 *1010:A *1097:B2 7.22354e-05
10 *1010:A *1251:A 1.83847e-05
11 *1011:A *1097:A1 8.52172e-05
12 *1011:A *1097:B1 5.70737e-05
13 *1011:A *1097:B2 0.000123388
14 *1011:A *310:24 0.000230435
15 *1050:A1 *1021:D 0
16 *1050:A1 *1022:B 7.96104e-06
17 *1050:A1 *1098:S 0.000100162
18 *1050:A1 *1124:CLK 0.000187766
19 *1050:A1 *1124:RESET_B 2.10433e-05
20 *1050:A1 *1125:D 0
21 *1050:A1 *1201:A 0.000242027
22 *1050:A1 *1216:A 0
23 *1050:A1 *1222:A 8.65905e-05
24 *1050:A1 *148:12 0.000461155
25 *1050:A1 *199:10 9.30717e-05
26 *1050:A1 *199:20 2.65814e-06
27 *1050:A1 *267:8 9.50036e-05
28 *1050:A1 *284:30 0.000136877
29 *1050:A1 *284:40 4.12825e-05
30 *1050:A1 *334:36 7.23533e-05
31 *1050:A1 *336:8 0.000147967
32 *1050:A1 *336:10 1.38403e-05
33 *118:6 *199:20 2.77183e-05
34 *118:12 *1098:A0 2.67022e-05
35 *118:12 *1098:S 0.000501444
36 *118:12 *1133:D 0
37 *1010:B *1010:A 4.82919e-05
38 *1010:B *1011:A 1.73877e-05
39 *1012:B *118:12 0.000127416
40 *1012:B *118:18 8.65905e-05
41 *116:28 *1011:A 4.66742e-05
42 *116:45 *1011:A 2.16917e-05
43 *117:23 *118:12 6.55328e-05
*RES
1 *1125:Q *118:6 2.395 
2 *118:6 *118:12 14.05 
3 *118:12 *118:18 4.365 
4 *118:18 *1010:A 3.085 
5 *118:18 *1011:A 10.01 
6 *118:12 *1012:A 1.6 
7 *118:6 *1050:A1 25.85 
*END

*D_NET *119 0.000678999
*CONN
*I *1119:D I *D sky130_fd_sc_hd__dfrtp_1
*I *1016:X O *D sky130_fd_sc_hd__mux2_1
*CAP
1 *1119:D 0.000230163
2 *1016:X 0.000230163
3 *1119:D *1016:A0 0
4 *1119:D *1018:A0 9.37731e-05
5 *1119:D *333:34 0.0001249
*RES
1 *1016:X *1119:D 10.605 
*END

*D_NET *120 0.00128921
*CONN
*I *1120:D I *D sky130_fd_sc_hd__dfrtp_1
*I *1018:X O *D sky130_fd_sc_hd__mux2_1
*CAP
1 *1120:D 0.000445934
2 *1018:X 0.000445934
3 *1120:D *1120:CLK 9.98563e-05
4 *1120:D *270:36 0.000297489
*RES
1 *1018:X *1120:D 9.21875 
*END

*D_NET *121 0.000500618
*CONN
*I *1121:D I *D sky130_fd_sc_hd__dfrtp_4
*I *1029:X O *D sky130_fd_sc_hd__mux2_1
*CAP
1 *1121:D 0.000156803
2 *1029:X 0.000156803
3 *1121:D *1121:RESET_B 6.47516e-05
4 *1121:D *253:8 0.000122261
*RES
1 *1029:X *1121:D 9.72 
*END

*D_NET *122 0.000423439
*CONN
*I *1122:D I *D sky130_fd_sc_hd__dfrtp_2
*I *1034:X O *D sky130_fd_sc_hd__a22o_1
*CAP
1 *1122:D 0.000152729
2 *1034:X 0.000152729
3 *1122:D *1122:RESET_B 9.50342e-06
4 *1122:D *282:10 0
5 *1122:D *326:34 0.000108478
*RES
1 *1034:X *1122:D 10.365 
*END

*D_NET *123 0.00142923
*CONN
*I *1123:D I *D sky130_fd_sc_hd__dfrtp_1
*I *1041:X O *D sky130_fd_sc_hd__mux2_1
*CAP
1 *1123:D 0.000512813
2 *1041:X 0.000512813
3 *1123:D *1123:RESET_B 0.000156088
4 *1123:D *283:8 0.000136838
5 *1123:D *332:36 0.000110673
*RES
1 *1041:X *1123:D 12.29 
*END

*D_NET *124 0.000608917
*CONN
*I *1124:D I *D sky130_fd_sc_hd__dfrtp_1
*I *1046:X O *D sky130_fd_sc_hd__mux2_1
*CAP
1 *1124:D 0.000285971
2 *1046:X 0.000285971
3 *1124:D *1046:A0 0
4 *1124:D *239:44 3.69746e-05
5 *1124:D *336:8 0
*RES
1 *1046:X *1124:D 10.845 
*END

*D_NET *125 0.00296896
*CONN
*I *1125:D I *D sky130_fd_sc_hd__dfrtp_1
*I *1050:X O *D sky130_fd_sc_hd__o31a_1
*CAP
1 *1125:D 0.00085473
2 *1050:X 0.00085473
3 *1125:D *1030:A1 0.000136877
4 *1125:D *1084:B1 0
5 *1125:D *1085:C 0
6 *1125:D *1125:CLK 0
7 *1125:D *1125:RESET_B 0.000118651
8 *1125:D *1200:A 2.75538e-05
9 *1125:D *1201:A 0.000152104
10 *1125:D *1222:A 6.45236e-05
11 *1125:D *139:48 0
12 *1125:D *147:10 0
13 *1125:D *147:12 0
14 *1125:D *267:8 0.000123003
15 *1125:D *284:18 0.000546344
16 *1125:D *284:30 5.83373e-05
17 *1125:D *326:95 0
18 *1125:D *334:36 3.21052e-05
19 *1050:A1 *1125:D 0
*RES
1 *1050:X *1125:D 25.635 
*END

*D_NET *126 0.000660643
*CONN
*I *1126:D I *D sky130_fd_sc_hd__dfrtp_1
*I *1053:Y O *D sky130_fd_sc_hd__o21bai_1
*CAP
1 *1126:D 0.000126114
2 *1053:Y 0.000126114
3 *1126:D *1053:A2 8.78813e-05
4 *1126:D *1053:B1_N 0.000162332
5 *1126:D *1126:CLK 2.49909e-05
6 *1126:D *336:42 4.82919e-05
7 *1126:D *347:12 8.49205e-05
*RES
1 *1053:Y *1126:D 10.335 
*END

*D_NET *127 0.000440902
*CONN
*I *1127:D I *D sky130_fd_sc_hd__dfrtp_2
*I *1061:X O *D sky130_fd_sc_hd__mux2_1
*CAP
1 *1127:D 0.000150027
2 *1061:X 0.000150027
3 *1127:D *1061:S 7.60965e-05
4 *1127:D *1261:A 6.47516e-05
*RES
1 *1061:X *1127:D 9.72 
*END

*D_NET *128 0.00047794
*CONN
*I *1128:D I *D sky130_fd_sc_hd__dfrtp_2
*I *1069:X O *D sky130_fd_sc_hd__mux2_1
*CAP
1 *1128:D 0.000189407
2 *1069:X 0.000189407
3 *1128:D *1069:A0 9.91257e-05
4 *1128:D *1129:RESET_B 0
*RES
1 *1069:X *1128:D 9.81 
*END

*D_NET *129 0.000674902
*CONN
*I *1129:D I *D sky130_fd_sc_hd__dfrtp_1
*I *1077:X O *D sky130_fd_sc_hd__mux2_1
*CAP
1 *1129:D 0.000337451
2 *1077:X 0.000337451
*RES
1 *1077:X *1129:D 11.895 
*END

*D_NET *130 0.000536074
*CONN
*I *1130:D I *D sky130_fd_sc_hd__dfrtp_1
*I *1083:X O *D sky130_fd_sc_hd__o2bb2a_1
*CAP
1 *1130:D 0.000123639
2 *1083:X 0.000123639
3 *1130:D *986:A 0.000122331
4 *1130:D *1045:B2 9.14049e-05
5 *1130:D *1083:A1_N 6.80503e-05
6 *1130:D *1130:CLK 7.00889e-06
*RES
1 *1083:X *1130:D 9.915 
*END

*D_NET *131 0.000510728
*CONN
*I *1131:D I *D sky130_fd_sc_hd__dfrtp_2
*I *1088:X O *D sky130_fd_sc_hd__mux2_1
*CAP
1 *1131:D 0.00019034
2 *1088:X 0.00019034
3 *1131:D *1093:S 2.67022e-05
4 *1131:D *1131:CLK 3.07686e-05
5 *1131:D *1131:RESET_B 4.5105e-05
6 *1131:D *150:12 7.70304e-07
7 *115:10 *1131:D 2.97004e-06
8 *115:75 *1131:D 2.37321e-05
*RES
1 *1088:X *1131:D 9.94875 
*END

*D_NET *132 0.000717839
*CONN
*I *1132:D I *D sky130_fd_sc_hd__dfrtp_1
*I *1093:X O *D sky130_fd_sc_hd__mux2_1
*CAP
1 *1132:D 0.000358919
2 *1093:X 0.000358919
*RES
1 *1093:X *1132:D 11.19 
*END

*D_NET *133 0.000622605
*CONN
*I *1133:D I *D sky130_fd_sc_hd__dfrtp_1
*I *1098:X O *D sky130_fd_sc_hd__mux2_1
*CAP
1 *1133:D 0.000167871
2 *1098:X 0.000167871
3 *1133:D *1098:A0 0
4 *1133:D *1133:RESET_B 0.000118651
5 *1133:D *270:47 0
6 *1133:D *270:51 0
7 *1133:D *310:20 0.000168213
8 *118:12 *1133:D 0
*RES
1 *1098:X *1133:D 11.355 
*END

*D_NET *134 0.000825904
*CONN
*I *1155:D I *D sky130_fd_sc_hd__dfrtp_1
*I *1104:X O *D sky130_fd_sc_hd__a21o_1
*CAP
1 *1155:D 0.000226177
2 *1104:X 0.000226177
3 *1155:D *1155:RESET_B 0
4 *1155:D *239:14 9.5433e-05
5 *1155:D *285:28 0.000278117
*RES
1 *1104:X *1155:D 10.845 
*END

*D_NET *135 0.000341167
*CONN
*I *1156:D I *D sky130_fd_sc_hd__dfrtp_1
*I *1112:X O *D sky130_fd_sc_hd__or4b_1
*CAP
1 *1156:D 0.000114924
2 *1112:X 0.000114924
3 *1156:D *1111:A1 7.4027e-05
4 *1156:D *1112:B 0
5 *1156:D *285:28 3.72916e-05
*RES
1 *1112:X *1156:D 9.48 
*END

*D_NET *136 0.000374636
*CONN
*I *1157:D I *D sky130_fd_sc_hd__dfrtp_1
*I *1115:X O *D sky130_fd_sc_hd__or2_1
*CAP
1 *1157:D 0.0001193
2 *1115:X 0.0001193
3 *1157:D *1107:C1 8.65961e-05
4 *1157:D *1160:A 0
5 *1157:D *325:18 4.94404e-05
*RES
1 *1115:X *1157:D 9.12 
*END

*D_NET *137 0.000463829
*CONN
*I *1158:D I *D sky130_fd_sc_hd__dfrtp_1
*I *1118:X O *D sky130_fd_sc_hd__a211o_1
*CAP
1 *1158:D 0.000169464
2 *1118:X 0.000169464
3 *1158:D *1082:A2 0
4 *1158:D *139:16 0.0001249
5 *1158:D *167:25 0
*RES
1 *1118:X *1158:D 9.72 
*END

*D_NET *138 0.0011732
*CONN
*I *1008:B I *D sky130_fd_sc_hd__or2_1
*I *1099:B1 I *D sky130_fd_sc_hd__a21o_1
*I *1007:Y O *D sky130_fd_sc_hd__nor2_1
*CAP
1 *1008:B 0.000136961
2 *1099:B1 0.000239558
3 *1007:Y 0
4 *138:4 0.000376519
5 *1008:B *1008:A 4.92062e-05
6 *1008:B *1104:A1 0
7 *1008:B *285:18 3.68684e-05
8 *1099:B1 *1099:A2 0
9 *1099:B1 *1104:A2 0.000104218
10 *1099:B1 *1255:A 0.000203178
11 *1099:B1 *272:10 2.66935e-05
*RES
1 *1007:Y *138:4 1.6 
2 *138:4 *1099:B1 11.105 
3 *138:4 *1008:B 3.445 
*END

*D_NET *139 0.0100647
*CONN
*I *1014:B1 I *D sky130_fd_sc_hd__a21o_1
*I *1085:A I *D sky130_fd_sc_hd__or4_4
*I *1025:A I *D sky130_fd_sc_hd__nor3_2
*I *1030:B1 I *D sky130_fd_sc_hd__a2111o_1
*I *1059:A I *D sky130_fd_sc_hd__or3_4
*I *1082:D1 I *D sky130_fd_sc_hd__a2111o_1
*I *1013:X O *D sky130_fd_sc_hd__a2bb2o_4
*CAP
1 *1014:B1 1.49415e-05
2 *1085:A 0
3 *1025:A 3.72818e-05
4 *1030:B1 0.000239078
5 *1059:A 0
6 *1082:D1 7.704e-05
7 *1013:X 0
8 *139:48 0.000330572
9 *139:44 0.000354697
10 *139:42 0.00123619
11 *139:16 0.000806558
12 *139:4 0.00165028
13 *1014:B1 *1014:A2 1.37328e-05
14 *1025:A *1030:A2 4.82919e-05
15 *1025:A *1084:B1 2.86623e-05
16 *1025:A *1085:B 2.07184e-05
17 *1025:A *1200:A 4.82919e-05
18 *1025:A *147:10 9.50342e-06
19 *1025:A *147:12 5.16418e-05
20 *1025:A *326:95 1.07797e-05
21 *1030:B1 *1030:A2 1.91597e-05
22 *1030:B1 *1030:C1 0.000311288
23 *1082:D1 *1083:A2_N 0
24 *1082:D1 *173:14 5.23362e-05
25 *1082:D1 *176:14 0.000136182
26 *139:16 *1054:B 7.08913e-05
27 *139:16 *1059:C 4.82863e-05
28 *139:16 *173:14 8.23457e-05
29 *139:16 *320:18 0.00116044
30 *139:16 *320:31 6.25365e-05
31 *139:42 *1050:A3 0
32 *139:42 *1084:A2 4.82863e-05
33 *139:42 *1112:A 0
34 *139:42 *1112:B 0
35 *139:42 *1115:B 0
36 *139:42 *1156:RESET_B 0.000366964
37 *139:42 *140:16 1.34503e-05
38 *139:42 *271:73 0
39 *139:42 *310:95 0.00103904
40 *139:42 *310:110 0.000834582
41 *139:42 *320:18 8.65905e-05
42 *139:44 *1084:A2 0.000159741
43 *139:44 *1084:B1 8.52595e-05
44 *139:44 *1084:D1 4.82919e-05
45 *139:44 *1085:C 9.23005e-05
46 *139:44 *1085:D 7.60965e-05
47 *139:44 *140:16 3.03775e-05
48 *139:48 *1084:B1 5.83373e-05
49 *139:48 *1085:B 7.06865e-05
50 *139:48 *1085:C 8.09021e-06
51 *1125:D *139:48 0
52 *1158:D *139:16 0.0001249
*RES
1 *1013:X *139:4 1.6 
2 *139:4 *139:16 13.47 
3 *139:16 *1082:D1 7.235 
4 *139:16 *1059:A 1.6 
5 *139:4 *139:42 27.025 
6 *139:42 *139:44 6.315 
7 *139:44 *139:48 3.38 
8 *139:48 *1030:B1 6.81 
9 *139:48 *1025:A 4.92 
10 *139:44 *1085:A 1.6 
11 *139:42 *1014:B1 1.96 
*END

*D_NET *140 0.00153773
*CONN
*I *1016:S I *D sky130_fd_sc_hd__mux2_1
*I *1018:S I *D sky130_fd_sc_hd__mux2_1
*I *1014:X O *D sky130_fd_sc_hd__a21o_1
*CAP
1 *1016:S 0.000144206
2 *1018:S 0
3 *1014:X 0.000280704
4 *140:16 0.00042491
5 *1016:S *333:34 0.000210411
6 *140:16 *1156:RESET_B 3.67779e-05
7 *140:16 *270:23 7.8831e-05
8 *140:16 *310:95 0.000273695
9 *140:16 *333:34 4.43682e-05
10 *139:42 *140:16 1.34503e-05
11 *139:44 *140:16 3.03775e-05
*RES
1 *1014:X *140:16 11.405 
2 *140:16 *1018:S 1.6 
3 *140:16 *1016:S 4.81 
*END

*D_NET *141 0.00119948
*CONN
*I *1016:A0 I *D sky130_fd_sc_hd__mux2_1
*I *1015:X O *D sky130_fd_sc_hd__mux2_1
*CAP
1 *1016:A0 0.000416372
2 *1015:X 0.000416372
3 *1016:A0 *1015:A0 1.94892e-05
4 *1016:A0 *1015:S 0
5 *1016:A0 *1017:A1 4.82863e-05
6 *1016:A0 *1018:A0 0
7 *1016:A0 *243:16 0.000176629
8 *1016:A0 *333:34 0.000122337
9 *1119:D *1016:A0 0
*RES
1 *1015:X *1016:A0 14.76 
*END

*D_NET *142 0.00142438
*CONN
*I *1018:A0 I *D sky130_fd_sc_hd__mux2_1
*I *1017:X O *D sky130_fd_sc_hd__mux2_1
*CAP
1 *1018:A0 0.00032781
2 *1017:X 0.00032781
3 *1018:A0 *1017:A0 5.33085e-05
4 *1018:A0 *1017:A1 0.0001249
5 *1018:A0 *310:20 0.000201915
6 *1018:A0 *310:95 0.000248254
7 *1018:A0 *333:34 4.66108e-05
8 *1016:A0 *1018:A0 0
9 *1119:D *1018:A0 9.37731e-05
*RES
1 *1017:X *1018:A0 14.76 
*END

*D_NET *143 0.000686193
*CONN
*I *1033:A2 I *D sky130_fd_sc_hd__a221o_1
*I *1019:Y O *D sky130_fd_sc_hd__nor2_1
*CAP
1 *1033:A2 0.000156219
2 *1019:Y 0.000156219
3 *1033:A2 *1029:S 3.09364e-05
4 *1033:A2 *1033:A1 0.000141548
5 *1033:A2 *1034:B1 0.00015298
6 *1033:A2 *1045:A2 4.82919e-05
*RES
1 *1019:Y *1033:A2 10.4738 
*END

*D_NET *144 0.000517203
*CONN
*I *1039:A1 I *D sky130_fd_sc_hd__a21oi_1
*I *1020:X O *D sky130_fd_sc_hd__or3_1
*CAP
1 *1039:A1 0.000112605
2 *1020:X 0.000112605
3 *1039:A1 *1033:A1 4.82863e-05
4 *1039:A1 *1034:B1 8.97486e-05
5 *1039:A1 *1039:A2 8.65905e-05
6 *1039:A1 *281:44 6.73665e-05
*RES
1 *1020:X *1039:A1 10.23 
*END

*D_NET *145 0.00224389
*CONN
*I *1265:A I *D sky130_fd_sc_hd__clkbuf_1
*I *1044:A1 I *D sky130_fd_sc_hd__o21a_1
*I *1021:Y O *D sky130_fd_sc_hd__nor4_1
*CAP
1 *1265:A 0.000257574
2 *1044:A1 0.000110467
3 *1021:Y 5.58057e-05
4 *145:10 0.000423848
5 *1044:A1 *1043:A2 4.82919e-05
6 *1044:A1 *1043:B1 1.16578e-05
7 *1044:A1 *1044:A2 4.99619e-05
8 *1044:A1 *281:65 4.66108e-05
9 *1044:A1 *281:74 4.21757e-05
10 *1044:A1 *283:58 2.8694e-05
11 *1265:A *1022:A 4.98715e-05
12 *1265:A *1022:B 0.000193806
13 *1265:A *1022:C 0.000307982
14 *1265:A *1043:B1 0.000111285
15 *1265:A *1110:D 2.66586e-05
16 *1265:A *146:10 8.26509e-05
17 *1265:A *281:74 1.17409e-05
18 *1265:A *283:58 0.000273878
19 *1265:A *284:18 1.61831e-05
20 *145:10 *1021:D 0
21 *145:10 *283:54 9.47454e-05
*RES
1 *1021:Y *145:10 6.725 
2 *145:10 *1044:A1 4.135 
3 *145:10 *1265:A 9.22 
*END

*D_NET *146 0.00459814
*CONN
*I *1084:C1 I *D sky130_fd_sc_hd__o2111a_1
*I *1114:A3 I *D sky130_fd_sc_hd__o31ai_1
*I *1111:A3 I *D sky130_fd_sc_hd__a31o_1
*I *1022:X O *D sky130_fd_sc_hd__or4_1
*CAP
1 *1084:C1 0.000318411
2 *1114:A3 0.000169969
3 *1111:A3 4.33284e-05
4 *1022:X 0.000163389
5 *146:16 0.000354267
6 *146:10 0.00062277
7 *1084:C1 *982:A 0.000123225
8 *1084:C1 *1084:A1 0
9 *1084:C1 *1084:D1 0.000222184
10 *1084:C1 *1156:RESET_B 0
11 *1084:C1 *1203:A 0.000139252
12 *1084:C1 *226:40 2.8185e-05
13 *1084:C1 *270:23 0
14 *1084:C1 *323:10 0.000187281
15 *1111:A3 *1111:A1 1.33285e-05
16 *1111:A3 *1111:A2 4.66108e-05
17 *1111:A3 *1112:C 4.66108e-05
18 *1111:A3 *239:44 6.33103e-05
19 *1114:A3 *1048:A 4.66108e-05
20 *1114:A3 *1112:A 0.000356583
21 *1114:A3 *1112:C 0.000114024
22 *1114:A3 *1114:A2 0.000250609
23 *1114:A3 *167:8 4.66108e-05
24 *1114:A3 *239:32 2.05056e-05
25 *1114:A3 *239:44 5.05521e-05
26 *1114:A3 *327:33 5.53249e-06
27 *1114:A3 *327:37 0
28 *146:10 *982:A 4.82863e-05
29 *146:10 *1110:D 9.7174e-05
30 *146:10 *323:10 0.000274654
31 *146:16 *982:A 0.000181376
32 *146:16 *1084:D1 2.54692e-05
33 *146:16 *1111:A1 0.000268278
34 *146:16 *1125:CLK 8.09021e-06
35 *146:16 *327:37 0.000179015
36 *1265:A *146:10 8.26509e-05
*RES
1 *1022:X *146:10 5.875 
2 *146:10 *146:16 8.44 
3 *146:16 *1111:A3 2.74 
4 *146:16 *1114:A3 11.375 
5 *146:10 *1084:C1 13.655 
*END

*D_NET *147 0.00272162
*CONN
*I *1025:B I *D sky130_fd_sc_hd__nor3_2
*I *1030:C1 I *D sky130_fd_sc_hd__a2111o_1
*I *1085:B I *D sky130_fd_sc_hd__or4_4
*I *1023:X O *D sky130_fd_sc_hd__o211a_4
*CAP
1 *1025:B 0
2 *1030:C1 7.08733e-05
3 *1085:B 9.88039e-05
4 *1023:X 0.000658423
5 *147:12 0.000203219
6 *147:10 0.000691965
7 *1030:C1 *1030:A2 6.29692e-05
8 *1030:C1 *148:16 0.000275548
9 *1085:B *1085:C 0.000135135
10 *147:10 *326:95 5.00699e-05
11 *147:12 *1085:C 1.07797e-05
12 *1025:A *1085:B 2.07184e-05
13 *1025:A *147:10 9.50342e-06
14 *1025:A *147:12 5.16418e-05
15 *1030:B1 *1030:C1 0.000311288
16 *1125:D *147:10 0
17 *1125:D *147:12 0
18 *139:48 *1085:B 7.06865e-05
*RES
1 *1023:X *147:10 12.585 
2 *147:10 *147:12 0.615 
3 *147:12 *1085:B 5.52 
4 *147:12 *1030:C1 6.81 
5 *147:10 *1025:B 3.6 
*END

*D_NET *148 0.00280375
*CONN
*I *1030:D1 I *D sky130_fd_sc_hd__a2111o_1
*I *1025:C I *D sky130_fd_sc_hd__nor3_2
*I *1085:C I *D sky130_fd_sc_hd__or4_4
*I *1024:X O *D sky130_fd_sc_hd__and3b_1
*CAP
1 *1030:D1 0
2 *1025:C 0
3 *1085:C 0.00018684
4 *1024:X 0.000245961
5 *148:16 0.000263072
6 *148:12 0.000322192
7 *148:12 *1030:A1 1.01661e-05
8 *148:12 *1200:A 0.000183043
9 *148:12 *267:8 0.000253358
10 *148:12 *284:30 8.23457e-05
11 *148:12 *326:28 1.17409e-05
12 *148:16 *1030:A2 0.000124895
13 *148:16 *1200:A 8.82557e-05
14 *148:16 *149:10 4.88721e-05
15 *1030:C1 *148:16 0.000275548
16 *1050:A1 *148:12 0.000461155
17 *1085:B *1085:C 0.000135135
18 *1125:D *1085:C 0
19 *139:44 *1085:C 9.23005e-05
20 *139:48 *1085:C 8.09021e-06
21 *147:12 *1085:C 1.07797e-05
*RES
1 *1024:X *148:12 12.2 
2 *148:12 *148:16 3.225 
3 *148:16 *1085:C 9.13625 
4 *148:16 *1025:C 1.6 
5 *148:12 *1030:D1 1.6 
*END

*D_NET *149 0.00665762
*CONN
*I *1046:S I *D sky130_fd_sc_hd__mux2_1
*I *1029:S I *D sky130_fd_sc_hd__mux2_1
*I *1034:B2 I *D sky130_fd_sc_hd__a22o_1
*I *1041:S I *D sky130_fd_sc_hd__mux2_1
*I *1025:Y O *D sky130_fd_sc_hd__nor3_2
*CAP
1 *1046:S 0
2 *1029:S 0.000573256
3 *1034:B2 2.08101e-05
4 *1041:S 3.51402e-05
5 *1025:Y 0.000573112
6 *149:32 0.00101402
7 *149:12 0.000190384
8 *149:10 0.00114831
9 *1029:S *1027:A1_N 7.112e-05
10 *1029:S *1027:A2_N 0.00011614
11 *1029:S *1027:B2 4.99619e-05
12 *1029:S *1028:A2 2.53191e-06
13 *1029:S *1028:B1 5.19247e-05
14 *1029:S *1029:A0 8.41307e-05
15 *1029:S *1033:B2 0.000146388
16 *1029:S *1215:A 3.5812e-05
17 *1029:S *239:44 0.000107415
18 *1029:S *253:8 0.000697419
19 *1029:S *281:20 1.50513e-05
20 *1041:S *1034:B1 3.00381e-05
21 *1041:S *283:25 1.82667e-05
22 *149:10 *1034:A2 0.000696899
23 *149:10 *1200:A 0.00023468
24 *149:12 *1034:A1 2.0514e-05
25 *149:12 *1034:A2 0.000163199
26 *149:12 *1034:B1 5.30673e-05
27 *149:32 *1019:B 0
28 *149:32 *1045:A2 1.08723e-05
29 *149:32 *1045:B2 0.000177554
30 *149:32 *1045:C1 3.69421e-05
31 *149:32 *1046:A1 0
32 *149:32 *281:65 0
33 *149:32 *282:21 0
34 *149:32 *326:28 0.000202857
35 *149:32 *326:34 0
36 *1033:A2 *1029:S 3.09364e-05
37 *148:16 *149:10 4.88721e-05
*RES
1 *1025:Y *149:10 12.34 
2 *149:10 *149:12 2.865 
3 *149:12 *1041:S 2.395 
4 *149:12 *1034:B2 1.96 
5 *149:10 *149:32 12.265 
6 *149:32 *1029:S 18.905 
7 *149:32 *1046:S 1.6 
*END

*D_NET *150 0.0125979
*CONN
*I *1097:B1 I *D sky130_fd_sc_hd__a221o_1
*I *1092:B1 I *D sky130_fd_sc_hd__a221o_1
*I *1045:B1 I *D sky130_fd_sc_hd__a221o_1
*I *1033:B1 I *D sky130_fd_sc_hd__a221o_1
*I *1028:A2 I *D sky130_fd_sc_hd__a21o_1
*I *1040:B1 I *D sky130_fd_sc_hd__a221o_1
*I *1087:B1 I *D sky130_fd_sc_hd__a221o_1
*I *1026:Y O *D sky130_fd_sc_hd__nor2_2
*CAP
1 *1097:B1 0.000208084
2 *1092:B1 0.000778849
3 *1045:B1 0.000264646
4 *1033:B1 0.000142606
5 *1028:A2 0.000266451
6 *1040:B1 0
7 *1087:B1 0
8 *1026:Y 0
9 *150:85 0.0012018
10 *150:59 0.000826391
11 *150:38 0.000760048
12 *150:29 0.000613328
13 *150:12 0.00165965
14 *150:4 0.00133566
15 *1028:A2 *1028:A1 4.89295e-05
16 *1028:A2 *1028:B1 0.000138584
17 *1028:A2 *1031:A 2.01504e-05
18 *1028:A2 *1040:B2 0.000269717
19 *1028:A2 *252:14 0
20 *1028:A2 *281:20 0.000153889
21 *1033:B1 *1033:A1 0.000130938
22 *1033:B1 *1033:C1 2.99518e-06
23 *1033:B1 *1199:A 0
24 *1033:B1 *281:44 5.23362e-05
25 *1045:B1 *1019:A 5.83121e-06
26 *1045:B1 *1019:B 0.000127118
27 *1045:B1 *1045:A1 0.000197269
28 *1045:B1 *1045:A2 8.96913e-05
29 *1045:B1 *1045:B2 2.66464e-05
30 *1092:B1 *1092:B2 1.75875e-05
31 *1092:B1 *1092:C1 2.67184e-05
32 *1092:B1 *1097:B2 0.000158066
33 *1092:B1 *1256:A 2.91399e-05
34 *1092:B1 *310:34 0.00089076
35 *1092:B1 *310:58 9.54469e-05
36 *1097:B1 *1097:A2 0
37 *1097:B1 *1097:B2 6.03947e-06
38 *1097:B1 *1098:A0 0
39 *1097:B1 *310:24 2.16917e-05
40 *150:12 *1026:A 7.35813e-05
41 *150:12 *1087:A1 7.20529e-05
42 *150:12 *1087:A2 0.000137277
43 *150:12 *1131:CLK 3.09088e-05
44 *150:12 *1131:RESET_B 0.000228851
45 *150:12 *332:40 0
46 *150:29 *1040:A1 4.63403e-05
47 *150:29 *1086:B 0
48 *150:29 *1087:A1 9.09788e-06
49 *150:29 *252:14 0
50 *150:29 *332:24 0.000107184
51 *150:29 *334:36 7.01359e-05
52 *150:38 *1040:A1 9.50342e-06
53 *150:38 *1040:B2 7.06865e-05
54 *150:38 *252:14 0
55 *150:38 *332:24 2.05583e-05
56 *150:59 *1019:A 1.91597e-05
57 *150:59 *281:20 5.43583e-05
58 *150:59 *281:36 0.000199541
59 *150:59 *332:24 4.41506e-05
60 *150:85 *1097:C1 5.11148e-06
61 *150:85 *310:58 0.00043801
62 *1010:B *1092:B1 9.1566e-05
63 *1011:A *1097:B1 5.70737e-05
64 *1011:B *1097:B1 0
65 *1029:S *1028:A2 2.53191e-06
66 *1094:B1 *150:85 2.7881e-05
67 *1131:D *150:12 7.70304e-07
68 *115:8 *150:12 1.39472e-05
69 *116:28 *1097:B1 1.08758e-05
70 *116:45 *1092:B1 2.92496e-05
71 *116:45 *1097:B1 4.66108e-05
72 *116:45 *150:85 0.000113797
*RES
1 *1026:Y *150:4 1.6 
2 *150:4 *150:12 16.415 
3 *150:12 *1087:B1 3.6 
4 *150:12 *150:29 9.375 
5 *150:29 *1040:B1 3.6 
6 *150:29 *150:38 1.38 
7 *150:38 *1028:A2 10.095 
8 *150:38 *150:59 7.28 
9 *150:59 *1033:B1 8.51 
10 *150:59 *1045:B1 6.655 
11 *150:4 *150:85 7.205 
12 *150:85 *1092:B1 18 
13 *150:85 *1097:B1 6.495 
*END

*D_NET *151 0.000644089
*CONN
*I *1028:B1 I *D sky130_fd_sc_hd__a21o_1
*I *1027:X O *D sky130_fd_sc_hd__a2bb2o_1
*CAP
1 *1028:B1 0.000197989
2 *1027:X 0.000197989
3 *1028:B1 *1028:A1 2.71311e-05
4 *1028:B1 *1031:A 3.04704e-05
5 *1028:A2 *1028:B1 0.000138584
6 *1029:S *1028:B1 5.19247e-05
*RES
1 *1027:X *1028:B1 10.62 
*END

*D_NET *152 0.000291999
*CONN
*I *1029:A1 I *D sky130_fd_sc_hd__mux2_1
*I *1028:X O *D sky130_fd_sc_hd__a21o_1
*CAP
1 *1029:A1 5.90489e-05
2 *1028:X 5.90489e-05
3 *1029:A1 *1029:A0 2.75145e-05
4 *1029:A1 *1215:A 7.23602e-05
5 *1029:A1 *252:14 7.4027e-05
*RES
1 *1028:X *1029:A1 8.52 
*END

*D_NET *153 0.00170864
*CONN
*I *1034:A2 I *D sky130_fd_sc_hd__a22o_1
*I *1030:X O *D sky130_fd_sc_hd__a2111o_1
*CAP
1 *1034:A2 0.000229042
2 *1030:X 0.000229042
3 *1034:A2 *1034:A1 0.00039046
4 *149:10 *1034:A2 0.000696899
5 *149:12 *1034:A2 0.000163199
*RES
1 *1030:X *1034:A2 10.895 
*END

*D_NET *154 0.000371949
*CONN
*I *1033:C1 I *D sky130_fd_sc_hd__a221o_1
*I *1031:X O *D sky130_fd_sc_hd__and2_1
*CAP
1 *1033:C1 0.000163492
2 *1031:X 0.000163492
3 *1033:C1 *1034:B1 0
4 *1033:C1 *1199:A 4.19688e-05
5 *1033:B1 *1033:C1 2.99518e-06
*RES
1 *1031:X *1033:C1 9.375 
*END

*D_NET *155 0.0046119
*CONN
*I *1068:A1 I *D sky130_fd_sc_hd__a211o_1
*I *1033:B2 I *D sky130_fd_sc_hd__a221o_1
*I *1032:X O *D sky130_fd_sc_hd__xor2_1
*CAP
1 *1068:A1 0
2 *1033:B2 0.000649647
3 *1032:X 0.000580999
4 *155:18 0.00123065
5 *1033:B2 *1064:B 0
6 *1033:B2 *1064:C 1.01661e-05
7 *1033:B2 *1068:B1 0.000258509
8 *1033:B2 *1076:B1 0
9 *1033:B2 *1199:A 0.000378945
10 *1033:B2 *250:58 6.74403e-05
11 *1033:B2 *320:64 0.000181376
12 *1033:B2 *320:68 0.00018297
13 *1033:B2 *320:70 7.73064e-05
14 *155:18 *989:A 4.89295e-05
15 *155:18 *1037:A 0.000122797
16 *155:18 *1042:B 0
17 *155:18 *1068:B1 5.53249e-06
18 *155:18 *1068:C1 5.00612e-05
19 *155:18 *1069:A0 2.66935e-05
20 *155:18 *1263:A 0.000573
21 *155:18 *233:10 2.04923e-05
22 *1029:S *1033:B2 0.000146388
*RES
1 *1032:X *155:18 17.035 
2 *155:18 *1033:B2 20.1187 
3 *155:18 *1068:A1 3.6 
*END

*D_NET *156 0.00170794
*CONN
*I *1034:B1 I *D sky130_fd_sc_hd__a22o_1
*I *1033:X O *D sky130_fd_sc_hd__a221o_1
*CAP
1 *1034:B1 0.000484782
2 *1033:X 0.000484782
3 *1034:B1 *991:A 0
4 *1034:B1 *1019:B 0.000157091
5 *1034:B1 *1033:A1 8.53506e-05
6 *1034:B1 *1039:A2 2.25079e-05
7 *1034:B1 *1045:A1 0
8 *1034:B1 *268:10 0
9 *1034:B1 *281:44 0
10 *1034:B1 *283:25 0.000147597
11 *1033:A2 *1034:B1 0.00015298
12 *1033:C1 *1034:B1 0
13 *1039:A1 *1034:B1 8.97486e-05
14 *1041:S *1034:B1 3.00381e-05
15 *149:12 *1034:B1 5.30673e-05
*RES
1 *1033:X *1034:B1 16.86 
*END

*D_NET *157 0.00136415
*CONN
*I *1037:A I *D sky130_fd_sc_hd__nor2_1
*I *1035:Y O *D sky130_fd_sc_hd__a21oi_1
*CAP
1 *1037:A 0.000213981
2 *1035:Y 0.000213981
3 *1037:A *989:A 8.86759e-05
4 *1037:A *1032:B 0.000117116
5 *1037:A *1035:A2 6.71882e-05
6 *1037:A *1037:B 0.000392382
7 *1037:A *158:6 0.000124895
8 *1037:A *233:10 1.33293e-05
9 *1037:A *260:36 9.80943e-06
10 *155:18 *1037:A 0.000122797
*RES
1 *1035:Y *1037:A 9.785 
*END

*D_NET *158 0.00198335
*CONN
*I *1037:B I *D sky130_fd_sc_hd__nor2_1
*I *1042:B I *D sky130_fd_sc_hd__xor2_1
*I *1036:X O *D sky130_fd_sc_hd__and3_1
*CAP
1 *1037:B 0.000309574
2 *1042:B 0.00031628
3 *1036:X 8.10885e-05
4 *158:6 0.000706943
5 *1037:B *159:12 4.89295e-05
6 *1037:B *233:10 3.2606e-06
7 *1042:B *261:10 0
8 *1042:B *261:14 0
9 *1042:B *335:50 0
10 *1037:A *1037:B 0.000392382
11 *1037:A *158:6 0.000124895
12 *155:18 *1042:B 0
*RES
1 *1036:X *158:6 2.74 
2 *158:6 *1042:B 10.295 
3 *158:6 *1037:B 6.475 
*END

*D_NET *159 0.00404926
*CONN
*I *1076:A1 I *D sky130_fd_sc_hd__a211o_1
*I *1040:B2 I *D sky130_fd_sc_hd__a221o_1
*I *1037:Y O *D sky130_fd_sc_hd__nor2_1
*CAP
1 *1076:A1 1.59267e-05
2 *1040:B2 0.000713704
3 *1037:Y 0.000150038
4 *159:12 0.000879669
5 *1040:B2 *1027:A2_N 1.52945e-05
6 *1040:B2 *1027:B2 0.000215505
7 *1040:B2 *1028:A1 0.000470149
8 *1040:B2 *1040:C1 5.40534e-05
9 *1040:B2 *1062:B 3.57924e-05
10 *1040:B2 *1076:B1 0.000633787
11 *1040:B2 *233:10 4.70326e-05
12 *1040:B2 *239:46 3.32811e-05
13 *1040:B2 *250:21 3.23391e-05
14 *1040:B2 *250:58 1.14559e-05
15 *1040:B2 *252:14 0
16 *1040:B2 *281:20 2.03801e-05
17 *1040:B2 *320:70 0
18 *1040:B2 *332:24 0.000114492
19 *1076:A1 *1076:A2 1.82559e-05
20 *1076:A1 *1076:B1 1.88904e-05
21 *1076:A1 *1077:A0 6.12675e-06
22 *159:12 *1077:A0 1.33205e-05
23 *159:12 *233:10 0.000160433
24 *1028:A2 *1040:B2 0.000269717
25 *1037:B *159:12 4.89295e-05
26 *150:38 *1040:B2 7.06865e-05
*RES
1 *1037:Y *159:12 6.4575 
2 *159:12 *1040:B2 22.8225 
3 *159:12 *1076:A1 4.00875 
*END

*D_NET *160 0.00107792
*CONN
*I *1039:A2 I *D sky130_fd_sc_hd__a21oi_1
*I *1038:Y O *D sky130_fd_sc_hd__o21ai_1
*CAP
1 *1039:A2 0.000214252
2 *1038:Y 0.000214252
3 *1039:A2 *1019:B 0.000139933
4 *1039:A2 *1033:A1 0.000103554
5 *1039:A2 *283:25 5.16348e-05
6 *1039:A2 *326:34 0.000245192
7 *1034:B1 *1039:A2 2.25079e-05
8 *1039:A1 *1039:A2 8.65905e-05
*RES
1 *1038:Y *1039:A2 12.63 
*END

*D_NET *161 0.00105755
*CONN
*I *1040:C1 I *D sky130_fd_sc_hd__a221o_1
*I *1039:Y O *D sky130_fd_sc_hd__a21oi_1
*CAP
1 *1040:C1 0.000292465
2 *1039:Y 0.000292465
3 *1040:C1 *1039:B1 0.000157343
4 *1040:C1 *1040:A1 0.000159329
5 *1040:C1 *1040:A2 0.000101894
6 *1040:B2 *1040:C1 5.40534e-05
*RES
1 *1039:Y *1040:C1 9.2 
*END

*D_NET *162 0.0015732
*CONN
*I *1041:A1 I *D sky130_fd_sc_hd__mux2_1
*I *1040:X O *D sky130_fd_sc_hd__a221o_1
*CAP
1 *1041:A1 0.000420603
2 *1040:X 0.000420603
3 *1041:A1 *1086:B 0.000251595
4 *1041:A1 *1198:A 0
5 *1041:A1 *1199:A 0
6 *1041:A1 *268:10 0
7 *1041:A1 *283:8 0.00043044
8 *1041:A1 *283:25 4.99619e-05
*RES
1 *1040:X *1041:A1 14.355 
*END

*D_NET *163 0.00527601
*CONN
*I *1082:A1 I *D sky130_fd_sc_hd__a2111o_1
*I *1045:B2 I *D sky130_fd_sc_hd__a221o_1
*I *1042:X O *D sky130_fd_sc_hd__xor2_1
*CAP
1 *1082:A1 0.000424147
2 *1045:B2 0.000765528
3 *1042:X 0.000794024
4 *163:6 0.0019837
5 *1045:B2 *991:A 0
6 *1045:B2 *1045:A1 0
7 *1045:B2 *1045:A2 8.525e-06
8 *1045:B2 *1045:C1 5.53249e-06
9 *1045:B2 *1046:A0 0
10 *1045:B2 *1083:A1_N 1.82476e-05
11 *1045:B2 *1083:B1 0
12 *1045:B2 *235:10 0
13 *1045:B2 *280:19 0
14 *1082:A1 *1083:A2_N 4.7672e-05
15 *1082:A1 *1083:B2 0.0003104
16 *163:6 *990:A 5.30673e-05
17 *163:6 *1060:A1 0.000311294
18 *163:6 *1062:A 8.34281e-06
19 *163:6 *1062:B 0.000107363
20 *163:6 *1064:B 8.11372e-05
21 *163:6 *1083:A1_N 5.87706e-05
22 *163:6 *1083:A2_N 2.65814e-06
23 *1045:B1 *1045:B2 2.66464e-05
24 *1130:D *1045:B2 9.14049e-05
25 *149:32 *1045:B2 0.000177554
*RES
1 *1042:X *163:6 14.815 
2 *163:6 *1045:B2 18.695 
3 *163:6 *1082:A1 8.635 
*END

*D_NET *164 0.000143707
*CONN
*I *1044:A2 I *D sky130_fd_sc_hd__o21a_1
*I *1043:X O *D sky130_fd_sc_hd__o31a_1
*CAP
1 *1044:A2 4.68726e-05
2 *1043:X 4.68726e-05
3 *1044:A1 *1044:A2 4.99619e-05
*RES
1 *1043:X *1044:A2 3.995 
*END

*D_NET *165 0.000309117
*CONN
*I *1045:C1 I *D sky130_fd_sc_hd__a221o_1
*I *1044:X O *D sky130_fd_sc_hd__o21a_1
*CAP
1 *1045:C1 0.000104362
2 *1044:X 0.000104362
3 *1045:C1 *1019:B 0
4 *1045:C1 *1045:A1 2.7881e-05
5 *1045:C1 *326:30 3.00381e-05
6 *1045:B2 *1045:C1 5.53249e-06
7 *149:32 *1045:C1 3.69421e-05
*RES
1 *1044:X *1045:C1 9.03 
*END

*D_NET *166 0.000324115
*CONN
*I *1046:A1 I *D sky130_fd_sc_hd__mux2_1
*I *1045:X O *D sky130_fd_sc_hd__a221o_1
*CAP
1 *1046:A1 0.000120809
2 *1045:X 0.000120809
3 *1046:A1 *1045:A2 4.43871e-06
4 *1046:A1 *1046:A0 2.75145e-05
5 *1046:A1 *239:44 5.05437e-05
6 *149:32 *1046:A1 0
*RES
1 *1045:X *1046:A1 9.375 
*END

*D_NET *167 0.00779202
*CONN
*I *1103:A2 I *D sky130_fd_sc_hd__a211o_1
*I *1048:B I *D sky130_fd_sc_hd__nand2_1
*I *1053:A2 I *D sky130_fd_sc_hd__o21bai_1
*I *1052:A2 I *D sky130_fd_sc_hd__o211a_1
*I *1107:A3 I *D sky130_fd_sc_hd__a311o_1
*I *1050:A2 I *D sky130_fd_sc_hd__o31a_1
*I *1047:X O *D sky130_fd_sc_hd__and3_2
*CAP
1 *1103:A2 0.000371569
2 *1048:B 0
3 *1053:A2 0.000249876
4 *1052:A2 0.000133679
5 *1107:A3 0.000201486
6 *1050:A2 5.38386e-05
7 *1047:X 0
8 *167:36 0.000780855
9 *167:25 0.00111233
10 *167:17 0.000530717
11 *167:8 0.000517246
12 *167:4 0.000817807
13 *1050:A2 *1050:A3 0.000164874
14 *1050:A2 *1050:B1 7.60965e-05
15 *1052:A2 *1052:C1 4.00541e-06
16 *1052:A2 *325:22 0.00016569
17 *1053:A2 *1052:A1 0
18 *1053:A2 *1052:B1 0
19 *1053:A2 *1053:B1_N 3.09364e-05
20 *1103:A2 *1005:B_N 0.000201508
21 *1103:A2 *1047:A 4.66108e-05
22 *1103:A2 *1047:C 2.03356e-05
23 *1103:A2 *1103:B1 4.18603e-06
24 *1103:A2 *328:14 0
25 *1103:A2 *331:89 0
26 *1107:A3 *173:14 0.000185295
27 *1107:A3 *217:8 4.66826e-05
28 *167:8 *1047:C 3.17194e-05
29 *167:8 *1048:A 0.000367706
30 *167:8 *1050:A3 0.000521753
31 *167:8 *1050:B1 2.75145e-05
32 *167:8 *1114:B1 0.000351262
33 *167:17 *1048:A 5.4155e-06
34 *167:17 *1050:B1 4.00541e-06
35 *167:25 *1054:A 0
36 *167:25 *1105:A_N 0
37 *167:25 *1112:A 0
38 *167:25 *1115:A 0
39 *167:25 *1118:A2 6.5525e-05
40 *167:25 *1118:B1 0.000566996
41 *167:25 *1158:CLK 0
42 *167:36 *1052:B1 0
43 *167:36 *1105:A_N 0
44 *167:36 *1115:A 0
45 *1114:A3 *167:8 4.66108e-05
46 *1126:D *1053:A2 8.78813e-05
47 *1158:D *167:25 0
*RES
1 *1047:X *167:4 1.6 
2 *167:4 *167:8 11.67 
3 *167:8 *1050:A2 3.43 
4 *167:8 *167:17 0.36 
5 *167:17 *167:25 12.605 
6 *167:25 *1107:A3 7.845 
7 *167:25 *167:36 6.225 
8 *167:36 *1052:A2 6.48 
9 *167:36 *1053:A2 8.04 
10 *167:17 *1048:B 1.6 
11 *167:4 *1103:A2 10.535 
*END

*D_NET *168 0.000314264
*CONN
*I *1050:B1 I *D sky130_fd_sc_hd__o31a_1
*I *1048:Y O *D sky130_fd_sc_hd__nand2_1
*CAP
1 *1050:B1 0.000103324
2 *1048:Y 0.000103324
3 *1050:B1 *1048:A 0
4 *1050:A2 *1050:B1 7.60965e-05
5 *167:8 *1050:B1 2.75145e-05
6 *167:17 *1050:B1 4.00541e-06
*RES
1 *1048:Y *1050:B1 5.045 
*END

*D_NET *169 0.00479712
*CONN
*I *1108:B1 I *D sky130_fd_sc_hd__a21o_1
*I *1050:A3 I *D sky130_fd_sc_hd__o31a_1
*I *1049:X O *D sky130_fd_sc_hd__and2_1
*CAP
1 *1108:B1 0
2 *1050:A3 0.000459545
3 *1049:X 0.000809777
4 *169:16 0.00126932
5 *1050:A3 *1112:A 0
6 *1050:A3 *1114:A2 2.87433e-05
7 *169:16 *995:A_N 4.66108e-05
8 *169:16 *995:C 4.66108e-05
9 *169:16 *1108:A2 8.40213e-05
10 *169:16 *1159:A 6.55406e-05
11 *169:16 *1207:A 0.000695029
12 *169:16 *1211:A 2.75145e-05
13 *169:16 *330:51 8.65439e-05
14 *169:16 *330:64 6.55406e-05
15 *169:16 *330:116 0.00015896
16 *169:16 *331:6 0.000216177
17 *169:16 *331:12 5.05521e-05
18 *1050:A2 *1050:A3 0.000164874
19 *139:42 *1050:A3 0
20 *167:8 *1050:A3 0.000521753
*RES
1 *1049:X *169:16 24.11 
2 *169:16 *1050:A3 13.805 
3 *169:16 *1108:B1 1.6 
*END

*D_NET *170 0.00515058
*CONN
*I *1113:A2 I *D sky130_fd_sc_hd__a2111o_1
*I *1052:B1 I *D sky130_fd_sc_hd__o211a_1
*I *1051:Y O *D sky130_fd_sc_hd__nor3_1
*CAP
1 *1113:A2 0.0015802
2 *1052:B1 0.000109716
3 *1051:Y 0.000160795
4 *170:6 0.00185071
5 *1052:B1 *1052:A1 5.53249e-06
6 *1052:B1 *325:35 0.000257005
7 *1113:A2 *999:A 0.000132842
8 *1113:A2 *1002:B 0.000309729
9 *1113:A2 *1048:A 4.43871e-06
10 *1113:A2 *1107:A1 5.38986e-05
11 *1113:A2 *1113:A1 5.16348e-05
12 *1113:A2 *1113:D1 4.82919e-05
13 *1113:A2 *1160:A 0.000171301
14 *1113:A2 *228:23 0.000122904
15 *1113:A2 *273:21 1.1561e-05
16 *1113:A2 *274:10 0
17 *1113:A2 *315:10 0.000178438
18 *1113:A2 *327:19 7.21296e-06
19 *1113:A2 *327:23 5.64057e-05
20 *170:6 *1051:A 1.0124e-05
21 *170:6 *1051:B 1.61831e-05
22 *170:6 *1051:C 1.16578e-05
23 *1053:A2 *1052:B1 0
24 *167:36 *1052:B1 0
*RES
1 *1051:Y *170:6 3.43 
2 *170:6 *1052:B1 8.51 
3 *170:6 *1113:A2 29.72 
*END

*D_NET *171 0.000508204
*CONN
*I *1053:B1_N I *D sky130_fd_sc_hd__o21bai_1
*I *1052:X O *D sky130_fd_sc_hd__o211a_1
*CAP
1 *1053:B1_N 0.00010935
2 *1052:X 0.00010935
3 *1053:B1_N *1052:A1 9.62357e-05
4 *1053:A2 *1053:B1_N 3.09364e-05
5 *1126:D *1053:B1_N 0.000162332
*RES
1 *1052:X *1053:B1_N 10.11 
*END

*D_NET *172 0.00116687
*CONN
*I *1249:A I *D sky130_fd_sc_hd__buf_1
*I *1082:A2 I *D sky130_fd_sc_hd__a2111o_1
*I *1054:Y O *D sky130_fd_sc_hd__nor3_1
*CAP
1 *1249:A 0.000142646
2 *1082:A2 0.000154189
3 *1054:Y 3.56181e-05
4 *172:8 0.000332453
5 *1082:A2 *1054:A 0
6 *1082:A2 *1158:CLK 0
7 *1082:A2 *336:34 0.00021465
8 *1249:A *1266:A 8.49205e-05
9 *1249:A *173:14 5.78185e-05
10 *1249:A *174:14 8.53113e-06
11 *1249:A *176:10 1.91597e-05
12 *1249:A *324:8 3.00381e-05
13 *1249:A *336:34 5.46798e-05
14 *172:8 *320:18 2.05056e-05
15 *172:8 *320:31 1.16578e-05
16 *1158:D *1082:A2 0
*RES
1 *1054:Y *172:8 4.05 
2 *172:8 *1082:A2 6.51 
3 *172:8 *1249:A 6.81 
*END

*D_NET *173 0.00380106
*CONN
*I *1059:B I *D sky130_fd_sc_hd__or3_4
*I *1082:B1 I *D sky130_fd_sc_hd__a2111o_1
*I *1055:Y O *D sky130_fd_sc_hd__nor4_1
*CAP
1 *1059:B 0
2 *1082:B1 3.69929e-05
3 *1055:Y 0.00133395
4 *173:14 0.00137094
5 *1082:B1 *176:14 9.30717e-05
6 *1082:B1 *336:34 4.94326e-05
7 *173:14 *1054:B 0.000119756
8 *173:14 *1083:A2_N 0
9 *173:14 *1105:B 0.000156798
10 *173:14 *1107:A1 8.22234e-06
11 *173:14 *1107:B1 8.57024e-05
12 *173:14 *1118:A2 5.35969e-06
13 *173:14 *1266:A 7.68414e-06
14 *173:14 *174:14 1.34594e-05
15 *173:14 *176:10 4.11198e-05
16 *173:14 *177:19 0
17 *173:14 *320:31 1.4174e-05
18 *173:14 *324:8 8.65961e-05
19 *173:14 *336:34 0
20 *1082:D1 *173:14 5.23362e-05
21 *1107:A3 *173:14 0.000185295
22 *1249:A *173:14 5.78185e-05
23 *139:16 *173:14 8.23457e-05
*RES
1 *1055:Y *173:14 23.465 
2 *173:14 *1082:B1 6.725 
3 *173:14 *1059:B 1.6 
*END

*D_NET *174 0.00210425
*CONN
*I *1106:C I *D sky130_fd_sc_hd__and3b_1
*I *1105:B I *D sky130_fd_sc_hd__nand2b_1
*I *1058:B1_N I *D sky130_fd_sc_hd__o21ba_1
*I *1056:X O *D sky130_fd_sc_hd__or4_1
*CAP
1 *1106:C 0.000182646
2 *1105:B 0.000114396
3 *1058:B1_N 0
4 *1056:X 6.05359e-05
5 *174:14 0.000264627
6 *174:8 0.000393413
7 *1105:B *1058:A1 4.82919e-05
8 *1105:B *1266:A 7.3093e-05
9 *1106:C *1106:A_N 8.65961e-05
10 *1106:C *302:28 0.000273878
11 *1106:C *317:39 4.05674e-06
12 *1106:C *317:47 5.33172e-05
13 *1106:C *325:63 0.000199833
14 *174:8 *325:35 0
15 *174:8 *336:34 3.18137e-05
16 *174:14 *1266:A 4.99619e-05
17 *174:14 *317:47 0
18 *174:14 *325:37 0
19 *174:14 *336:34 8.90058e-05
20 *1249:A *174:14 8.53113e-06
21 *173:14 *1105:B 0.000156798
22 *173:14 *174:14 1.34594e-05
*RES
1 *1056:X *174:8 4.725 
2 *174:8 *174:14 5.105 
3 *174:14 *1058:B1_N 1.6 
4 *174:14 *1105:B 4.94875 
5 *174:8 *1106:C 8.19 
*END

*D_NET *175 0.00020217
*CONN
*I *1060:C1 I *D sky130_fd_sc_hd__a221o_1
*I *1057:X O *D sky130_fd_sc_hd__o21ba_1
*CAP
1 *1060:C1 5.0267e-05
2 *1057:X 5.0267e-05
3 *1060:C1 *1060:A1 0
4 *1060:C1 *1060:B1 3.68769e-05
5 *1060:C1 *1068:B1 6.47594e-05
*RES
1 *1057:X *1060:C1 8.58 
*END

*D_NET *176 0.00231549
*CONN
*I *1059:C I *D sky130_fd_sc_hd__or3_4
*I *1082:C1 I *D sky130_fd_sc_hd__a2111o_1
*I *1081:C1 I *D sky130_fd_sc_hd__a311o_1
*I *1058:X O *D sky130_fd_sc_hd__o21ba_1
*CAP
1 *1059:C 1.16927e-05
2 *1082:C1 0
3 *1081:C1 0.000434932
4 *1058:X 0.000134845
5 *176:14 0.000559895
6 *176:10 0.000271501
7 *1059:C *320:31 4.66108e-05
8 *1081:C1 *1081:B1 0.00012657
9 *1081:C1 *1083:A2_N 0
10 *1081:C1 *336:10 9.57888e-05
11 *1081:C1 *336:20 4.11112e-05
12 *1081:C1 *336:34 1.01661e-05
13 *176:10 *1266:A 8.49205e-05
14 *176:10 *336:34 0.000114492
15 *176:14 *1083:A2_N 0
16 *176:14 *336:34 4.51489e-05
17 *1082:B1 *176:14 9.30717e-05
18 *1082:D1 *176:14 0.000136182
19 *1249:A *176:10 1.91597e-05
20 *139:16 *1059:C 4.82863e-05
21 *173:14 *176:10 4.11198e-05
*RES
1 *1058:X *176:10 6.12 
2 *176:10 *176:14 2.85 
3 *176:14 *1081:C1 11.685 
4 *176:14 *1082:C1 3.6 
5 *176:10 *1059:C 4.05 
*END

*D_NET *177 0.00504559
*CONN
*I *1061:S I *D sky130_fd_sc_hd__mux2_1
*I *1069:S I *D sky130_fd_sc_hd__mux2_1
*I *1077:S I *D sky130_fd_sc_hd__mux2_1
*I *1083:A2_N I *D sky130_fd_sc_hd__o2bb2a_1
*I *1059:X O *D sky130_fd_sc_hd__or3_4
*CAP
1 *1061:S 0.000247392
2 *1069:S 0
3 *1077:S 0.000294622
4 *1083:A2_N 0.000416708
5 *1059:X 0
6 *177:23 0.00074868
7 *177:19 0.00117621
8 *177:6 0.000891474
9 *1061:S *1061:A0 4.92062e-05
10 *1061:S *1061:A1 7.81829e-05
11 *1061:S *1127:RESET_B 0
12 *1061:S *1261:A 0
13 *1061:S *336:34 0
14 *1077:S *1069:A0 0.000554659
15 *1077:S *1069:A1 4.82863e-05
16 *1077:S *279:12 5.83121e-06
17 *1083:A2_N *1081:B1 0.00012476
18 *1083:A2_N *1083:B2 8.67385e-05
19 *177:19 *1081:B1 0.000196414
20 *177:19 *1261:A 0
21 *177:19 *325:67 0
22 *177:19 *336:34 0
23 *1081:C1 *1083:A2_N 0
24 *1082:A1 *1083:A2_N 4.7672e-05
25 *1082:D1 *1083:A2_N 0
26 *1127:D *1061:S 7.60965e-05
27 *163:6 *1083:A2_N 2.65814e-06
28 *173:14 *1083:A2_N 0
29 *173:14 *177:19 0
30 *176:14 *1083:A2_N 0
*RES
1 *1059:X *177:6 3.6 
2 *177:6 *1083:A2_N 9.81 
3 *177:6 *177:19 8.265 
4 *177:19 *177:23 8.66 
5 *177:23 *1077:S 12.08 
6 *177:23 *1069:S 1.6 
7 *177:19 *1061:S 8.52 
*END

*D_NET *178 0.00242534
*CONN
*I *1061:A0 I *D sky130_fd_sc_hd__mux2_1
*I *1060:X O *D sky130_fd_sc_hd__a221o_1
*CAP
1 *1061:A0 0.000826803
2 *1060:X 0.000826803
3 *1061:A0 *1054:B 0
4 *1061:A0 *1057:A1 0.000204456
5 *1061:A0 *1057:A2 0
6 *1061:A0 *1057:B1_N 6.95987e-05
7 *1061:A0 *1060:B1 0
8 *1061:A0 *1061:A1 4.82919e-05
9 *1061:A0 *1065:B 3.67779e-05
10 *1061:A0 *1067:B1 9.30787e-05
11 *1061:A0 *1076:C1 0
12 *1061:A0 *1261:A 0
13 *1061:A0 *278:10 8.65961e-05
14 *1061:A0 *278:12 0
15 *1061:A0 *320:31 7.60965e-05
16 *1061:A0 *325:67 0
17 *1061:A0 *325:79 0.000107634
18 *1061:S *1061:A0 4.92062e-05
*RES
1 *1060:X *1061:A0 21.525 
*END

*D_NET *179 0.00122407
*CONN
*I *1064:B I *D sky130_fd_sc_hd__and3_1
*I *1062:X O *D sky130_fd_sc_hd__or2_1
*CAP
1 *1064:B 0.00039916
2 *1062:X 0.00039916
3 *1064:B *990:A 4.47209e-05
4 *1064:B *1062:A 8.23457e-05
5 *1064:B *1064:C 3.68682e-05
6 *1064:B *1081:A1 3.09164e-05
7 *1064:B *320:41 8.5242e-05
8 *1064:B *320:43 6.45236e-05
9 *1033:B2 *1064:B 0
10 *163:6 *1064:B 8.11372e-05
*RES
1 *1062:X *1064:B 13.245 
*END

*D_NET *180 0.000629373
*CONN
*I *1064:C I *D sky130_fd_sc_hd__and3_1
*I *1063:Y O *D sky130_fd_sc_hd__nand2_1
*CAP
1 *1064:C 0.000152624
2 *1063:Y 0.000152624
3 *1064:C *1068:B1 4.82919e-05
4 *1064:C *1081:A1 0
5 *1064:C *1130:CLK 6.43935e-05
6 *1064:C *1199:A 0.000136884
7 *1064:C *186:12 2.75229e-05
8 *1033:B2 *1064:C 1.01661e-05
9 *1064:B *1064:C 3.68682e-05
*RES
1 *1063:Y *1064:C 10.56 
*END

*D_NET *181 0.000995605
*CONN
*I *1068:B1 I *D sky130_fd_sc_hd__a211o_1
*I *1064:X O *D sky130_fd_sc_hd__and3_1
*CAP
1 *1068:B1 0.000298508
2 *1064:X 0.000298508
3 *1068:B1 *1060:A1 0
4 *1068:B1 *1068:C1 9.50342e-06
5 *1068:B1 *1130:CLK 1.19928e-05
6 *1068:B1 *320:41 0
7 *1033:B2 *1068:B1 0.000258509
8 *1060:C1 *1068:B1 6.47594e-05
9 *1064:C *1068:B1 4.82919e-05
10 *155:18 *1068:B1 5.53249e-06
*RES
1 *1064:X *1068:B1 13.455 
*END

*D_NET *182 0.000741931
*CONN
*I *1067:B1 I *D sky130_fd_sc_hd__o22a_1
*I *1065:Y O *D sky130_fd_sc_hd__nor2_1
*CAP
1 *1067:B1 0.00010468
2 *1065:Y 0.00010468
3 *1067:B1 *1057:B1_N 4.94404e-05
4 *1067:B1 *1067:A1 8.65961e-05
5 *1067:B1 *1263:A 4.70919e-05
6 *1067:B1 *302:28 0.00023468
7 *1067:B1 *324:37 2.16833e-05
8 *1061:A0 *1067:B1 9.30787e-05
*RES
1 *1065:Y *1067:B1 10.86 
*END

*D_NET *183 0.000290899
*CONN
*I *1067:B2 I *D sky130_fd_sc_hd__o22a_1
*I *1066:X O *D sky130_fd_sc_hd__and2_1
*CAP
1 *1067:B2 0.000117695
2 *1066:X 0.000117695
3 *1067:B2 *1057:B1_N 4.11194e-05
4 *1067:B2 *279:23 1.4389e-05
*RES
1 *1066:X *1067:B2 9.03 
*END

*D_NET *184 0.000427292
*CONN
*I *1068:C1 I *D sky130_fd_sc_hd__a211o_1
*I *1067:X O *D sky130_fd_sc_hd__o22a_1
*CAP
1 *1068:C1 0.000140566
2 *1067:X 0.000140566
3 *1068:C1 *1076:C1 0
4 *1068:C1 *1263:A 8.65961e-05
5 *1068:B1 *1068:C1 9.50342e-06
6 *155:18 *1068:C1 5.00612e-05
*RES
1 *1067:X *1068:C1 9.63 
*END

*D_NET *185 0.00169132
*CONN
*I *1069:A0 I *D sky130_fd_sc_hd__mux2_1
*I *1068:X O *D sky130_fd_sc_hd__a211o_1
*CAP
1 *1069:A0 0.000374906
2 *1068:X 0.000374906
3 *1069:A0 *1077:A0 0.000132875
4 *1069:A0 *279:12 0.000128151
5 *1077:S *1069:A0 0.000554659
6 *1128:D *1069:A0 9.91257e-05
7 *155:18 *1069:A0 2.66935e-05
*RES
1 *1068:X *1069:A0 16.815 
*END

*D_NET *186 0.00173761
*CONN
*I *1072:B I *D sky130_fd_sc_hd__and3_1
*I *1078:B I *D sky130_fd_sc_hd__nand2_1
*I *1079:B I *D sky130_fd_sc_hd__or2_1
*I *1070:Y O *D sky130_fd_sc_hd__nand3_1
*CAP
1 *1072:B 2.08101e-05
2 *1078:B 0
3 *1079:B 7.88961e-05
4 *1070:Y 0.000174343
5 *186:12 0.00032667
6 *186:6 0.000442927
7 *1079:B *1063:A 0
8 *1079:B *1078:A 4.99619e-05
9 *1079:B *1081:A1 1.12578e-05
10 *1079:B *1081:A2 2.30292e-05
11 *186:6 *1063:B 3.96737e-05
12 *186:6 *1071:B1 0.000160213
13 *186:6 *1076:B1 4.82863e-05
14 *186:6 *251:45 5.78289e-05
15 *186:12 *1063:A 2.8185e-05
16 *186:12 *1063:B 0.000121437
17 *186:12 *1071:B1 0
18 *186:12 *1078:A 0
19 *186:12 *1081:A1 0.00012657
20 *1064:C *186:12 2.75229e-05
*RES
1 *1070:Y *186:6 4.81 
2 *186:6 *186:12 4.965 
3 *186:12 *1079:B 3.1 
4 *186:12 *1078:B 1.6 
5 *186:6 *1072:B 1.96 
*END

*D_NET *187 0.000279324
*CONN
*I *1072:C I *D sky130_fd_sc_hd__and3_1
*I *1071:X O *D sky130_fd_sc_hd__a21o_1
*CAP
1 *1072:C 2.56126e-05
2 *1071:X 2.56126e-05
3 *1072:C *1063:A 6.99162e-05
4 *1072:C *1063:B 5.9934e-05
5 *1072:C *250:25 4.82863e-05
6 *1072:C *251:45 4.99619e-05
*RES
1 *1071:X *1072:C 4.22 
*END

*D_NET *188 0.00157355
*CONN
*I *1076:B1 I *D sky130_fd_sc_hd__a211o_1
*I *1072:X O *D sky130_fd_sc_hd__and3_1
*CAP
1 *1076:B1 0.000291447
2 *1072:X 0.000291447
3 *1076:B1 *1062:B 0.000289691
4 *1033:B2 *1076:B1 0
5 *1040:B2 *1076:B1 0.000633787
6 *1076:A1 *1076:B1 1.88904e-05
7 *186:6 *1076:B1 4.82863e-05
*RES
1 *1072:X *1076:B1 15.15 
*END

*D_NET *189 0.000561574
*CONN
*I *1080:B1 I *D sky130_fd_sc_hd__o211a_1
*I *1075:B1 I *D sky130_fd_sc_hd__a2bb2oi_1
*I *1073:X O *D sky130_fd_sc_hd__or3_1
*CAP
1 *1080:B1 7.72293e-06
2 *1075:B1 2.49374e-05
3 *1073:X 8.78772e-05
4 *189:10 0.000120537
5 *1075:B1 *1075:B2 1.61831e-05
6 *1075:B1 *1080:C1 3.25635e-05
7 *1075:B1 *302:28 0.000107528
8 *1080:B1 *1080:C1 4.82919e-05
9 *1080:B1 *302:28 2.76781e-05
10 *189:10 *1075:B2 7.23602e-05
11 *189:10 *1080:A1 1.14559e-05
12 *189:10 *1080:A2 4.43871e-06
13 *189:10 *325:79 0
*RES
1 *1073:X *189:10 6.98 
2 *189:10 *1075:B1 2.755 
3 *189:10 *1080:B1 2.05 
*END

*D_NET *190 0.00053164
*CONN
*I *1075:B2 I *D sky130_fd_sc_hd__a2bb2oi_1
*I *1074:Y O *D sky130_fd_sc_hd__o21ai_1
*CAP
1 *1075:B2 0.000134376
2 *1074:Y 0.000134376
3 *1075:B2 *1080:C1 8.57024e-05
4 *1075:B2 *302:28 1.62814e-05
5 *1075:B2 *325:67 7.23602e-05
6 *1075:B1 *1075:B2 1.61831e-05
7 *189:10 *1075:B2 7.23602e-05
*RES
1 *1074:Y *1075:B2 9.555 
*END

*D_NET *191 0.00176039
*CONN
*I *1076:C1 I *D sky130_fd_sc_hd__a211o_1
*I *1075:Y O *D sky130_fd_sc_hd__a2bb2oi_1
*CAP
1 *1076:C1 0.000572777
2 *1075:Y 0.000572777
3 *1076:C1 *1057:A2 3.68596e-05
4 *1076:C1 *1057:B1_N 4.99619e-05
5 *1076:C1 *1068:A2 4.00541e-06
6 *1076:C1 *1076:A2 7.91165e-05
7 *1076:C1 *1263:A 0.000123225
8 *1076:C1 *319:21 0.000153482
9 *1076:C1 *324:33 4.99619e-05
10 *1076:C1 *324:37 0.000118229
11 *1061:A0 *1076:C1 0
12 *1068:C1 *1076:C1 0
*RES
1 *1075:Y *1076:C1 16.395 
*END

*D_NET *192 0.000791965
*CONN
*I *1077:A0 I *D sky130_fd_sc_hd__mux2_1
*I *1076:X O *D sky130_fd_sc_hd__a211o_1
*CAP
1 *1077:A0 0.000300989
2 *1076:X 0.000300989
3 *1077:A0 *1076:A2 3.50966e-05
4 *1077:A0 *233:10 2.56676e-06
5 *1069:A0 *1077:A0 0.000132875
6 *1076:A1 *1077:A0 6.12675e-06
7 *159:12 *1077:A0 1.33205e-05
*RES
1 *1076:X *1077:A0 11.94 
*END

*D_NET *193 0.000880614
*CONN
*I *1081:A2 I *D sky130_fd_sc_hd__a311o_1
*I *1078:Y O *D sky130_fd_sc_hd__nand2_1
*CAP
1 *1081:A2 9.06478e-05
2 *1078:Y 9.06478e-05
3 *1081:A2 *1078:A 0.00012657
4 *1081:A2 *1081:A1 0.000424824
5 *1081:A2 *1081:A3 0.000124895
6 *1079:B *1081:A2 2.30292e-05
*RES
1 *1078:Y *1081:A2 7.115 
*END

*D_NET *194 0.000225981
*CONN
*I *1081:A3 I *D sky130_fd_sc_hd__a311o_1
*I *1079:X O *D sky130_fd_sc_hd__or2_1
*CAP
1 *1081:A3 5.05434e-05
2 *1079:X 5.05434e-05
3 *1081:A2 *1081:A3 0.000124895
*RES
1 *1079:X *1081:A3 4.34 
*END

*D_NET *195 0.00181045
*CONN
*I *1081:B1 I *D sky130_fd_sc_hd__a311o_1
*I *1080:X O *D sky130_fd_sc_hd__o211a_1
*CAP
1 *1081:B1 0.000444993
2 *1080:X 0.000444993
3 *1081:B1 *1081:A1 1.85674e-05
4 *1081:B1 *1083:B1 0.000102516
5 *1081:B1 *280:19 0.000351637
6 *1081:C1 *1081:B1 0.00012657
7 *1083:A2_N *1081:B1 0.00012476
8 *177:19 *1081:B1 0.000196414
*RES
1 *1080:X *1081:B1 19.095 
*END

*D_NET *196 0.00108832
*CONN
*I *1083:B1 I *D sky130_fd_sc_hd__o2bb2a_1
*I *1081:X O *D sky130_fd_sc_hd__a311o_1
*CAP
1 *1083:B1 0.000353665
2 *1081:X 0.000353665
3 *1083:B1 *1081:A1 0.000162311
4 *1083:B1 *280:19 0.000116158
5 *1045:B2 *1083:B1 0
6 *1081:B1 *1083:B1 0.000102516
*RES
1 *1081:X *1083:B1 13.14 
*END

*D_NET *197 0.000580511
*CONN
*I *1083:B2 I *D sky130_fd_sc_hd__o2bb2a_1
*I *1082:X O *D sky130_fd_sc_hd__a2111o_1
*CAP
1 *1083:B2 9.16863e-05
2 *1082:X 9.16863e-05
3 *1082:A1 *1083:B2 0.0003104
4 *1083:A2_N *1083:B2 8.67385e-05
*RES
1 *1082:X *1083:B2 6.065 
*END

*D_NET *198 0.00023815
*CONN
*I *1085:D I *D sky130_fd_sc_hd__or4_4
*I *1084:X O *D sky130_fd_sc_hd__o2111a_1
*CAP
1 *1085:D 1.77416e-05
2 *1084:X 1.77416e-05
3 *1085:D *1084:B1 0.00012657
4 *139:44 *1085:D 7.60965e-05
*RES
1 *1084:X *1085:D 4.34 
*END

*D_NET *199 0.00592906
*CONN
*I *1098:S I *D sky130_fd_sc_hd__mux2_1
*I *1093:S I *D sky130_fd_sc_hd__mux2_1
*I *1088:S I *D sky130_fd_sc_hd__mux2_1
*I *1085:X O *D sky130_fd_sc_hd__or4_4
*CAP
1 *1098:S 0.000259565
2 *1093:S 0.000357758
3 *1088:S 0
4 *1085:X 0.000276998
5 *199:20 0.00116114
6 *199:10 0.00133995
7 *1093:S *1087:A2 0.000350486
8 *1093:S *1122:CLK 3.51884e-05
9 *1093:S *268:16 0.000137578
10 *1093:S *268:18 0.000362958
11 *1093:S *332:38 1.73877e-05
12 *199:10 *334:36 8.23457e-05
13 *199:20 *1122:CLK 0.000184741
14 *199:20 *1122:RESET_B 0.000157375
15 *199:20 *282:10 0.000131667
16 *1050:A1 *1098:S 0.000100162
17 *1050:A1 *199:10 9.30717e-05
18 *1050:A1 *199:20 2.65814e-06
19 *1086:A *1093:S 0.000235568
20 *1088:A1 *1093:S 8.65961e-05
21 *1131:D *1093:S 2.67022e-05
22 *115:10 *1093:S 0
23 *115:75 *1093:S 0
24 *118:6 *199:20 2.77183e-05
25 *118:12 *1098:S 0.000501444
*RES
1 *1085:X *199:10 7.935 
2 *199:10 *199:20 13.19 
3 *199:20 *1088:S 1.6 
4 *199:20 *1093:S 15.74 
5 *199:10 *1098:S 10.335 
*END

*D_NET *200 0.00059814
*CONN
*I *1087:C1 I *D sky130_fd_sc_hd__a221o_1
*I *1086:Y O *D sky130_fd_sc_hd__nor2_1
*CAP
1 *1087:C1 0.000154383
2 *1086:Y 0.000154383
3 *1087:C1 *1087:A1 0.000158532
4 *1087:C1 *1087:A2 5.77358e-05
5 *1087:C1 *1087:B2 3.13099e-05
6 *1087:C1 *334:36 4.17972e-05
*RES
1 *1086:Y *1087:C1 6.68 
*END

*D_NET *201 0.00115837
*CONN
*I *1088:A0 I *D sky130_fd_sc_hd__mux2_1
*I *1087:X O *D sky130_fd_sc_hd__a221o_1
*CAP
1 *1088:A0 0.000328226
2 *1087:X 0.000328226
3 *1088:A0 *1087:A2 0.000501921
*RES
1 *1087:X *1088:A0 7.79 
*END

*D_NET *202 0.000296464
*CONN
*I *1091:B I *D sky130_fd_sc_hd__and3_1
*I *1089:Y O *D sky130_fd_sc_hd__nand2_1
*CAP
1 *1091:B 0.000118287
2 *1089:Y 0.000118287
3 *1091:B *1091:A 1.33293e-05
4 *1089:A *1091:B 4.65607e-05
*RES
1 *1089:Y *1091:B 4.685 
*END

*D_NET *203 0.000408952
*CONN
*I *1091:C I *D sky130_fd_sc_hd__and3_1
*I *1090:X O *D sky130_fd_sc_hd__or2_1
*CAP
1 *1091:C 0.000103589
2 *1090:X 0.000103589
3 *1091:C *1092:C1 3.86607e-05
4 *1089:A *1091:C 5.83121e-06
5 *1090:A *1091:C 7.06865e-05
6 *116:8 *1091:C 8.65961e-05
*RES
1 *1090:X *1091:C 9.03 
*END

*D_NET *204 0.00173788
*CONN
*I *1092:C1 I *D sky130_fd_sc_hd__a221o_1
*I *1091:X O *D sky130_fd_sc_hd__and3_1
*CAP
1 *1092:C1 0.000695328
2 *1091:X 0.000695328
3 *1092:C1 *1092:B2 4.27904e-05
4 *1092:C1 *1136:D 1.71013e-05
5 *1092:C1 *1139:CLK 0
6 *1092:C1 *1256:A 1.60083e-05
7 *1092:C1 *268:18 0
8 *1092:C1 *268:20 0
9 *1092:C1 *310:34 0.000162745
10 *1090:A *1092:C1 1.65105e-05
11 *1091:C *1092:C1 3.86607e-05
12 *1092:B1 *1092:C1 2.67184e-05
13 *1093:A1 *1092:C1 2.66935e-05
*RES
1 *1091:X *1092:C1 17.49 
*END

*D_NET *205 0.000602635
*CONN
*I *1093:A0 I *D sky130_fd_sc_hd__mux2_1
*I *1092:X O *D sky130_fd_sc_hd__a221o_1
*CAP
1 *1093:A0 0.000177541
2 *1092:X 0.000177541
3 *1093:A0 *332:40 0.000106648
4 *1093:A0 *332:44 0.000140905
*RES
1 *1092:X *1093:A0 10.56 
*END

*D_NET *206 0.000248273
*CONN
*I *1096:B I *D sky130_fd_sc_hd__and3_1
*I *1094:X O *D sky130_fd_sc_hd__a21o_1
*CAP
1 *1096:B 8.88985e-05
2 *1094:X 8.88985e-05
3 *1096:B *1096:C 2.04239e-05
4 *1096:B *1097:C1 4.82919e-05
5 *115:31 *1096:B 1.76069e-06
*RES
1 *1094:X *1096:B 4.34 
*END

*D_NET *207 0.000814229
*CONN
*I *1096:C I *D sky130_fd_sc_hd__and3_1
*I *1095:Y O *D sky130_fd_sc_hd__nand3_1
*CAP
1 *1096:C 0.000135917
2 *1095:Y 0.000135917
3 *1096:C *1097:C1 4.01778e-05
4 *1094:B1 *1096:C 1.91597e-05
5 *1095:A *1096:C 8.23457e-05
6 *1095:B *1096:C 4.08514e-05
7 *1096:B *1096:C 2.04239e-05
8 *115:31 *1096:C 0.000254517
9 *116:45 *1096:C 8.49205e-05
*RES
1 *1095:Y *1096:C 6.995 
*END

*D_NET *208 0.000945343
*CONN
*I *1097:C1 I *D sky130_fd_sc_hd__a221o_1
*I *1096:X O *D sky130_fd_sc_hd__and3_1
*CAP
1 *1097:C1 0.000234124
2 *1096:X 0.000234124
3 *1097:C1 *1097:B2 9.50342e-06
4 *1010:B *1097:C1 0.000116151
5 *1094:B1 *1097:C1 0.000160781
6 *1095:A *1097:C1 4.9968e-05
7 *1095:B *1097:C1 1.08758e-05
8 *1096:B *1097:C1 4.82919e-05
9 *1096:C *1097:C1 4.01778e-05
10 *116:45 *1097:C1 3.62338e-05
11 *150:85 *1097:C1 5.11148e-06
*RES
1 *1096:X *1097:C1 11.775 
*END

*D_NET *209 0.000787785
*CONN
*I *1098:A0 I *D sky130_fd_sc_hd__mux2_1
*I *1097:X O *D sky130_fd_sc_hd__a221o_1
*CAP
1 *1098:A0 0.000309534
2 *1097:X 0.000309534
3 *1098:A0 *1097:A2 8.8266e-05
4 *1098:A0 *310:20 5.37488e-05
5 *1097:B1 *1098:A0 0
6 *1133:D *1098:A0 0
7 *118:12 *1098:A0 2.67022e-05
*RES
1 *1097:X *1098:A0 12.105 
*END

*D_NET *210 0.000586003
*CONN
*I *1104:A2 I *D sky130_fd_sc_hd__a21o_1
*I *1099:X O *D sky130_fd_sc_hd__a21o_1
*CAP
1 *1104:A2 0.000197131
2 *1099:X 0.000197131
3 *1104:A2 *1007:A 4.43871e-06
4 *1104:A2 *1099:A2 0
5 *1104:A2 *1104:B1 5.53249e-06
6 *1104:A2 *1155:RESET_B 0
7 *1104:A2 *272:10 0
8 *1104:A2 *285:18 4.82919e-05
9 *1104:A2 *285:28 1.08758e-05
10 *1104:A2 *330:34 1.83847e-05
11 *1099:B1 *1104:A2 0.000104218
*RES
1 *1099:X *1104:A2 11.07 
*END

*D_NET *211 0.00019783
*CONN
*I *1101:B1 I *D sky130_fd_sc_hd__a32o_1
*I *1100:Y O *D sky130_fd_sc_hd__o21ai_1
*CAP
1 *1101:B1 1.6821e-05
2 *1100:Y 1.6821e-05
3 *1101:B1 *1100:B1 1.61831e-05
4 *1101:B1 *1101:A1 0.000107033
5 *1101:B1 *1101:B2 4.09723e-05
*RES
1 *1100:Y *1101:B1 4.1675 
*END

*D_NET *212 0.00122953
*CONN
*I *1103:B1 I *D sky130_fd_sc_hd__a211o_1
*I *1101:X O *D sky130_fd_sc_hd__a32o_1
*CAP
1 *1103:B1 0.000346585
2 *1101:X 0.000346585
3 *1103:B1 *1000:A_N 4.82919e-05
4 *1103:B1 *1000:D 2.7441e-05
5 *1103:B1 *1100:B1 0.000152328
6 *1103:B1 *1103:C1 0.000140912
7 *1103:B1 *331:89 0
8 *1103:B1 *331:93 0.000163199
9 *1103:A2 *1103:B1 4.18603e-06
*RES
1 *1101:X *1103:B1 12.735 
*END

*D_NET *213 0.00374559
*CONN
*I *1103:C1 I *D sky130_fd_sc_hd__a211o_1
*I *1107:B1 I *D sky130_fd_sc_hd__a311o_1
*I *1102:X O *D sky130_fd_sc_hd__a32o_1
*CAP
1 *1103:C1 0.000356741
2 *1107:B1 0.000416224
3 *1102:X 0.000156099
4 *213:6 0.000929064
5 *1103:C1 *992:B 0
6 *1103:C1 *1000:A_N 0.000100544
7 *1103:C1 *1102:A1 4.13171e-05
8 *1103:C1 *236:10 0
9 *1103:C1 *236:21 0
10 *1103:C1 *264:10 7.47215e-05
11 *1103:C1 *264:16 0.000116158
12 *1103:C1 *274:10 0
13 *1103:C1 *275:21 1.1561e-05
14 *1103:C1 *328:10 0.000204456
15 *1103:C1 *328:12 0.000183043
16 *1103:C1 *328:14 9.50342e-06
17 *1103:C1 *331:89 0
18 *1107:B1 *1055:A 0.000236355
19 *1107:B1 *1055:C 4.82919e-05
20 *1107:B1 *1055:D 1.47256e-05
21 *1107:B1 *1107:A1 4.7672e-05
22 *1107:B1 *1257:A 0
23 *1107:B1 *311:13 0.00023231
24 *1107:B1 *325:6 0.000124895
25 *213:6 *1257:A 0.000200615
26 *213:6 *311:13 1.46828e-05
27 *1103:B1 *1103:C1 0.000140912
28 *173:14 *1107:B1 8.57024e-05
*RES
1 *1102:X *213:6 3.775 
2 *213:6 *1107:B1 9.685 
3 *213:6 *1103:C1 14.63 
*END

*D_NET *214 0.00148225
*CONN
*I *1104:B1 I *D sky130_fd_sc_hd__a21o_1
*I *1103:X O *D sky130_fd_sc_hd__a211o_1
*CAP
1 *1104:B1 0.000496471
2 *1103:X 0.000496471
3 *1104:B1 *1005:A_N 0.000158297
4 *1104:B1 *1006:B 5.02217e-05
5 *1104:B1 *1007:A 0
6 *1104:B1 *239:14 0
7 *1104:B1 *242:23 6.36273e-05
8 *1104:B1 *272:25 6.27438e-05
9 *1104:B1 *331:12 0
10 *1104:B1 *331:14 0
11 *1104:B1 *331:67 9.86611e-05
12 *1104:B1 *331:89 5.02217e-05
13 *1104:A2 *1104:B1 5.53249e-06
*RES
1 *1103:X *1104:B1 16.695 
*END

*D_NET *215 0.000284068
*CONN
*I *1118:A2 I *D sky130_fd_sc_hd__a211o_1
*I *1105:Y O *D sky130_fd_sc_hd__nand2b_1
*CAP
1 *1118:A2 0.000106592
2 *1105:Y 0.000106592
3 *1118:A2 *1054:A 0
4 *167:25 *1118:A2 6.5525e-05
5 *173:14 *1118:A2 5.35969e-06
*RES
1 *1105:Y *1118:A2 9.03 
*END

*D_NET *216 0.00152758
*CONN
*I *1107:C1 I *D sky130_fd_sc_hd__a311o_1
*I *1106:X O *D sky130_fd_sc_hd__and3b_1
*CAP
1 *1107:C1 0.000554318
2 *1106:X 0.000554318
3 *1107:C1 *1055:C 1.89685e-05
4 *1107:C1 *1115:A 0.0001249
5 *1107:C1 *1160:A 0
6 *1107:C1 *271:73 0
7 *1107:C1 *317:39 0.000124277
8 *1107:C1 *325:18 6.42013e-05
9 *1157:D *1107:C1 8.65961e-05
*RES
1 *1106:X *1107:C1 15.945 
*END

*D_NET *217 0.00327463
*CONN
*I *1115:A I *D sky130_fd_sc_hd__or2_1
*I *1112:A I *D sky130_fd_sc_hd__or4b_1
*I *1107:X O *D sky130_fd_sc_hd__a311o_1
*CAP
1 *1115:A 0.000172674
2 *1112:A 0.000558985
3 *1107:X 6.64034e-05
4 *217:8 0.000798062
5 *1112:A *1112:B 4.61658e-05
6 *1112:A *1115:B 0.000777888
7 *1112:A *1118:B1 0
8 *1112:A *271:12 0
9 *1112:A *271:14 0
10 *1112:A *327:33 3.98952e-05
11 *1115:A *1115:B 0.000249928
12 *1115:A *271:73 0
13 *1115:A *317:39 3.64622e-05
14 *1050:A3 *1112:A 0
15 *1107:A3 *217:8 4.66826e-05
16 *1107:C1 *1115:A 0.0001249
17 *1114:A3 *1112:A 0.000356583
18 *139:42 *1112:A 0
19 *167:25 *1112:A 0
20 *167:25 *1115:A 0
21 *167:36 *1115:A 0
*RES
1 *1107:X *217:8 4.395 
2 *217:8 *1112:A 17.22 
3 *217:8 *1115:A 7.905 
*END

*D_NET *218 0.000280423
*CONN
*I *1112:B I *D sky130_fd_sc_hd__or4b_1
*I *1108:X O *D sky130_fd_sc_hd__a21o_1
*CAP
1 *1112:B 0.000117129
2 *1108:X 0.000117129
3 *1112:B *1111:A1 0
4 *1112:A *1112:B 4.61658e-05
5 *1156:D *1112:B 0
6 *139:42 *1112:B 0
*RES
1 *1108:X *1112:B 9.345 
*END

*D_NET *219 0.00139283
*CONN
*I *1110:D I *D sky130_fd_sc_hd__and4_1
*I *1109:X O *D sky130_fd_sc_hd__or4b_1
*CAP
1 *1110:D 0.00045077
2 *1109:X 0.00045077
3 *1110:D *982:A 7.06865e-05
4 *1110:D *1022:A 2.0514e-05
5 *1110:D *1125:CLK 7.06865e-05
6 *1110:D *284:18 0.000158965
7 *1110:D *285:28 4.66108e-05
8 *1265:A *1110:D 2.66586e-05
9 *146:10 *1110:D 9.7174e-05
*RES
1 *1109:X *1110:D 13.455 
*END

*D_NET *220 0.00299957
*CONN
*I *1118:B1 I *D sky130_fd_sc_hd__a211o_1
*I *1111:B1 I *D sky130_fd_sc_hd__a31o_1
*I *1110:X O *D sky130_fd_sc_hd__and4_1
*CAP
1 *1118:B1 0.000510493
2 *1111:B1 4.46105e-05
3 *1110:X 0.000205096
4 *220:10 0.000760199
5 *1111:B1 *1111:A1 2.16833e-05
6 *1111:B1 *1111:A2 1.08758e-05
7 *1111:B1 *239:44 8.00018e-05
8 *1118:B1 *1222:A 0
9 *1118:B1 *271:12 4.54719e-05
10 *1118:B1 *271:14 0.000492013
11 *1118:B1 *284:18 0
12 *220:10 *271:14 0.000157602
13 *220:10 *284:18 0
14 *220:10 *326:16 8.40213e-05
15 *220:10 *327:52 2.05056e-05
16 *1112:A *1118:B1 0
17 *167:25 *1118:B1 0.000566996
*RES
1 *1110:X *220:10 6.63 
2 *220:10 *1111:B1 4.755 
3 *220:10 *1118:B1 16.245 
*END

*D_NET *221 0.000446834
*CONN
*I *1112:C I *D sky130_fd_sc_hd__or4b_1
*I *1111:X O *D sky130_fd_sc_hd__a31o_1
*CAP
1 *1112:C 8.57436e-05
2 *1111:X 8.57436e-05
3 *1112:C *1111:A1 8.23457e-05
4 *1112:C *239:32 3.23663e-05
5 *1111:A3 *1112:C 4.66108e-05
6 *1114:A3 *1112:C 0.000114024
*RES
1 *1111:X *1112:C 5.375 
*END

*D_NET *222 0.00106139
*CONN
*I *1114:B1 I *D sky130_fd_sc_hd__o31ai_1
*I *1113:X O *D sky130_fd_sc_hd__a2111o_1
*CAP
1 *1114:B1 0.000100145
2 *1113:X 0.000100145
3 *1114:B1 *1048:A 0.000349581
4 *1114:B1 *241:34 4.40899e-05
5 *1114:B1 *310:110 0.000116165
6 *167:8 *1114:B1 0.000351262
*RES
1 *1113:X *1114:B1 11.79 
*END

*D_NET *223 0.00208984
*CONN
*I *1115:B I *D sky130_fd_sc_hd__or2_1
*I *1114:Y O *D sky130_fd_sc_hd__o31ai_1
*CAP
1 *1115:B 0.000359737
2 *1114:Y 0.000359737
3 *1115:B *271:73 0.000342547
4 *1112:A *1115:B 0.000777888
5 *1115:A *1115:B 0.000249928
6 *139:42 *1115:B 0
*RES
1 *1114:Y *1115:B 19.035 
*END

*D_NET *224 0.000331452
*CONN
*I *1117:B1 I *D sky130_fd_sc_hd__a31o_1
*I *1116:Y O *D sky130_fd_sc_hd__nor3b_1
*CAP
1 *1117:B1 0.000115784
2 *1116:Y 0.000115784
3 *1117:B1 *1116:C_N 2.75229e-05
4 *1117:B1 *236:21 0
5 *1117:B1 *240:27 7.23602e-05
*RES
1 *1116:Y *1117:B1 9.03 
*END

*D_NET *225 0.00332
*CONN
*I *1118:C1 I *D sky130_fd_sc_hd__a211o_1
*I *1117:X O *D sky130_fd_sc_hd__a31o_1
*CAP
1 *1118:C1 0.000745292
2 *1117:X 0.000745292
3 *1118:C1 *999:A 0.000120655
4 *1118:C1 *1013:A2_N 8.49205e-05
5 *1118:C1 *1013:B2 8.49205e-05
6 *1118:C1 *1102:A2 1.61831e-05
7 *1118:C1 *1102:A3 7.60965e-05
8 *1118:C1 *1102:B1 1.35171e-05
9 *1118:C1 *1107:A2 0.00019637
10 *1118:C1 *1118:A1 0.000347717
11 *1118:C1 *1205:A 4.82919e-05
12 *1118:C1 *1257:A 2.26018e-05
13 *1118:C1 *264:16 0.00054033
14 *1118:C1 *274:10 9.30787e-05
15 *1118:C1 *311:13 6.52469e-05
16 *1118:C1 *320:6 5.55258e-05
17 *1118:C1 *320:18 6.39597e-05
*RES
1 *1117:X *1118:C1 23.04 
*END

*D_NET *226 0.00633942
*CONN
*I *1047:A I *D sky130_fd_sc_hd__and3_2
*I *996:A I *D sky130_fd_sc_hd__nor2_1
*I *1084:D1 I *D sky130_fd_sc_hd__o2111a_1
*I *1111:A1 I *D sky130_fd_sc_hd__a31o_1
*I *982:Y O *D sky130_fd_sc_hd__inv_2
*CAP
1 *1047:A 0.000276999
2 *996:A 7.71126e-05
3 *1084:D1 0.000322663
4 *1111:A1 0.000332646
5 *982:Y 0
6 *226:40 0.00106559
7 *226:23 0.00106909
8 *226:4 0.000367587
9 *996:A *1155:CLK 0.000184717
10 *996:A *239:14 2.84137e-05
11 *996:A *254:10 0.000105086
12 *1047:A *1003:A 0.000157595
13 *1047:A *1047:B 9.9468e-05
14 *1047:A *1047:C 2.49909e-05
15 *1047:A *239:14 4.71081e-05
16 *1047:A *254:10 0.000148885
17 *1047:A *254:23 6.74577e-05
18 *1047:A *275:21 0.000391864
19 *1084:D1 *1084:B1 3.00381e-05
20 *1084:D1 *1125:CLK 0
21 *1084:D1 *1156:RESET_B 0
22 *1084:D1 *1203:A 0.000140912
23 *1111:A1 *982:A 3.00381e-05
24 *1111:A1 *1111:A2 8.23457e-05
25 *1111:A1 *1156:RESET_B 0
26 *226:23 *982:A 2.05056e-05
27 *226:40 *1023:A2 0.000138799
28 *226:40 *1099:A2 4.41363e-05
29 *226:40 *323:10 0.00025497
30 *1084:C1 *1084:D1 0.000222184
31 *1084:C1 *226:40 2.8185e-05
32 *1103:A2 *1047:A 4.66108e-05
33 *1111:A3 *1111:A1 1.33285e-05
34 *1111:B1 *1111:A1 2.16833e-05
35 *1112:B *1111:A1 0
36 *1112:C *1111:A1 8.23457e-05
37 *1156:D *1111:A1 7.4027e-05
38 *139:44 *1084:D1 4.82919e-05
39 *146:16 *1084:D1 2.54692e-05
40 *146:16 *1111:A1 0.000268278
*RES
1 *982:Y *226:4 1.6 
2 *226:4 *1111:A1 11.75 
3 *226:4 *226:23 0.45 
4 *226:23 *1084:D1 13.04 
5 *226:23 *226:40 11.075 
6 *226:40 *996:A 6.51 
7 *226:40 *1047:A 12.06 
*END

*D_NET *227 0.00148153
*CONN
*I *1047:B I *D sky130_fd_sc_hd__and3_2
*I *1113:D1 I *D sky130_fd_sc_hd__a2111o_1
*I *983:Y O *D sky130_fd_sc_hd__inv_2
*CAP
1 *1047:B 0.000100909
2 *1113:D1 0.000129133
3 *983:Y 1.95988e-05
4 *227:6 0.000249641
5 *1047:B *254:23 0.000126635
6 *1047:B *275:21 8.15676e-05
7 *1113:D1 *1002:A 1.33285e-05
8 *1113:D1 *1103:A1 4.80285e-05
9 *1113:D1 *1113:A1 8.40269e-05
10 *1113:D1 *1113:B1 4.66108e-05
11 *1113:D1 *1113:C1 2.49909e-05
12 *1113:D1 *228:8 4.82919e-05
13 *1113:D1 *272:25 0.000187281
14 *1113:D1 *327:33 4.66108e-05
15 *227:6 *1103:A1 4.21973e-05
16 *227:6 *272:25 8.49205e-05
17 *1047:A *1047:B 9.9468e-05
18 *1113:A2 *1113:D1 4.82919e-05
*RES
1 *983:Y *227:6 2.395 
2 *227:6 *1113:D1 5.155 
3 *227:6 *1047:B 8.51 
*END

*D_NET *228 0.00499199
*CONN
*I *1107:A1 I *D sky130_fd_sc_hd__a311o_1
*I *1013:B2 I *D sky130_fd_sc_hd__a2bb2o_4
*I *1048:A I *D sky130_fd_sc_hd__nand2_1
*I *984:Y O *D sky130_fd_sc_hd__inv_2
*CAP
1 *1107:A1 0.000478462
2 *1013:B2 1.98353e-05
3 *1048:A 0.000621106
4 *984:Y 2.2266e-05
5 *228:23 0.000711277
6 *228:8 0.000856353
7 *1013:B2 *320:6 4.82863e-05
8 *1013:B2 *320:18 2.0514e-05
9 *1048:A *254:23 7.71016e-05
10 *1048:A *273:21 0
11 *1107:A1 *999:A 8.40269e-05
12 *1107:A1 *1055:A 4.43591e-05
13 *1107:A1 *1055:D 8.40213e-05
14 *1107:A1 *1205:A 8.53113e-06
15 *1107:A1 *1206:A 1.91597e-05
16 *1107:A1 *274:10 3.60648e-05
17 *228:23 *1002:A 0.000286649
18 *228:23 *1002:B 0.000309729
19 *228:23 *1205:A 7.30547e-05
20 *228:23 *254:23 4.43871e-06
21 *228:23 *274:10 4.70912e-05
22 *1050:B1 *1048:A 0
23 *1107:B1 *1107:A1 4.7672e-05
24 *1113:A2 *1048:A 4.43871e-06
25 *1113:A2 *1107:A1 5.38986e-05
26 *1113:A2 *228:23 0.000122904
27 *1113:D1 *228:8 4.82919e-05
28 *1114:A3 *1048:A 4.66108e-05
29 *1114:B1 *1048:A 0.000349581
30 *1118:C1 *1013:B2 8.49205e-05
31 *167:8 *1048:A 0.000367706
32 *167:17 *1048:A 5.4155e-06
33 *173:14 *1107:A1 8.22234e-06
*RES
1 *984:Y *228:8 4.05 
2 *228:8 *1048:A 15.015 
3 *228:8 *228:23 6.48 
4 *228:23 *1013:B2 4.395 
5 *228:23 *1107:A1 10.275 
*END

*D_NET *229 0.000683923
*CONN
*I *1084:A2 I *D sky130_fd_sc_hd__o2111a_1
*I *985:Y O *D sky130_fd_sc_hd__inv_2
*CAP
1 *1084:A2 0.000188643
2 *985:Y 0.000188643
3 *1084:A2 *1014:A1 1.03423e-05
4 *1084:A2 *1014:A2 8.8266e-05
5 *139:42 *1084:A2 4.82863e-05
6 *139:44 *1084:A2 0.000159741
*RES
1 *985:Y *1084:A2 6.41 
*END

*D_NET *230 0.000347827
*CONN
*I *1083:A1_N I *D sky130_fd_sc_hd__o2bb2a_1
*I *986:Y O *D sky130_fd_sc_hd__inv_2
*CAP
1 *1083:A1_N 0.000101379
2 *986:Y 0.000101379
3 *1083:A1_N *320:41 0
4 *1045:B2 *1083:A1_N 1.82476e-05
5 *1130:D *1083:A1_N 6.80503e-05
6 *163:6 *1083:A1_N 5.87706e-05
*RES
1 *986:Y *1083:A1_N 9.49875 
*END

*D_NET *231 0.0014753
*CONN
*I *1053:A1 I *D sky130_fd_sc_hd__o21bai_1
*I *987:Y O *D sky130_fd_sc_hd__inv_2
*CAP
1 *1053:A1 0.000391608
2 *987:Y 0.000391608
3 *1053:A1 *1140:D 7.63204e-05
4 *1053:A1 *1160:A 0.000139245
5 *1053:A1 *347:12 0.000476515
*RES
1 *987:Y *1053:A1 16.185 
*END

*D_NET *232 0.000479122
*CONN
*I *1102:A1 I *D sky130_fd_sc_hd__a32o_1
*I *988:Y O *D sky130_fd_sc_hd__inv_2
*CAP
1 *1102:A1 0.000207036
2 *988:Y 0.000207036
3 *1102:A1 *1117:A1 0
4 *1102:A1 *236:21 0
5 *1102:A1 *264:10 2.37321e-05
6 *1103:C1 *1102:A1 4.13171e-05
*RES
1 *988:Y *1102:A1 9.975 
*END

*D_NET *233 0.00335826
*CONN
*I *1060:B2 I *D sky130_fd_sc_hd__a221o_1
*I *1028:A1 I *D sky130_fd_sc_hd__a21o_1
*I *989:Y O *D sky130_fd_sc_hd__inv_2
*CAP
1 *1060:B2 0.000381877
2 *1028:A1 0.00055941
3 *989:Y 0.000287635
4 *233:10 0.00122892
5 *1028:A1 *1031:A 8.52845e-05
6 *1028:A1 *1070:A 1.59784e-05
7 *1028:A1 *252:14 0
8 *1060:B2 *320:41 0
9 *233:10 *1076:A2 5.83121e-06
10 *1028:A2 *1028:A1 4.89295e-05
11 *1028:B1 *1028:A1 2.71311e-05
12 *1037:A *233:10 1.33293e-05
13 *1037:B *233:10 3.2606e-06
14 *1040:B2 *1028:A1 0.000470149
15 *1040:B2 *233:10 4.70326e-05
16 *1077:A0 *233:10 2.56676e-06
17 *155:18 *233:10 2.04923e-05
18 *159:12 *233:10 0.000160433
*RES
1 *989:Y *233:10 7.59 
2 *233:10 *1028:A1 15.315 
3 *233:10 *1060:B2 8.65875 
*END

*D_NET *234 0.00100204
*CONN
*I *1060:A1 I *D sky130_fd_sc_hd__a221o_1
*I *990:Y O *D sky130_fd_sc_hd__inv_2
*CAP
1 *1060:A1 0.000286948
2 *990:Y 0.000286948
3 *1060:A1 *320:41 0.000116853
4 *1060:C1 *1060:A1 0
5 *1068:B1 *1060:A1 0
6 *163:6 *1060:A1 0.000311294
*RES
1 *990:Y *1060:A1 11.7 
*END

*D_NET *235 0.000438339
*CONN
*I *1078:A I *D sky130_fd_sc_hd__nand2_1
*I *1079:A I *D sky130_fd_sc_hd__or2_1
*I *991:Y O *D sky130_fd_sc_hd__inv_2
*CAP
1 *1078:A 5.98046e-05
2 *1079:A 0
3 *991:Y 7.1099e-05
4 *235:10 0.000130904
5 *1045:B2 *235:10 0
6 *1079:B *1078:A 4.99619e-05
7 *1081:A2 *1078:A 0.00012657
8 *186:12 *1078:A 0
*RES
1 *991:Y *235:10 6.725 
2 *235:10 *1079:A 1.6 
3 *235:10 *1078:A 3.1 
*END

*D_NET *236 0.001681
*CONN
*I *1117:A2 I *D sky130_fd_sc_hd__a31o_1
*I *1102:A2 I *D sky130_fd_sc_hd__a32o_1
*I *1116:A I *D sky130_fd_sc_hd__nor3b_1
*I *992:X O *D sky130_fd_sc_hd__and2_1
*CAP
1 *1117:A2 2.31727e-05
2 *1102:A2 4.44377e-05
3 *1116:A 0
4 *992:X 0.000216395
5 *236:21 0.000193388
6 *236:10 0.000342173
7 *1102:A2 *1102:A3 0.000163199
8 *1102:A2 *1102:B1 1.85674e-05
9 *1102:A2 *1257:A 0.000206918
10 *1102:A2 *240:27 0
11 *1117:A2 *1102:A3 3.74161e-05
12 *1117:A2 *1257:A 4.82919e-05
13 *1117:A2 *240:27 2.30292e-05
14 *236:10 *993:B 0.000241483
15 *236:10 *1101:A2 2.97004e-06
16 *236:10 *240:27 4.40643e-05
17 *236:21 *1117:A1 2.97004e-06
18 *236:21 *240:27 5.63405e-05
19 *1102:A1 *236:21 0
20 *1103:C1 *236:10 0
21 *1103:C1 *236:21 0
22 *1117:B1 *236:21 0
23 *1118:C1 *1102:A2 1.61831e-05
*RES
1 *992:X *236:10 7.155 
2 *236:10 *1116:A 3.6 
3 *236:10 *236:21 4.4 
4 *236:21 *1102:A2 3.79 
5 *236:21 *1117:A2 2.395 
*END

*D_NET *237 0.00144145
*CONN
*I *1116:C_N I *D sky130_fd_sc_hd__nor3b_1
*I *1101:B2 I *D sky130_fd_sc_hd__a32o_1
*I *993:X O *D sky130_fd_sc_hd__and2b_1
*CAP
1 *1116:C_N 0.000281964
2 *1101:B2 0.000189805
3 *993:X 0
4 *237:6 0.000471768
5 *1101:B2 *997:A_N 8.78892e-05
6 *1101:B2 *1100:B1 8.8266e-05
7 *1101:B2 *1101:A1 5.9964e-06
8 *1101:B2 *1116:B 1.90931e-06
9 *1101:B2 *327:101 4.43871e-06
10 *1101:B2 *330:75 0
11 *1101:B2 *330:88 0
12 *1116:C_N *1116:B 0.000240919
13 *1101:B1 *1101:B2 4.09723e-05
14 *1117:B1 *1116:C_N 2.75229e-05
*RES
1 *993:X *237:6 3.6 
2 *237:6 *1101:B2 7.305 
3 *237:6 *1116:C_N 8.79 
*END

*D_NET *238 0.00449759
*CONN
*I *1207:A I *D sky130_fd_sc_hd__buf_2
*I *1008:A I *D sky130_fd_sc_hd__or2_1
*I *994:X O *D sky130_fd_sc_hd__and3b_1
*CAP
1 *1207:A 0.000792718
2 *1008:A 0.000169453
3 *994:X 3.38648e-05
4 *238:8 0.000996036
5 *1008:A *1007:B 0.000162325
6 *1008:A *272:10 0.000233353
7 *1008:A *285:18 0.000160635
8 *1008:A *330:34 2.15594e-05
9 *1008:A *330:45 4.66724e-05
10 *1207:A *995:A_N 4.66108e-05
11 *1207:A *995:C 4.82919e-05
12 *1207:A *1108:A1 0.000574284
13 *1207:A *1108:A2 8.40213e-05
14 *1207:A *272:10 4.75576e-05
15 *1207:A *330:45 6.28498e-05
16 *1207:A *330:51 4.66108e-05
17 *1207:A *330:116 0.000178221
18 *238:8 *994:A_N 4.82919e-05
19 *1008:B *1008:A 4.92062e-05
20 *169:16 *1207:A 0.000695029
*RES
1 *994:X *238:8 4.05 
2 *238:8 *1008:A 8.55 
3 *238:8 *1207:A 20.715 
*END

*D_NET *239 0.0126192
*CONN
*I *1114:A2 I *D sky130_fd_sc_hd__o31ai_1
*I *1027:A2_N I *D sky130_fd_sc_hd__a2bb2o_1
*I *1039:B1 I *D sky130_fd_sc_hd__a21oi_1
*I *1086:B I *D sky130_fd_sc_hd__nor2_1
*I *1023:A1 I *D sky130_fd_sc_hd__o211a_4
*I *996:B I *D sky130_fd_sc_hd__nor2_1
*I *995:Y O *D sky130_fd_sc_hd__nand3b_4
*CAP
1 *1114:A2 0.000104521
2 *1027:A2_N 6.43027e-05
3 *1039:B1 0.000161001
4 *1086:B 0.000346241
5 *1023:A1 0.000117773
6 *996:B 0
7 *995:Y 8.80448e-05
8 *239:46 0.000599915
9 *239:44 0.00202421
10 *239:32 0.00281218
11 *239:14 0.000475665
12 *239:8 0.00128636
13 *1023:A1 *309:6 2.0514e-05
14 *1027:A2_N *253:8 0.000123225
15 *1027:A2_N *320:72 4.9968e-05
16 *1039:B1 *1040:A2 4.66108e-05
17 *1086:B *1040:A2 2.92496e-05
18 *1086:B *1199:A 0
19 *1086:B *268:10 0
20 *1086:B *332:24 0.000359355
21 *1086:B *332:36 0.000123751
22 *1086:B *332:38 7.09921e-05
23 *1086:B *334:36 2.46089e-05
24 *1114:A2 *327:37 9.91801e-05
25 *239:8 *328:16 5.16418e-05
26 *239:8 *328:20 0.00010596
27 *239:8 *331:12 0
28 *239:8 *331:14 0
29 *239:14 *1003:A 8.25609e-05
30 *239:14 *1003:C 6.14602e-05
31 *239:14 *1003:D_N 0
32 *239:14 *1155:CLK 0.000102419
33 *239:14 *1155:RESET_B 0
34 *239:14 *275:21 2.42236e-05
35 *239:14 *309:6 4.99619e-05
36 *239:14 *328:20 2.92496e-05
37 *239:32 *998:A 8.87364e-05
38 *239:32 *998:C_N 0.000232105
39 *239:32 *1112:D_N 0.00012264
40 *239:32 *241:8 1.83756e-05
41 *239:32 *328:31 4.66108e-05
42 *239:44 *1111:A2 8.34281e-06
43 *239:44 *253:8 0.000720692
44 *239:46 *1040:A2 0.000179785
45 *239:46 *281:20 4.93879e-05
46 *239:46 *320:72 8.53722e-05
47 *239:46 *332:24 6.63413e-05
48 *996:A *239:14 2.84137e-05
49 *1029:S *1027:A2_N 0.00011614
50 *1029:S *239:44 0.000107415
51 *1040:B2 *1027:A2_N 1.52945e-05
52 *1040:B2 *239:46 3.32811e-05
53 *1040:C1 *1039:B1 0.000157343
54 *1041:A1 *1086:B 0.000251595
55 *1046:A1 *239:44 5.05437e-05
56 *1047:A *239:14 4.71081e-05
57 *1050:A3 *1114:A2 2.87433e-05
58 *1104:B1 *239:14 0
59 *1111:A3 *239:44 6.33103e-05
60 *1111:B1 *239:44 8.00018e-05
61 *1112:C *239:32 3.23663e-05
62 *1114:A3 *1114:A2 0.000250609
63 *1114:A3 *239:32 2.05056e-05
64 *1114:A3 *239:44 5.05521e-05
65 *1124:D *239:44 3.69746e-05
66 *1155:D *239:14 9.5433e-05
67 *150:29 *1086:B 0
*RES
1 *995:Y *239:8 5.49 
2 *239:8 *239:14 9.44 
3 *239:14 *996:B 1.6 
4 *239:14 *1023:A1 3.445 
5 *239:8 *239:32 12.455 
6 *239:32 *239:44 25.88 
7 *239:44 *239:46 3.165 
8 *239:46 *1086:B 12.675 
9 *239:46 *1039:B1 6.465 
10 *239:44 *1027:A2_N 5.715 
11 *239:32 *1114:A2 8.7875 
*END

*D_NET *240 0.00164908
*CONN
*I *1117:A3 I *D sky130_fd_sc_hd__a31o_1
*I *1102:A3 I *D sky130_fd_sc_hd__a32o_1
*I *1101:A2 I *D sky130_fd_sc_hd__a32o_1
*I *997:X O *D sky130_fd_sc_hd__and2b_1
*CAP
1 *1117:A3 0
2 *1102:A3 4.82664e-05
3 *1101:A2 0.000205154
4 *997:X 0
5 *240:27 0.000244802
6 *240:6 0.00040169
7 *1101:A2 *992:B 0
8 *1101:A2 *1101:A3 4.82919e-05
9 *1101:A2 *1116:B 0.000111324
10 *1101:A2 *327:97 6.52181e-05
11 *240:27 *1116:B 4.88617e-05
12 *1102:A2 *1102:A3 0.000163199
13 *1102:A2 *240:27 0
14 *1117:A2 *1102:A3 3.74161e-05
15 *1117:A2 *240:27 2.30292e-05
16 *1117:B1 *240:27 7.23602e-05
17 *1118:C1 *1102:A3 7.60965e-05
18 *236:10 *1101:A2 2.97004e-06
19 *236:10 *240:27 4.40643e-05
20 *236:21 *240:27 5.63405e-05
*RES
1 *997:X *240:6 3.6 
2 *240:6 *1101:A2 7.485 
3 *240:6 *240:27 6.425 
4 *240:27 *1102:A3 3.43 
5 *240:27 *1117:A3 1.6 
*END

*D_NET *241 0.00492204
*CONN
*I *999:A I *D sky130_fd_sc_hd__inv_2
*I *1013:A2_N I *D sky130_fd_sc_hd__a2bb2o_4
*I *1023:C1 I *D sky130_fd_sc_hd__o211a_4
*I *1014:A1 I *D sky130_fd_sc_hd__a21o_1
*I *998:X O *D sky130_fd_sc_hd__or4bb_4
*CAP
1 *999:A 0.000120512
2 *1013:A2_N 2.18567e-05
3 *1023:C1 7.95201e-05
4 *1014:A1 0.000411786
5 *998:X 1.3091e-05
6 *241:34 0.000688648
7 *241:10 0.000843036
8 *241:8 0.0009111
9 *999:A *1055:A 2.16917e-05
10 *999:A *1206:A 4.66108e-05
11 *999:A *315:10 0.000134516
12 *999:A *320:18 6.3889e-05
13 *1013:A2_N *320:18 4.80285e-05
14 *1014:A1 *985:A 5.83121e-06
15 *1014:A1 *1014:A2 4.70919e-05
16 *1014:A1 *243:12 0
17 *1014:A1 *243:16 0
18 *1014:A1 *310:95 0
19 *241:8 *1112:D_N 4.82863e-05
20 *241:10 *1210:A 4.58406e-05
21 *241:10 *243:10 0
22 *241:10 *243:12 0
23 *241:10 *254:10 0
24 *241:10 *273:21 5.7344e-05
25 *241:10 *310:95 0
26 *241:34 *1055:D 3.9442e-05
27 *241:34 *273:21 0.000287988
28 *241:34 *310:95 0
29 *241:34 *310:110 0
30 *241:34 *315:10 0.00011579
31 *241:34 *317:10 3.90266e-05
32 *241:34 *327:19 0.000106655
33 *241:34 *327:23 0.00022921
34 *1084:A2 *1014:A1 1.03423e-05
35 *1107:A1 *999:A 8.40269e-05
36 *1113:A2 *999:A 0.000132842
37 *1114:B1 *241:34 4.40899e-05
38 *1118:C1 *999:A 0.000120655
39 *1118:C1 *1013:A2_N 8.49205e-05
40 *239:32 *241:8 1.83756e-05
*RES
1 *998:X *241:8 4.05 
2 *241:8 *241:10 6.225 
3 *241:10 *1014:A1 9.78 
4 *241:10 *1023:C1 4.74 
5 *241:8 *241:34 14.6 
6 *241:34 *1013:A2_N 2.395 
7 *241:34 *999:A 9.53 
*END

*D_NET *242 0.00345192
*CONN
*I *1116:B I *D sky130_fd_sc_hd__nor3b_1
*I *1101:A3 I *D sky130_fd_sc_hd__a32o_1
*I *1047:C I *D sky130_fd_sc_hd__and3_2
*I *1001:Y O *D sky130_fd_sc_hd__nor2_1
*CAP
1 *1116:B 0.000305882
2 *1101:A3 9.71884e-06
3 *1047:C 0.00034732
4 *1001:Y 0.00012282
5 *242:23 0.000527889
6 *242:6 0.000682429
7 *1047:C *1005:A_N 4.66108e-05
8 *1047:C *1005:B_N 0.00025143
9 *1047:C *331:71 4.12502e-05
10 *1101:A3 *327:97 4.82919e-05
11 *1116:B *997:A_N 7.63204e-05
12 *242:6 *1001:B 4.47125e-05
13 *242:6 *1005:C 4.82919e-05
14 *242:6 *312:8 4.82919e-05
15 *242:6 *331:71 1.80064e-05
16 *242:23 *997:A_N 1.07797e-05
17 *242:23 *1005:A_N 4.43871e-06
18 *242:23 *1005:C 1.15399e-05
19 *242:23 *1007:A 1.93834e-05
20 *242:23 *327:101 0.000194531
21 *242:23 *331:89 0
22 *1047:A *1047:C 2.49909e-05
23 *1101:A2 *1101:A3 4.82919e-05
24 *1101:A2 *1116:B 0.000111324
25 *1101:B2 *1116:B 1.90931e-06
26 *1103:A2 *1047:C 2.03356e-05
27 *1104:B1 *242:23 6.36273e-05
28 *1116:C_N *1116:B 0.000240919
29 *167:8 *1047:C 3.17194e-05
30 *240:27 *1116:B 4.88617e-05
*RES
1 *1001:Y *242:6 3.775 
2 *242:6 *1047:C 8.65 
3 *242:6 *242:23 6.695 
4 *242:23 *1101:A3 4.05 
5 *242:23 *1116:B 9.915 
*END

*D_NET *243 0.00365903
*CONN
*I *1023:B1 I *D sky130_fd_sc_hd__o211a_4
*I *1014:A2 I *D sky130_fd_sc_hd__a21o_1
*I *1264:A I *D sky130_fd_sc_hd__dlygate4sd1_1
*I *1004:A I *D sky130_fd_sc_hd__inv_2
*I *1003:X O *D sky130_fd_sc_hd__or4b_4
*CAP
1 *1023:B1 0
2 *1014:A2 0.000111043
3 *1264:A 5.35505e-05
4 *1004:A 7.4707e-05
5 *1003:X 0.000260816
6 *243:16 0.000594846
7 *243:12 0.00084303
8 *243:10 0.000526214
9 *1004:A *1015:S 4.21973e-05
10 *1004:A *1017:S 5.05437e-05
11 *1014:A2 *985:A 0.000161529
12 *1264:A *1015:S 7.10578e-05
13 *243:10 *998:D_N 2.96334e-05
14 *243:10 *1023:A2 7.45881e-05
15 *243:10 *1210:A 8.65961e-05
16 *243:10 *254:10 0
17 *243:10 *285:28 0.000273878
18 *243:10 *330:19 4.43682e-05
19 *243:12 *1023:A2 1.43521e-05
20 *243:12 *254:10 0
21 *243:16 *985:A 0
22 *243:16 *1015:S 2.03578e-05
23 *243:16 *1018:A1 0
24 *243:16 *265:8 0
25 *243:16 *310:95 0
26 *243:16 *333:34 0
27 *1014:A1 *1014:A2 4.70919e-05
28 *1014:A1 *243:12 0
29 *1014:A1 *243:16 0
30 *1014:B1 *1014:A2 1.37328e-05
31 *1016:A0 *243:16 0.000176629
32 *1084:A2 *1014:A2 8.8266e-05
33 *241:10 *243:10 0
34 *241:10 *243:12 0
*RES
1 *1003:X *243:10 9.795 
2 *243:10 *243:12 4.185 
3 *243:12 *243:16 10.52 
4 *243:16 *1004:A 3.085 
5 *243:16 *1264:A 2.74 
6 *243:12 *1014:A2 6.48 
7 *243:10 *1023:B1 3.6 
*END

*D_NET *244 0.00335351
*CONN
*I *1007:B I *D sky130_fd_sc_hd__nor2_1
*I *1112:D_N I *D sky130_fd_sc_hd__or4b_1
*I *1006:X O *D sky130_fd_sc_hd__or3b_1
*CAP
1 *1007:B 0.000153233
2 *1112:D_N 0.000455641
3 *1006:X 0
4 *244:4 0.000608874
5 *1007:B *994:B 0.00015806
6 *1007:B *1006:B 7.57202e-05
7 *1007:B *1007:A 3.95269e-05
8 *1007:B *330:34 9.37731e-05
9 *1007:B *331:40 4.35432e-05
10 *1112:D_N *998:A 0.000421068
11 *1112:D_N *998:B 0.000682399
12 *1112:D_N *998:C_N 1.47347e-05
13 *1112:D_N *1006:B 8.49205e-05
14 *1112:D_N *328:31 5.78185e-05
15 *1112:D_N *328:44 4.07182e-05
16 *1112:D_N *331:40 9.02259e-05
17 *1008:A *1007:B 0.000162325
18 *239:32 *1112:D_N 0.00012264
19 *241:8 *1112:D_N 4.82863e-05
*RES
1 *1006:X *244:4 1.6 
2 *244:4 *1112:D_N 13.81 
3 *244:4 *1007:B 9.665 
*END

*D_NET *245 0.000797136
*CONN
*I *1087:A1 I *D sky130_fd_sc_hd__a221o_1
*I *1137:Q O *D sky130_fd_sc_hd__dfrtp_1
*CAP
1 *1087:A1 0.000265708
2 *1137:Q 0.000265708
3 *1087:A1 *1087:B2 1.16854e-05
4 *1087:A1 *334:36 1.43526e-05
5 *1087:C1 *1087:A1 0.000158532
6 *150:12 *1087:A1 7.20529e-05
7 *150:29 *1087:A1 9.09788e-06
*RES
1 *1137:Q *1087:A1 10.935 
*END

*D_NET *246 0.000205982
*CONN
*I *1092:A1 I *D sky130_fd_sc_hd__a221o_1
*I *1138:Q O *D sky130_fd_sc_hd__dfrtp_1
*CAP
1 *1092:A1 5.56184e-05
2 *1138:Q 5.56184e-05
3 *1092:A1 *1256:A 9.47454e-05
*RES
1 *1138:Q *1092:A1 8.325 
*END

*D_NET *247 0.000921566
*CONN
*I *1097:A1 I *D sky130_fd_sc_hd__a221o_1
*I *1139:Q O *D sky130_fd_sc_hd__dfrtp_1
*CAP
1 *1097:A1 0.000401221
2 *1139:Q 0.000401221
3 *1097:A1 *1097:B2 7.21296e-06
4 *1097:A1 *1122:RESET_B 0
5 *1097:A1 *1251:A 2.66935e-05
6 *1097:A1 *1252:A 0
7 *1011:A *1097:A1 8.52172e-05
8 *1012:B *1097:A1 0
*RES
1 *1139:Q *1097:A1 13.05 
*END

*D_NET *248 0.000490789
*CONN
*I *1015:A0 I *D sky130_fd_sc_hd__mux2_1
*I *1145:Q O *D sky130_fd_sc_hd__dfrtp_1
*CAP
1 *1015:A0 0.00014747
2 *1145:Q 0.00014747
3 *1015:A0 *1015:A1 0.000114492
4 *1015:A0 *1015:S 1.26626e-05
5 *1015:A0 *1017:A0 0
6 *1015:A0 *1144:CLK 4.92062e-05
7 *1016:A0 *1015:A0 1.94892e-05
*RES
1 *1145:Q *1015:A0 9.63 
*END

*D_NET *249 0.000979595
*CONN
*I *1017:A0 I *D sky130_fd_sc_hd__mux2_1
*I *1146:Q O *D sky130_fd_sc_hd__dfrtp_1
*CAP
1 *1017:A0 0.000314154
2 *1146:Q 0.000314154
3 *1017:A0 *1144:CLK 9.66106e-05
4 *1017:A0 *270:60 3.00381e-05
5 *1017:A0 *270:67 9.66021e-05
6 *1017:A0 *310:20 7.47284e-05
7 *1015:A0 *1017:A0 0
8 *1018:A0 *1017:A0 5.33085e-05
*RES
1 *1146:Q *1017:A0 12.045 
*END

*D_NET *250 0.00459733
*CONN
*I *990:A I *D sky130_fd_sc_hd__inv_2
*I *1062:A I *D sky130_fd_sc_hd__or2_1
*I *1063:A I *D sky130_fd_sc_hd__nand2_1
*I *1071:A1 I *D sky130_fd_sc_hd__a21o_1
*I *1070:A I *D sky130_fd_sc_hd__nand3_1
*I *1027:B2 I *D sky130_fd_sc_hd__a2bb2o_1
*I *1151:Q O *D sky130_fd_sc_hd__dfrtp_1
*CAP
1 *990:A 3.66084e-05
2 *1062:A 6.67808e-05
3 *1063:A 0.000229527
4 *1071:A1 0
5 *1070:A 9.40311e-05
6 *1027:B2 0.000146583
7 *1151:Q 0.000448864
8 *250:58 0.000273019
9 *250:25 0.000226772
10 *250:23 0.000362268
11 *250:21 0.000202254
12 *250:8 0.000628072
13 *1027:B2 *320:68 0.000137968
14 *1027:B2 *320:70 7.75369e-05
15 *1062:A *1062:B 0.000119756
16 *1063:A *1063:B 4.30388e-05
17 *1063:A *1072:A 4.82863e-05
18 *1070:A *251:25 1.59888e-05
19 *1070:A *251:32 4.75991e-05
20 *1070:A *251:45 3.72418e-05
21 *250:21 *320:68 3.23391e-05
22 *250:25 *251:45 0.000136396
23 *250:58 *1062:B 0.000333496
24 *250:58 *320:64 9.61052e-05
25 *250:58 *320:68 2.92496e-05
26 *1028:A1 *1070:A 1.59784e-05
27 *1029:S *1027:B2 4.99619e-05
28 *1033:B2 *250:58 6.74403e-05
29 *1040:B2 *1027:B2 0.000215505
30 *1040:B2 *250:21 3.23391e-05
31 *1040:B2 *250:58 1.14559e-05
32 *1064:B *990:A 4.47209e-05
33 *1064:B *1062:A 8.23457e-05
34 *1072:C *1063:A 6.99162e-05
35 *1072:C *250:25 4.82863e-05
36 *1079:B *1063:A 0
37 *163:6 *990:A 5.30673e-05
38 *163:6 *1062:A 8.34281e-06
39 *186:12 *1063:A 2.8185e-05
*RES
1 *1151:Q *250:8 8.19 
2 *250:8 *1027:B2 8.49 
3 *250:8 *250:21 0.87 
4 *250:21 *250:23 2 
5 *250:23 *250:25 1.83 
6 *250:25 *1070:A 7.01 
7 *250:25 *1071:A1 1.6 
8 *250:23 *1063:A 4.735 
9 *250:21 *250:58 6.89 
10 *250:58 *1062:A 3.085 
11 *250:58 *990:A 2.755 
*END

*D_NET *251 0.00493993
*CONN
*I *1063:B I *D sky130_fd_sc_hd__nand2_1
*I *1062:B I *D sky130_fd_sc_hd__or2_1
*I *1071:A2 I *D sky130_fd_sc_hd__a21o_1
*I *1070:B I *D sky130_fd_sc_hd__nand3_1
*I *1031:A I *D sky130_fd_sc_hd__and2_1
*I *1152:Q O *D sky130_fd_sc_hd__dfrtp_1
*CAP
1 *1063:B 5.19995e-05
2 *1062:B 0.000193721
3 *1071:A2 1.57081e-05
4 *1070:B 0
5 *1031:A 0.000326853
6 *1152:Q 0.000505531
7 *251:45 0.000317282
8 *251:32 0.000115302
9 *251:25 0.000207705
10 *251:6 0.00101206
11 *1031:A *1031:B 2.75229e-05
12 *1031:A *1215:A 3.64998e-06
13 *1063:B *1072:A 4.66108e-05
14 *1071:A2 *1071:B1 3.50152e-06
15 *251:6 *1215:A 7.94771e-05
16 *251:6 *335:6 9.73618e-05
17 *251:25 *1071:B1 2.68526e-05
18 *251:25 *252:14 0.000149749
19 *251:32 *1071:B1 4.78678e-05
20 *251:45 *1071:B1 8.00738e-05
21 *1028:A1 *1031:A 8.52845e-05
22 *1028:A2 *1031:A 2.01504e-05
23 *1028:B1 *1031:A 3.04704e-05
24 *1040:B2 *1062:B 3.57924e-05
25 *1062:A *1062:B 0.000119756
26 *1063:A *1063:B 4.30388e-05
27 *1070:A *251:25 1.59888e-05
28 *1070:A *251:32 4.75991e-05
29 *1070:A *251:45 3.72418e-05
30 *1072:C *1063:B 5.9934e-05
31 *1072:C *251:45 4.99619e-05
32 *1076:B1 *1062:B 0.000289691
33 *163:6 *1062:B 0.000107363
34 *186:6 *1063:B 3.96737e-05
35 *186:6 *251:45 5.78289e-05
36 *186:12 *1063:B 0.000121437
37 *250:25 *251:45 0.000136396
38 *250:58 *1062:B 0.000333496
*RES
1 *1152:Q *251:6 7.915 
2 *251:6 *1031:A 6.565 
3 *251:6 *251:25 7.615 
4 *251:25 *1070:B 1.6 
5 *251:25 *251:32 0.795 
6 *251:32 *1071:A2 1.96 
7 *251:32 *251:45 2.64 
8 *251:45 *1062:B 11.615 
9 *251:45 *1063:B 3.43 
*END

*D_NET *252 0.00365659
*CONN
*I *1040:A1 I *D sky130_fd_sc_hd__a221o_1
*I *1071:B1 I *D sky130_fd_sc_hd__a21o_1
*I *1070:C I *D sky130_fd_sc_hd__nand3_1
*I *1153:Q O *D sky130_fd_sc_hd__dfrtp_1
*CAP
1 *1040:A1 0.000220645
2 *1071:B1 0.000139089
3 *1070:C 0
4 *1153:Q 0.000373425
5 *252:14 0.000720557
6 *252:6 0.00117554
7 *1040:A1 *332:24 5.16418e-05
8 *252:6 *1153:CLK 9.43648e-05
9 *252:14 *1121:CLK 0
10 *252:14 *1121:RESET_B 0
11 *252:14 *1215:A 0.000100059
12 *252:14 *1216:A 2.38115e-05
13 *252:14 *268:119 0
14 *1028:A1 *252:14 0
15 *1028:A2 *252:14 0
16 *1029:A1 *252:14 7.4027e-05
17 *1040:B2 *252:14 0
18 *1040:C1 *1040:A1 0.000159329
19 *1071:A2 *1071:B1 3.50152e-06
20 *150:29 *1040:A1 4.63403e-05
21 *150:29 *252:14 0
22 *150:38 *1040:A1 9.50342e-06
23 *150:38 *252:14 0
24 *186:6 *1071:B1 0.000160213
25 *186:12 *1071:B1 0
26 *251:25 *1071:B1 2.68526e-05
27 *251:25 *252:14 0.000149749
28 *251:32 *1071:B1 4.78678e-05
29 *251:45 *1071:B1 8.00738e-05
*RES
1 *1153:Q *252:6 7.225 
2 *252:6 *252:14 14.755 
3 *252:14 *1070:C 1.6 
4 *252:14 *1071:B1 5.095 
5 *252:6 *1040:A1 9.425 
*END

*D_NET *253 0.00501662
*CONN
*I *991:A I *D sky130_fd_sc_hd__inv_2
*I *1045:A1 I *D sky130_fd_sc_hd__a221o_1
*I *1154:Q O *D sky130_fd_sc_hd__dfrtp_1
*CAP
1 *991:A 0.000287293
2 *1045:A1 0.000340652
3 *1154:Q 0.000650043
4 *253:8 0.00127799
5 *1045:A1 *1019:B 2.78732e-05
6 *1045:A1 *1045:A2 2.19562e-06
7 *1045:A1 *326:28 2.65814e-06
8 *253:8 *1027:A1_N 3.30916e-05
9 *253:8 *1029:A0 0.000112689
10 *253:8 *1212:A 0.000393391
11 *1027:A2_N *253:8 0.000123225
12 *1029:S *253:8 0.000697419
13 *1034:B1 *991:A 0
14 *1034:B1 *1045:A1 0
15 *1045:B1 *1045:A1 0.000197269
16 *1045:B2 *991:A 0
17 *1045:B2 *1045:A1 0
18 *1045:C1 *1045:A1 2.7881e-05
19 *1121:D *253:8 0.000122261
20 *239:44 *253:8 0.000720692
*RES
1 *1154:Q *253:8 19.575 
2 *253:8 *1045:A1 8.535 
3 *253:8 *991:A 8.295 
*END

*D_NET *254 0.00433592
*CONN
*I *984:A I *D sky130_fd_sc_hd__inv_2
*I *1103:A1 I *D sky130_fd_sc_hd__a211o_1
*I *1108:A1 I *D sky130_fd_sc_hd__a21o_1
*I *1141:Q O *D sky130_fd_sc_hd__dfrtp_1
*CAP
1 *984:A 0
2 *1103:A1 0.000235663
3 *1108:A1 0.000383252
4 *1141:Q 0.00050129
5 *254:23 0.000484975
6 *254:10 0.00113385
7 *1103:A1 *272:25 7.5277e-05
8 *254:10 *998:D_N 8.44437e-05
9 *254:10 *1023:A2 0.000208484
10 *254:10 *1155:CLK 0
11 *254:10 *1210:A 0
12 *254:10 *270:96 3.45679e-05
13 *254:10 *273:21 0
14 *254:23 *273:21 0
15 *996:A *254:10 0.000105086
16 *1047:A *254:10 0.000148885
17 *1047:A *254:23 6.74577e-05
18 *1047:B *254:23 0.000126635
19 *1048:A *254:23 7.71016e-05
20 *1113:D1 *1103:A1 4.80285e-05
21 *1207:A *1108:A1 0.000574284
22 *227:6 *1103:A1 4.21973e-05
23 *228:23 *254:23 4.43871e-06
24 *241:10 *254:10 0
25 *243:10 *254:10 0
26 *243:12 *254:10 0
*RES
1 *1141:Q *254:10 14.19 
2 *254:10 *1108:A1 8.88 
3 *254:10 *254:23 6.695 
4 *254:23 *1103:A1 5.53 
5 *254:23 *984:A 1.6 
*END

*D_NET *255 0.00194531
*CONN
*I *1087:B2 I *D sky130_fd_sc_hd__a221o_1
*I *1134:Q O *D sky130_fd_sc_hd__dfrtp_1
*CAP
1 *1087:B2 0.000561041
2 *1134:Q 0.000561041
3 *1087:B2 *1134:RESET_B 0.000694709
4 *1087:B2 *334:36 8.55275e-05
5 *1087:A1 *1087:B2 1.16854e-05
6 *1087:C1 *1087:B2 3.13099e-05
*RES
1 *1134:Q *1087:B2 15.9038 
*END

*D_NET *256 0.00128967
*CONN
*I *1092:B2 I *D sky130_fd_sc_hd__a221o_1
*I *1135:Q O *D sky130_fd_sc_hd__dfrtp_1
*CAP
1 *1092:B2 0.000614646
2 *1135:Q 0.000614646
3 *1092:B2 *1138:CLK 0
4 *1092:B1 *1092:B2 1.75875e-05
5 *1092:C1 *1092:B2 4.27904e-05
*RES
1 *1135:Q *1092:B2 16.7437 
*END

*D_NET *257 0.0010172
*CONN
*I *1097:B2 I *D sky130_fd_sc_hd__a221o_1
*I *1136:Q O *D sky130_fd_sc_hd__dfrtp_1
*CAP
1 *1097:B2 0.000287645
2 *1136:Q 0.000287645
3 *1010:A *1097:B2 7.22354e-05
4 *1010:B *1097:B2 6.54674e-05
5 *1011:A *1097:B2 0.000123388
6 *1092:B1 *1097:B2 0.000158066
7 *1097:A1 *1097:B2 7.21296e-06
8 *1097:B1 *1097:B2 6.03947e-06
9 *1097:C1 *1097:B2 9.50342e-06
*RES
1 *1136:Q *1097:B2 11.8088 
*END

*D_NET *258 0.000978376
*CONN
*I *1015:A1 I *D sky130_fd_sc_hd__mux2_1
*I *1143:Q O *D sky130_fd_sc_hd__dfrtp_1
*CAP
1 *1015:A1 0.000345272
2 *1143:Q 0.000345272
3 *1015:A1 *1015:S 9.50342e-06
4 *1015:A1 *1017:A1 0
5 *1015:A1 *1143:RESET_B 4.24575e-05
6 *1015:A1 *333:52 8.65961e-05
7 *1015:A1 *333:66 3.47837e-05
8 *1015:A0 *1015:A1 0.000114492
*RES
1 *1143:Q *1015:A1 12.45 
*END

*D_NET *259 0.0011222
*CONN
*I *1017:A1 I *D sky130_fd_sc_hd__mux2_1
*I *1144:Q O *D sky130_fd_sc_hd__dfrtp_1
*CAP
1 *1017:A1 0.000471589
2 *1144:Q 0.000471589
3 *1017:A1 *310:20 5.83121e-06
4 *1017:A1 *333:46 0
5 *1015:A1 *1017:A1 0
6 *1016:A0 *1017:A1 4.82863e-05
7 *1018:A0 *1017:A1 0.0001249
*RES
1 *1144:Q *1017:A1 14.415 
*END

*D_NET *260 0.00177386
*CONN
*I *989:A I *D sky130_fd_sc_hd__inv_2
*I *1032:A I *D sky130_fd_sc_hd__xor2_1
*I *1036:A I *D sky130_fd_sc_hd__and3_1
*I *1035:A1 I *D sky130_fd_sc_hd__a21oi_1
*I *1147:Q O *D sky130_fd_sc_hd__dfrtp_1
*CAP
1 *989:A 7.85483e-05
2 *1032:A 0
3 *1036:A 0
4 *1035:A1 0.000144496
5 *1147:Q 9.65421e-05
6 *260:36 0.000217556
7 *260:27 0.000139008
8 *260:10 0.000241038
9 *1035:A1 *1035:A2 2.49909e-05
10 *1035:A1 *262:10 9.50342e-06
11 *1035:A1 *335:50 2.40105e-05
12 *260:10 *1263:A 4.66108e-05
13 *260:10 *261:10 3.31204e-05
14 *260:10 *261:14 4.13249e-05
15 *260:10 *262:10 0.00015046
16 *260:36 *1032:B 0.000199379
17 *260:36 *1035:A2 8.65961e-05
18 *260:36 *1036:C 9.32577e-05
19 *1037:A *989:A 8.86759e-05
20 *1037:A *260:36 9.80943e-06
21 *155:18 *989:A 4.89295e-05
*RES
1 *1147:Q *260:10 5.94 
2 *260:10 *1035:A1 5.565 
3 *260:10 *260:27 2 
4 *260:27 *1036:A 1.6 
5 *260:27 *260:36 3.225 
6 *260:36 *1032:A 1.6 
7 *260:36 *989:A 3.43 
*END

*D_NET *261 0.00182038
*CONN
*I *1036:B I *D sky130_fd_sc_hd__and3_1
*I *1032:B I *D sky130_fd_sc_hd__xor2_1
*I *1035:A2 I *D sky130_fd_sc_hd__a21oi_1
*I *1148:Q O *D sky130_fd_sc_hd__dfrtp_1
*CAP
1 *1036:B 0
2 *1032:B 5.39015e-05
3 *1035:A2 9.99292e-05
4 *1148:Q 0.000348884
5 *261:14 0.000194603
6 *261:10 0.000389656
7 *1035:A2 *1036:C 2.16833e-05
8 *261:10 *262:10 0.000142003
9 *1035:A1 *1035:A2 2.49909e-05
10 *1037:A *1032:B 0.000117116
11 *1037:A *1035:A2 6.71882e-05
12 *1042:B *261:10 0
13 *1042:B *261:14 0
14 *260:10 *261:10 3.31204e-05
15 *260:10 *261:14 4.13249e-05
16 *260:36 *1032:B 0.000199379
17 *260:36 *1035:A2 8.65961e-05
*RES
1 *1148:Q *261:10 9.69 
2 *261:10 *261:14 2.87 
3 *261:14 *1035:A2 3.775 
4 *261:14 *1032:B 3.79 
5 *261:10 *1036:B 3.6 
*END

*D_NET *262 0.00157295
*CONN
*I *1035:B1 I *D sky130_fd_sc_hd__a21oi_1
*I *1036:C I *D sky130_fd_sc_hd__and3_1
*I *1149:Q O *D sky130_fd_sc_hd__dfrtp_1
*CAP
1 *1035:B1 0
2 *1036:C 0.000108506
3 *1149:Q 0.000271289
4 *262:10 0.000379795
5 *262:10 *1129:CLK 0
6 *262:10 *335:50 0.000140852
7 *262:10 *335:60 0.000203493
8 *262:10 *335:72 5.21046e-05
9 *1035:A1 *262:10 9.50342e-06
10 *1035:A2 *1036:C 2.16833e-05
11 *260:10 *262:10 0.00015046
12 *260:36 *1036:C 9.32577e-05
13 *261:10 *262:10 0.000142003
*RES
1 *1149:Q *262:10 13.61 
2 *262:10 *1036:C 3.16 
3 *262:10 *1035:B1 1.6 
*END

*D_NET *263 0.000467523
*CONN
*I *1042:A I *D sky130_fd_sc_hd__xor2_1
*I *1150:Q O *D sky130_fd_sc_hd__dfrtp_1
*CAP
1 *1042:A 0.000233762
2 *1150:Q 0.000233762
*RES
1 *1150:Q *1042:A 6.77 
*END

*D_NET *264 0.00340971
*CONN
*I *1102:B2 I *D sky130_fd_sc_hd__a32o_1
*I *1013:A1_N I *D sky130_fd_sc_hd__a2bb2o_4
*I *1107:A2 I *D sky130_fd_sc_hd__a311o_1
*I *1140:Q O *D sky130_fd_sc_hd__dfrtp_1
*CAP
1 *1102:B2 0
2 *1013:A1_N 2.4106e-05
3 *1107:A2 0.000167305
4 *1140:Q 0.000399407
5 *264:16 0.000708737
6 *264:10 0.000916732
7 *1013:A1_N *1055:C 5.16348e-05
8 *1013:A1_N *317:14 4.43871e-06
9 *1013:A1_N *317:39 2.0648e-05
10 *1107:A2 *271:73 9.71067e-05
11 *1107:A2 *317:39 5.20968e-05
12 *264:10 *1157:RESET_B 0
13 *264:10 *1257:A 0
14 *264:10 *274:10 0
15 *264:10 *347:16 0
16 *264:16 *274:10 0
17 *264:16 *320:6 1.61831e-05
18 *1102:A1 *264:10 2.37321e-05
19 *1103:C1 *264:10 7.47215e-05
20 *1103:C1 *264:16 0.000116158
21 *1118:C1 *1107:A2 0.00019637
22 *1118:C1 *264:16 0.00054033
*RES
1 *1140:Q *264:10 10.11 
2 *264:10 *264:16 9.35 
3 *264:16 *1107:A2 8.555 
4 *264:16 *1013:A1_N 6.215 
5 *264:10 *1102:B2 3.6 
*END

*D_NET *265 0.00163335
*CONN
*I *985:A I *D sky130_fd_sc_hd__inv_2
*I *1218:A I *D sky130_fd_sc_hd__dlygate4sd3_1
*I *1119:Q O *D sky130_fd_sc_hd__dfrtp_1
*CAP
1 *985:A 0.000468795
2 *1218:A 0.000146574
3 *1119:Q 9.10854e-05
4 *265:8 0.000706454
5 *985:A *333:105 0
6 *1218:A *1016:A1 3.64998e-06
7 *265:8 *333:34 4.94326e-05
8 *265:8 *333:105 0
9 *1014:A1 *985:A 5.83121e-06
10 *1014:A2 *985:A 0.000161529
11 *243:16 *985:A 0
12 *243:16 *265:8 0
*RES
1 *1119:Q *265:8 5.235 
2 *265:8 *1218:A 5.775 
3 *265:8 *985:A 11.43 
*END

*D_NET *266 0.000848094
*CONN
*I *1084:A1 I *D sky130_fd_sc_hd__o2111a_1
*I *1217:A I *D sky130_fd_sc_hd__dlygate4sd3_1
*I *1120:Q O *D sky130_fd_sc_hd__dfrtp_1
*CAP
1 *1084:A1 8.13112e-05
2 *1217:A 6.76039e-05
3 *1120:Q 6.47527e-05
4 *266:8 0.000213668
5 *1084:A1 *270:23 0.000162325
6 *1217:A *1156:RESET_B 4.66826e-05
7 *266:8 *270:23 0.000162318
8 *266:8 *333:20 4.94326e-05
9 *1084:C1 *1084:A1 0
*RES
1 *1120:Q *266:8 5.49 
2 *266:8 *1217:A 4.74 
3 *266:8 *1084:A1 5.49 
*END

*D_NET *267 0.00984067
*CONN
*I *1201:A I *D sky130_fd_sc_hd__clkbuf_16
*I *1199:A I *D sky130_fd_sc_hd__clkbuf_16
*I *1198:A I *D sky130_fd_sc_hd__clkbuf_16
*I *1200:A I *D sky130_fd_sc_hd__clkbuf_16
*I *1197:X O *D sky130_fd_sc_hd__clkbuf_16
*CAP
1 *1201:A 0.000412354
2 *1199:A 0.000762661
3 *1198:A 0.00034795
4 *1200:A 0.000380922
5 *1197:X 0
6 *267:25 0.00178882
7 *267:8 0.00122859
8 *267:6 0.000581813
9 *1198:A *281:44 0
10 *1199:A *1040:A2 0
11 *1199:A *1081:A1 0
12 *1199:A *281:44 0
13 *1199:A *320:70 0
14 *1199:A *320:72 0
15 *1200:A *1030:A1 6.10014e-05
16 *1200:A *1030:A2 0.000219214
17 *1201:A *1124:CLK 0.000141695
18 *1201:A *1222:A 0
19 *1201:A *271:36 0.000228149
20 *1201:A *271:38 0.000114912
21 *267:8 *284:30 0.00011379
22 *267:25 *1021:D 0.000119631
23 *267:25 *1030:A1 0.000129609
24 *267:25 *281:44 0.000117116
25 *267:25 *281:50 2.45351e-05
26 *267:25 *282:34 0.000376233
27 *267:25 *282:36 0.000121437
28 *267:25 *283:34 1.91597e-05
29 *267:25 *283:41 0.000497676
30 *267:25 *283:54 4.82863e-05
31 *1025:A *1200:A 4.82919e-05
32 *1033:B1 *1199:A 0
33 *1033:B2 *1199:A 0.000378945
34 *1033:C1 *1199:A 4.19688e-05
35 *1041:A1 *1198:A 0
36 *1041:A1 *1199:A 0
37 *1050:A1 *1201:A 0.000242027
38 *1050:A1 *267:8 9.50036e-05
39 *1064:C *1199:A 0.000136884
40 *1086:B *1199:A 0
41 *1125:D *1200:A 2.75538e-05
42 *1125:D *1201:A 0.000152104
43 *1125:D *267:8 0.000123003
44 *148:12 *1200:A 0.000183043
45 *148:12 *267:8 0.000253358
46 *148:16 *1200:A 8.82557e-05
47 *149:10 *1200:A 0.00023468
*RES
1 *1197:X *267:6 3.6 
2 *267:6 *267:8 5.205 
3 *267:8 *1200:A 12.06 
4 *267:8 *267:25 18.25 
5 *267:25 *1198:A 8.46 
6 *267:25 *1199:A 17.73 
7 *267:6 *1201:A 13.98 
*END

*D_NET *268 0.0153185
*CONN
*I *1122:CLK I *D sky130_fd_sc_hd__dfrtp_2
*I *1131:CLK I *D sky130_fd_sc_hd__dfrtp_2
*I *1132:CLK I *D sky130_fd_sc_hd__dfrtp_1
*I *1123:CLK I *D sky130_fd_sc_hd__dfrtp_1
*I *1121:CLK I *D sky130_fd_sc_hd__dfrtp_4
*I *1153:CLK I *D sky130_fd_sc_hd__dfrtp_1
*I *1202:A I *D sky130_fd_sc_hd__clkbuf_4
*I *1134:CLK I *D sky130_fd_sc_hd__dfrtp_1
*I *1137:CLK I *D sky130_fd_sc_hd__dfrtp_1
*I *1135:CLK I *D sky130_fd_sc_hd__dfrtp_1
*I *1138:CLK I *D sky130_fd_sc_hd__dfrtp_1
*I *1136:CLK I *D sky130_fd_sc_hd__dfrtp_1
*I *1139:CLK I *D sky130_fd_sc_hd__dfrtp_1
*I *1198:X O *D sky130_fd_sc_hd__clkbuf_16
*CAP
1 *1122:CLK 0.000210675
2 *1131:CLK 6.64173e-05
3 *1132:CLK 3.63992e-05
4 *1123:CLK 0
5 *1121:CLK 7.55222e-05
6 *1153:CLK 0.00083771
7 *1202:A 0.000235688
8 *1134:CLK 0.000379839
9 *1137:CLK 0
10 *1135:CLK 0.000528544
11 *1138:CLK 0.000217221
12 *1136:CLK 0
13 *1139:CLK 0.000314584
14 *1198:X 0.000402702
15 *268:119 0.0011077
16 *268:108 0.000549833
17 *268:104 0.000456868
18 *268:85 0.000864963
19 *268:76 0.00067835
20 *268:59 0.00127472
21 *268:44 0.000661837
22 *268:42 0.000781323
23 *268:20 0.000403643
24 *268:18 0.000820709
25 *268:16 0.000442854
26 *268:10 0.000774231
27 *1121:CLK *1121:RESET_B 5.56629e-05
28 *1131:CLK *1131:RESET_B 4.80285e-05
29 *1134:CLK *1134:D 1.0263e-05
30 *1135:CLK *1135:D 1.7386e-05
31 *1139:CLK *1136:D 5.13029e-05
32 *1139:CLK *1256:A 0
33 *1139:CLK *332:44 7.44453e-05
34 *1139:CLK *332:52 0.000658594
35 *268:10 *326:34 0
36 *268:10 *332:36 0
37 *268:10 *332:38 0
38 *268:16 *332:38 7.4538e-05
39 *268:18 *332:38 2.86623e-05
40 *268:18 *332:40 0.000275359
41 *268:18 *332:44 3.95347e-05
42 *268:20 *332:44 6.73424e-05
43 *268:42 *1135:RESET_B 8.50038e-05
44 *268:44 *1135:RESET_B 9.4531e-05
45 *268:59 *1135:RESET_B 0.000148111
46 *268:85 *334:12 8.97564e-05
47 *268:104 *334:12 7.53115e-05
48 *1034:B1 *268:10 0
49 *1041:A1 *268:10 0
50 *1086:A *1122:CLK 4.66108e-05
51 *1086:A *268:16 0.000235568
52 *1086:B *268:10 0
53 *1088:A1 *1122:CLK 7.57202e-05
54 *1092:B2 *1138:CLK 0
55 *1092:C1 *1139:CLK 0
56 *1092:C1 *268:18 0
57 *1092:C1 *268:20 0
58 *1093:A1 *268:18 3.86529e-05
59 *1093:S *1122:CLK 3.51884e-05
60 *1093:S *268:16 0.000137578
61 *1093:S *268:18 0.000362958
62 *1131:D *1131:CLK 3.07686e-05
63 *115:10 *268:18 0
64 *115:16 *268:18 0
65 *115:75 *268:10 2.92496e-05
66 *150:12 *1131:CLK 3.09088e-05
67 *199:20 *1122:CLK 0.000184741
68 *252:6 *1153:CLK 9.43648e-05
69 *252:14 *1121:CLK 0
70 *252:14 *268:119 0
*RES
1 *1198:X *268:10 11.57 
2 *268:10 *268:16 5.81 
3 *268:16 *268:18 6.99 
4 *268:18 *268:20 1.635 
5 *268:20 *1139:CLK 11.46 
6 *268:20 *1136:CLK 3.6 
7 *268:18 *268:42 7.97 
8 *268:42 *268:44 2.865 
9 *268:44 *1138:CLK 9.02 
10 *268:44 *268:59 3.915 
11 *268:59 *1135:CLK 7.96 
12 *268:59 *268:76 10.52 
13 *268:76 *1137:CLK 3.6 
14 *268:76 *268:85 2.655 
15 *268:85 *1134:CLK 9.345 
16 *268:85 *268:104 7.535 
17 *268:104 *268:108 3.89 
18 *268:108 *1202:A 6.81 
19 *268:108 *268:119 3.165 
20 *268:119 *1153:CLK 13.29 
21 *268:119 *1121:CLK 4.98 
22 *268:104 *1123:CLK 1.6 
23 *268:42 *1132:CLK 2.215 
24 *268:16 *1131:CLK 5.085 
25 *268:10 *1122:CLK 5.515 
*END

*D_NET *269 0.0126941
*CONN
*I *1130:CLK I *D sky130_fd_sc_hd__dfrtp_1
*I *1151:CLK I *D sky130_fd_sc_hd__dfrtp_1
*I *1128:CLK I *D sky130_fd_sc_hd__dfrtp_2
*I *1127:CLK I *D sky130_fd_sc_hd__dfrtp_2
*I *1129:CLK I *D sky130_fd_sc_hd__dfrtp_1
*I *1142:CLK I *D sky130_fd_sc_hd__dfrtp_1
*I *1149:CLK I *D sky130_fd_sc_hd__dfrtp_1
*I *1148:CLK I *D sky130_fd_sc_hd__dfrtp_1
*I *1147:CLK I *D sky130_fd_sc_hd__dfrtp_1
*I *1150:CLK I *D sky130_fd_sc_hd__dfrtp_1
*I *1152:CLK I *D sky130_fd_sc_hd__dfrtp_1
*I *1154:CLK I *D sky130_fd_sc_hd__dfrtp_1
*I *1199:X O *D sky130_fd_sc_hd__clkbuf_16
*CAP
1 *1130:CLK 0.000650395
2 *1151:CLK 0.000254606
3 *1128:CLK 0
4 *1127:CLK 0.00049896
5 *1129:CLK 0.000137975
6 *1142:CLK 0.0001597
7 *1149:CLK 0
8 *1148:CLK 0
9 *1147:CLK 0
10 *1150:CLK 0
11 *1152:CLK 0
12 *1154:CLK 0.000165731
13 *1199:X 2.09808e-05
14 *269:104 0.000797549
15 *269:91 0.000693455
16 *269:76 0.000783548
17 *269:67 0.000468154
18 *269:56 0.000314953
19 *269:47 0.000532265
20 *269:38 0.000421911
21 *269:18 0.000526548
22 *269:16 0.000889848
23 *269:12 0.00129581
24 *269:6 0.00128695
25 *1127:CLK *1142:RESET_B 0
26 *1127:CLK *347:12 0.000603253
27 *1130:CLK *986:A 1.61831e-05
28 *1130:CLK *1064:A 2.75229e-05
29 *1130:CLK *320:64 0.000304474
30 *1142:CLK *1142:D 4.69687e-05
31 *1151:CLK *1151:D 0.000112291
32 *1151:CLK *335:26 0
33 *1151:CLK *335:40 3.76827e-05
34 *1154:CLK *1152:D 4.18603e-06
35 *1154:CLK *1154:D 0
36 *269:12 *1151:D 6.20954e-05
37 *269:16 *1151:D 6.10417e-05
38 *269:18 *1152:D 0.000111238
39 *269:38 *1150:D 2.99518e-06
40 *269:47 *1150:D 3.63701e-06
41 *269:91 *1149:RESET_B 2.40101e-05
42 *269:91 *335:82 0.000278321
43 *269:104 *1128:RESET_B 6.32842e-05
44 *269:104 *335:82 0.000307247
45 *1064:C *1130:CLK 6.43935e-05
46 *1068:B1 *1130:CLK 1.19928e-05
47 *1130:D *1130:CLK 7.00889e-06
48 *1224:A *269:18 0
49 *1232:A *269:67 0.000152503
50 *1235:A *269:47 0.000173916
51 *1240:A *269:47 6.44676e-05
52 *1240:A *269:56 0.000185398
53 *1246:A *269:16 5.83121e-06
54 *1247:A *269:18 6.28008e-05
55 *262:10 *1129:CLK 0
*RES
1 *1199:X *269:6 1.96 
2 *269:6 *269:12 9.36 
3 *269:12 *269:16 6.935 
4 *269:16 *269:18 6.735 
5 *269:18 *1154:CLK 6.195 
6 *269:18 *1152:CLK 3.6 
7 *269:16 *269:38 1.635 
8 *269:38 *1150:CLK 3.6 
9 *269:38 *269:47 5.97 
10 *269:47 *1147:CLK 3.6 
11 *269:47 *269:56 4.185 
12 *269:56 *1148:CLK 3.6 
13 *269:56 *269:67 4.145 
14 *269:67 *1149:CLK 1.6 
15 *269:67 *269:76 5.295 
16 *269:76 *1142:CLK 8.285 
17 *269:76 *269:91 5.28 
18 *269:91 *1129:CLK 7.745 
19 *269:91 *269:104 6.315 
20 *269:104 *1127:CLK 16.565 
21 *269:104 *1128:CLK 1.6 
22 *269:12 *1151:CLK 10.295 
23 *269:6 *1130:CLK 12.4 
*END

*D_NET *270 0.0107439
*CONN
*I *1141:CLK I *D sky130_fd_sc_hd__dfrtp_1
*I *1155:CLK I *D sky130_fd_sc_hd__dfrtp_1
*I *1133:CLK I *D sky130_fd_sc_hd__dfrtp_1
*I *1144:CLK I *D sky130_fd_sc_hd__dfrtp_1
*I *1143:CLK I *D sky130_fd_sc_hd__dfrtp_1
*I *1145:CLK I *D sky130_fd_sc_hd__dfrtp_1
*I *1146:CLK I *D sky130_fd_sc_hd__dfrtp_1
*I *1120:CLK I *D sky130_fd_sc_hd__dfrtp_1
*I *1119:CLK I *D sky130_fd_sc_hd__dfrtp_1
*I *1203:A I *D sky130_fd_sc_hd__clkinv_2
*I *1200:X O *D sky130_fd_sc_hd__clkbuf_16
*CAP
1 *1141:CLK 0.000583149
2 *1155:CLK 0.000139273
3 *1133:CLK 0
4 *1144:CLK 0.000688018
5 *1143:CLK 0.000101406
6 *1145:CLK 0
7 *1146:CLK 0.000263703
8 *1120:CLK 0.000133029
9 *1119:CLK 0.000126254
10 *1203:A 0.000204398
11 *1200:X 0
12 *270:96 0.00102908
13 *270:67 0.000827884
14 *270:60 0.00021537
15 *270:51 0.000577291
16 *270:47 0.000509571
17 *270:36 0.000678162
18 *270:23 0.000513824
19 *270:6 0.000719667
20 *270:4 0.000606591
21 *1119:CLK *310:95 0
22 *1119:CLK *333:20 2.03578e-05
23 *1143:CLK *1133:RESET_B 0
24 *1143:CLK *1145:D 0.000140905
25 *1144:CLK *1144:D 7.60965e-05
26 *1144:CLK *1145:RESET_B 2.65337e-05
27 *1144:CLK *333:66 9.2741e-05
28 *1144:CLK *333:80 0.000190287
29 *1155:CLK *1155:RESET_B 0
30 *270:23 *1156:RESET_B 0.000335858
31 *270:23 *310:95 0
32 *270:23 *333:20 5.12017e-06
33 *270:36 *1120:RESET_B 2.40101e-05
34 *270:36 *333:34 7.10578e-05
35 *270:47 *1133:RESET_B 0
36 *270:47 *333:20 0
37 *270:51 *1133:RESET_B 0
38 *270:60 *1146:RESET_B 2.40101e-05
39 *270:60 *333:80 7.35813e-05
40 *270:67 *333:80 7.15015e-05
41 *996:A *1155:CLK 0.000184717
42 *1015:A0 *1144:CLK 4.92062e-05
43 *1017:A0 *1144:CLK 9.66106e-05
44 *1017:A0 *270:60 3.00381e-05
45 *1017:A0 *270:67 9.66021e-05
46 *1084:A1 *270:23 0.000162325
47 *1084:C1 *1203:A 0.000139252
48 *1084:C1 *270:23 0
49 *1084:D1 *1203:A 0.000140912
50 *1120:D *1120:CLK 9.98563e-05
51 *1120:D *270:36 0.000297489
52 *1133:D *270:47 0
53 *1133:D *270:51 0
54 *140:16 *270:23 7.8831e-05
55 *239:14 *1155:CLK 0.000102419
56 *254:10 *1155:CLK 0
57 *254:10 *270:96 3.45679e-05
58 *266:8 *270:23 0.000162318
*RES
1 *1200:X *270:4 1.6 
2 *270:4 *270:6 3.9 
3 *270:6 *1203:A 9.41 
4 *270:6 *270:23 8.48 
5 *270:23 *1119:CLK 5.745 
6 *270:23 *270:36 6.59 
7 *270:36 *1120:CLK 4.12 
8 *270:36 *270:47 8.225 
9 *270:47 *270:51 4.145 
10 *270:51 *1146:CLK 5.5 
11 *270:51 *270:60 3.21 
12 *270:60 *1145:CLK 1.6 
13 *270:60 *270:67 1.485 
14 *270:67 *1143:CLK 7.745 
15 *270:67 *1144:CLK 14.815 
16 *270:47 *1133:CLK 3.6 
17 *270:4 *270:96 3.57 
18 *270:96 *1155:CLK 9.02 
19 *270:96 *1141:CLK 8.185 
*END

*D_NET *271 0.0109637
*CONN
*I *1126:CLK I *D sky130_fd_sc_hd__dfrtp_1
*I *1140:CLK I *D sky130_fd_sc_hd__dfrtp_1
*I *1157:CLK I *D sky130_fd_sc_hd__dfrtp_1
*I *1204:A I *D sky130_fd_sc_hd__clkinvlp_4
*I *1158:CLK I *D sky130_fd_sc_hd__dfrtp_1
*I *1124:CLK I *D sky130_fd_sc_hd__dfrtp_1
*I *1156:CLK I *D sky130_fd_sc_hd__dfrtp_1
*I *1125:CLK I *D sky130_fd_sc_hd__dfrtp_1
*I *1201:X O *D sky130_fd_sc_hd__clkbuf_16
*CAP
1 *1126:CLK 0.000409111
2 *1140:CLK 0.000145481
3 *1157:CLK 0
4 *1204:A 0
5 *1158:CLK 0.000263918
6 *1124:CLK 0.00039559
7 *1156:CLK 5.89093e-05
8 *1125:CLK 0.000443866
9 *1201:X 2.49572e-05
10 *271:82 0.000631403
11 *271:73 0.000610832
12 *271:38 0.000704494
13 *271:36 0.000186163
14 *271:14 0.000768131
15 *271:12 0.000691169
16 *271:6 0.000843614
17 *1124:CLK *336:10 0.000344608
18 *1125:CLK *982:A 4.76503e-05
19 *1125:CLK *1084:B1 0.000227543
20 *1125:CLK *284:18 0
21 *1125:CLK *326:95 0.000487991
22 *1126:CLK *1009:A 2.75145e-05
23 *1126:CLK *1009:B 0.000152127
24 *1126:CLK *1126:RESET_B 6.8731e-05
25 *1126:CLK *325:18 5.23362e-05
26 *1126:CLK *336:42 7.16103e-05
27 *1126:CLK *336:56 0.000161561
28 *1140:CLK *325:22 2.49909e-05
29 *1156:CLK *285:28 0.000139815
30 *1156:CLK *327:52 8.49205e-05
31 *1158:CLK *336:10 0
32 *1158:CLK *336:20 0
33 *1158:CLK *336:34 0
34 *271:6 *327:33 1.33293e-05
35 *271:12 *327:33 8.51939e-05
36 *271:14 *982:A 1.52184e-05
37 *271:14 *284:18 0
38 *271:14 *326:10 0.000128353
39 *271:14 *326:16 0.00013521
40 *271:14 *327:33 0
41 *271:14 *327:37 0.000143528
42 *271:73 *317:14 0
43 *271:73 *317:39 6.95789e-05
44 *271:73 *325:18 0.000228501
45 *271:82 *325:18 0.000164679
46 *1050:A1 *1124:CLK 0.000187766
47 *1082:A2 *1158:CLK 0
48 *1084:D1 *1125:CLK 0
49 *1107:A2 *271:73 9.71067e-05
50 *1107:C1 *271:73 0
51 *1110:D *1125:CLK 7.06865e-05
52 *1112:A *271:12 0
53 *1112:A *271:14 0
54 *1115:A *271:73 0
55 *1115:B *271:73 0.000342547
56 *1118:B1 *271:12 4.54719e-05
57 *1118:B1 *271:14 0.000492013
58 *1125:D *1125:CLK 0
59 *1126:D *1126:CLK 2.49909e-05
60 *1201:A *1124:CLK 0.000141695
61 *1201:A *271:36 0.000228149
62 *1201:A *271:38 0.000114912
63 *139:42 *271:73 0
64 *146:16 *1125:CLK 8.09021e-06
65 *167:25 *1158:CLK 0
66 *220:10 *271:14 0.000157602
*RES
1 *1201:X *271:6 2.05 
2 *271:6 *271:12 6.515 
3 *271:12 *271:14 8.265 
4 *271:14 *1125:CLK 13.65 
5 *271:14 *1156:CLK 5.085 
6 *271:12 *271:36 4.865 
7 *271:36 *271:38 1.14 
8 *271:38 *1124:CLK 14.225 
9 *271:38 *1158:CLK 9.785 
10 *271:36 *1204:A 1.6 
11 *271:6 *271:73 14.09 
12 *271:73 *1157:CLK 3.6 
13 *271:73 *271:82 1.89 
14 *271:82 *1140:CLK 5.775 
15 *271:82 *1126:CLK 12.315 
*END

*D_NET *272 0.00456301
*CONN
*I *1002:B I *D sky130_fd_sc_hd__nor4b_2
*I *1113:A1 I *D sky130_fd_sc_hd__a2111o_1
*I *1211:A I *D sky130_fd_sc_hd__clkbuf_4
*I *1155:Q O *D sky130_fd_sc_hd__dfrtp_1
*CAP
1 *1002:B 9.20195e-05
2 *1113:A1 3.79187e-05
3 *1211:A 1.17533e-05
4 *1155:Q 0.000337894
5 *272:25 0.000996647
6 *272:10 0.00121636
7 *1113:A1 *1002:A 8.23457e-05
8 *1113:A1 *273:21 5.16418e-05
9 *1211:A *330:51 4.82863e-05
10 *272:10 *994:C 0
11 *272:10 *285:18 0
12 *272:25 *1002:A 8.40269e-05
13 *272:25 *1007:A 0
14 *272:25 *327:101 9.64422e-05
15 *272:25 *330:64 0
16 *272:25 *330:75 0
17 *272:25 *330:116 7.21296e-06
18 *1008:A *272:10 0.000233353
19 *1099:B1 *272:10 2.66935e-05
20 *1103:A1 *272:25 7.5277e-05
21 *1104:A2 *272:10 0
22 *1104:B1 *272:25 6.27438e-05
23 *1113:A2 *1002:B 0.000309729
24 *1113:A2 *1113:A1 5.16348e-05
25 *1113:D1 *1113:A1 8.40269e-05
26 *1113:D1 *272:25 0.000187281
27 *1207:A *272:10 4.75576e-05
28 *169:16 *1211:A 2.75145e-05
29 *227:6 *272:25 8.49205e-05
30 *228:23 *1002:B 0.000309729
*RES
1 *1155:Q *272:10 9.255 
2 *272:10 *1211:A 4.05 
3 *272:10 *272:25 16.37 
4 *272:25 *1113:A1 7.01 
5 *272:25 *1002:B 9.275 
*END

*D_NET *273 0.00281568
*CONN
*I *1002:A I *D sky130_fd_sc_hd__nor4b_2
*I *1113:C1 I *D sky130_fd_sc_hd__a2111o_1
*I *1210:A I *D sky130_fd_sc_hd__buf_2
*I *1156:Q O *D sky130_fd_sc_hd__dfrtp_1
*CAP
1 *1002:A 0.000302621
2 *1113:C1 3.98087e-05
3 *1210:A 9.51179e-05
4 *1156:Q 0
5 *273:21 0.000725627
6 *273:6 0.000478315
7 *1002:A *274:10 1.71013e-05
8 *1002:A *275:21 0
9 *1210:A *998:D_N 7.00889e-06
10 *1210:A *285:28 4.47125e-05
11 *273:21 *998:D_N 0
12 *273:21 *327:23 7.30547e-05
13 *1048:A *273:21 0
14 *1113:A1 *1002:A 8.23457e-05
15 *1113:A1 *273:21 5.16418e-05
16 *1113:A2 *273:21 1.1561e-05
17 *1113:D1 *1002:A 1.33285e-05
18 *1113:D1 *1113:C1 2.49909e-05
19 *228:23 *1002:A 0.000286649
20 *241:10 *1210:A 4.58406e-05
21 *241:10 *273:21 5.7344e-05
22 *241:34 *273:21 0.000287988
23 *243:10 *1210:A 8.65961e-05
24 *254:10 *1210:A 0
25 *254:10 *273:21 0
26 *254:23 *273:21 0
27 *272:25 *1002:A 8.40269e-05
*RES
1 *1156:Q *273:6 3.6 
2 *273:6 *1210:A 5.955 
3 *273:6 *273:21 10.265 
4 *273:21 *1113:C1 2.05 
5 *273:21 *1002:A 10.85 
*END

*D_NET *274 0.00175274
*CONN
*I *1209:A I *D sky130_fd_sc_hd__clkbuf_2
*I *1002:C I *D sky130_fd_sc_hd__nor4b_2
*I *1157:Q O *D sky130_fd_sc_hd__dfrtp_1
*CAP
1 *1209:A 6.45889e-05
2 *1002:C 0.000169794
3 *1157:Q 0.000445057
4 *274:10 0.00067944
5 *1002:C *1002:D_N 0
6 *1002:C *275:17 8.2539e-05
7 *1209:A *275:17 4.80182e-05
8 *274:10 *1205:A 3.9442e-05
9 *274:10 *275:21 3.05238e-05
10 *1002:A *274:10 1.71013e-05
11 *1103:C1 *274:10 0
12 *1107:A1 *274:10 3.60648e-05
13 *1113:A2 *274:10 0
14 *1118:C1 *274:10 9.30787e-05
15 *228:23 *274:10 4.70912e-05
16 *264:10 *274:10 0
17 *264:16 *274:10 0
*RES
1 *1157:Q *274:10 13.61 
2 *274:10 *1002:C 4.135 
3 *274:10 *1209:A 2.74 
*END

*D_NET *275 0.00675715
*CONN
*I *993:B I *D sky130_fd_sc_hd__and2b_1
*I *998:A I *D sky130_fd_sc_hd__or4bb_4
*I *1003:A I *D sky130_fd_sc_hd__or4b_4
*I *1208:A I *D sky130_fd_sc_hd__clkbuf_2
*I *1158:Q O *D sky130_fd_sc_hd__dfrtp_1
*CAP
1 *993:B 0.000345318
2 *998:A 9.99733e-05
3 *1003:A 9.00885e-05
4 *1208:A 1.90984e-05
5 *1158:Q 0.000200131
6 *275:21 0.000542577
7 *275:17 0.00111722
8 *275:6 0.000638615
9 *993:B *993:A_N 0.000182825
10 *993:B *997:B 1.90686e-05
11 *993:B *328:10 4.66108e-05
12 *993:B *328:102 0.000487579
13 *998:A *998:C_N 0.000111901
14 *1003:A *285:28 5.84317e-05
15 *1003:A *330:19 0.000122337
16 *1208:A *1002:D_N 4.00541e-06
17 *275:17 *317:10 0.000160641
18 *275:21 *328:10 0.000195238
19 *275:21 *328:12 0.000171179
20 *275:21 *328:14 0.000128353
21 *275:21 *328:16 0.000219012
22 *275:21 *328:20 0.00013521
23 *1002:A *275:21 0
24 *1002:C *275:17 8.2539e-05
25 *1047:A *1003:A 0.000157595
26 *1047:A *275:21 0.000391864
27 *1047:B *275:21 8.15676e-05
28 *1103:C1 *275:21 1.1561e-05
29 *1112:D_N *998:A 0.000421068
30 *1209:A *275:17 4.80182e-05
31 *236:10 *993:B 0.000241483
32 *239:14 *1003:A 8.25609e-05
33 *239:14 *275:21 2.42236e-05
34 *239:32 *998:A 8.87364e-05
35 *274:10 *275:21 3.05238e-05
*RES
1 *1158:Q *275:6 4.465 
2 *275:6 *1208:A 1.96 
3 *275:6 *275:17 6.33 
4 *275:17 *275:21 12.815 
5 *275:21 *1003:A 6.63 
6 *275:21 *998:A 7.5 
7 *275:17 *993:B 9.535 
*END

*D_NET *276 0.00133513
*CONN
*I *1220:A I *D sky130_fd_sc_hd__dlygate4sd3_1
*I *1009:A I *D sky130_fd_sc_hd__and2_1
*I *1126:Q O *D sky130_fd_sc_hd__dfrtp_1
*CAP
1 *1220:A 5.77976e-05
2 *1009:A 0.000403651
3 *1126:Q 0
4 *276:4 0.000461449
5 *1009:A *1009:B 0.000364138
6 *1009:A *336:56 2.19562e-06
7 *1220:A *336:56 1.83847e-05
8 *1126:CLK *1009:A 2.75145e-05
*RES
1 *1126:Q *276:4 1.6 
2 *276:4 *1009:A 13.895 
3 *276:4 *1220:A 2.665 
*END

*D_NET *277 0.00654883
*CONN
*I *1052:A1 I *D sky130_fd_sc_hd__o211a_1
*I *1061:A1 I *D sky130_fd_sc_hd__mux2_1
*I *1056:A I *D sky130_fd_sc_hd__or4_1
*I *1074:A1 I *D sky130_fd_sc_hd__o21ai_1
*I *1073:A I *D sky130_fd_sc_hd__or3_1
*I *1066:A I *D sky130_fd_sc_hd__and2_1
*I *1057:B1_N I *D sky130_fd_sc_hd__o21ba_1
*I *1065:A I *D sky130_fd_sc_hd__nor2_1
*I *1127:Q O *D sky130_fd_sc_hd__dfrtp_2
*CAP
1 *1052:A1 0.000278291
2 *1061:A1 0.000469699
3 *1056:A 0
4 *1074:A1 0
5 *1073:A 0
6 *1066:A 0
7 *1057:B1_N 0.000303763
8 *1065:A 0
9 *1127:Q 0
10 *277:35 0.000376996
11 *277:26 0.000156412
12 *277:20 0.000136175
13 *277:18 0.000135198
14 *277:16 0.000250119
15 *277:10 0.000774105
16 *277:4 0.000414779
17 *1052:A1 *325:35 8.08153e-06
18 *1052:A1 *347:12 0.000278111
19 *1057:B1_N *1057:A1 4.9253e-06
20 *1057:B1_N *1057:A2 0.000144233
21 *1057:B1_N *1065:B 3.09164e-05
22 *1057:B1_N *1066:B 3.09233e-05
23 *1057:B1_N *319:6 2.87345e-05
24 *1057:B1_N *319:21 4.99619e-05
25 *1061:A1 *336:42 8.49205e-05
26 *277:10 *1127:RESET_B 9.24127e-05
27 *277:10 *336:34 1.07797e-05
28 *277:10 *347:12 8.65961e-05
29 *277:16 *1051:B 4.82863e-05
30 *277:16 *1051:C 3.83041e-05
31 *277:16 *325:35 0
32 *277:16 *336:34 0.000173965
33 *277:18 *1051:B 7.40446e-05
34 *277:18 *1051:C 0.000124007
35 *277:18 *279:43 0.00043044
36 *277:18 *280:38 0.000218085
37 *277:20 *279:36 0.00012657
38 *277:20 *279:43 0.000112349
39 *277:20 *280:38 5.83121e-06
40 *277:20 *325:79 0.000140915
41 *277:26 *1073:C 6.05184e-05
42 *277:26 *279:23 5.83589e-05
43 *277:26 *279:36 7.75984e-06
44 *277:26 *325:79 0.000211043
45 *277:35 *1065:B 1.32064e-05
46 *277:35 *1073:C 0
47 *277:35 *279:23 0.000120655
48 *1052:B1 *1052:A1 5.53249e-06
49 *1053:A2 *1052:A1 0
50 *1053:B1_N *1052:A1 9.62357e-05
51 *1061:A0 *1057:B1_N 6.95987e-05
52 *1061:A0 *1061:A1 4.82919e-05
53 *1061:S *1061:A1 7.81829e-05
54 *1067:B1 *1057:B1_N 4.94404e-05
55 *1067:B2 *1057:B1_N 4.11194e-05
56 *1076:C1 *1057:B1_N 4.99619e-05
*RES
1 *1127:Q *277:4 1.6 
2 *277:4 *277:10 4.94 
3 *277:10 *277:16 6.125 
4 *277:16 *277:18 4.59 
5 *277:18 *277:20 2.175 
6 *277:20 *277:26 2.895 
7 *277:26 *1065:A 1.6 
8 *277:26 *277:35 1.5 
9 *277:35 *1057:B1_N 12.08 
10 *277:35 *1066:A 1.6 
11 *277:20 *1073:A 1.6 
12 *277:18 *1074:A1 1.6 
13 *277:16 *1056:A 1.6 
14 *277:10 *1061:A1 9.225 
15 *277:4 *1052:A1 11.54 
*END

*D_NET *278 0.00413581
*CONN
*I *1069:A1 I *D sky130_fd_sc_hd__mux2_1
*I *1051:A I *D sky130_fd_sc_hd__nor3_1
*I *1056:B I *D sky130_fd_sc_hd__or4_1
*I *1074:A2 I *D sky130_fd_sc_hd__o21ai_1
*I *1073:B I *D sky130_fd_sc_hd__or3_1
*I *1065:B I *D sky130_fd_sc_hd__nor2_1
*I *1066:B I *D sky130_fd_sc_hd__and2_1
*I *1128:Q O *D sky130_fd_sc_hd__dfrtp_2
*CAP
1 *1069:A1 2.22788e-05
2 *1051:A 0.000204213
3 *1056:B 0
4 *1074:A2 0
5 *1073:B 0
6 *1065:B 3.40053e-05
7 *1066:B 6.10362e-05
8 *1128:Q 0.000281379
9 *278:56 0.000566944
10 *278:49 0.000498787
11 *278:42 0.000338878
12 *278:27 0.000297384
13 *278:12 0.000229069
14 *278:10 0.000411136
15 *1051:A *1051:B 8.82557e-05
16 *1066:B *279:23 2.75145e-05
17 *278:27 *279:23 8.49205e-05
18 *278:42 *279:23 0.000278417
19 *278:42 *279:36 1.47687e-05
20 *278:49 *279:36 6.90876e-05
21 *278:49 *279:43 4.92062e-05
22 *278:56 *1051:B 4.92062e-05
23 *278:56 *279:43 0.000272489
24 *1057:B1_N *1065:B 3.09164e-05
25 *1057:B1_N *1066:B 3.09233e-05
26 *1061:A0 *1065:B 3.67779e-05
27 *1061:A0 *278:10 8.65961e-05
28 *1061:A0 *278:12 0
29 *1077:S *1069:A1 4.82863e-05
30 *170:6 *1051:A 1.0124e-05
31 *277:35 *1065:B 1.32064e-05
*RES
1 *1128:Q *278:10 7.155 
2 *278:10 *278:12 1.635 
3 *278:12 *1066:B 4.92 
4 *278:12 *278:27 2.795 
5 *278:27 *1065:B 6.5975 
6 *278:27 *278:42 2.865 
7 *278:42 *1073:B 1.6 
8 *278:42 *278:49 1.83 
9 *278:49 *1074:A2 1.6 
10 *278:49 *278:56 4.935 
11 *278:56 *1056:B 1.6 
12 *278:56 *1051:A 4.39 
13 *278:10 *1069:A1 4.05 
*END

*D_NET *279 0.00379358
*CONN
*I *1051:B I *D sky130_fd_sc_hd__nor3_1
*I *1056:C I *D sky130_fd_sc_hd__or4_1
*I *1074:B1 I *D sky130_fd_sc_hd__o21ai_1
*I *1073:C I *D sky130_fd_sc_hd__or3_1
*I *1077:A1 I *D sky130_fd_sc_hd__mux2_1
*I *1129:Q O *D sky130_fd_sc_hd__dfrtp_1
*CAP
1 *1051:B 5.07601e-05
2 *1056:C 0
3 *1074:B1 0
4 *1073:C 2.61134e-05
5 *1077:A1 0
6 *1129:Q 0.000157733
7 *279:43 0.000142098
8 *279:36 0.000111874
9 *279:23 0.000505228
10 *279:12 0.000616312
11 *1051:B *1051:C 4.60584e-05
12 *1051:A *1051:B 8.82557e-05
13 *1066:B *279:23 2.75145e-05
14 *1067:B2 *279:23 1.4389e-05
15 *1069:A0 *279:12 0.000128151
16 *1077:S *279:12 5.83121e-06
17 *170:6 *1051:B 1.61831e-05
18 *277:16 *1051:B 4.82863e-05
19 *277:18 *1051:B 7.40446e-05
20 *277:18 *279:43 0.00043044
21 *277:20 *279:36 0.00012657
22 *277:20 *279:43 0.000112349
23 *277:26 *1073:C 6.05184e-05
24 *277:26 *279:23 5.83589e-05
25 *277:26 *279:36 7.75984e-06
26 *277:35 *1073:C 0
27 *277:35 *279:23 0.000120655
28 *278:27 *279:23 8.49205e-05
29 *278:42 *279:23 0.000278417
30 *278:42 *279:36 1.47687e-05
31 *278:49 *279:36 6.90876e-05
32 *278:49 *279:43 4.92062e-05
33 *278:56 *1051:B 4.92062e-05
34 *278:56 *279:43 0.000272489
*RES
1 *1129:Q *279:12 7.775 
2 *279:12 *1077:A1 1.6 
3 *279:12 *279:23 8.88375 
4 *279:23 *1073:C 2.60125 
5 *279:23 *279:36 1.36125 
6 *279:36 *1074:B1 1.6 
7 *279:36 *279:43 4.935 
8 *279:43 *1056:C 1.6 
9 *279:43 *1051:B 3.775 
*END

*D_NET *280 0.00474906
*CONN
*I *1051:C I *D sky130_fd_sc_hd__nor3_1
*I *1056:D I *D sky130_fd_sc_hd__or4_1
*I *1080:C1 I *D sky130_fd_sc_hd__o211a_1
*I *986:A I *D sky130_fd_sc_hd__inv_2
*I *1130:Q O *D sky130_fd_sc_hd__dfrtp_1
*CAP
1 *1051:C 0.000125476
2 *1056:D 0
3 *1080:C1 7.6928e-05
4 *986:A 0.000278968
5 *1130:Q 0.000369433
6 *280:38 0.000466441
7 *280:19 0.000705873
8 *280:6 0.000936381
9 *1080:C1 *302:28 8.28905e-05
10 *1080:C1 *325:63 4.66108e-05
11 *280:6 *1130:RESET_B 0.000118178
12 *280:19 *1054:B 0.000152413
13 *280:19 *1080:A1 3.09164e-05
14 *280:19 *1080:A2 3.57924e-05
15 *280:19 *324:23 5.02217e-05
16 *280:38 *1080:A1 2.07184e-05
17 *280:38 *325:67 3.50033e-05
18 *1045:B2 *280:19 0
19 *1051:B *1051:C 4.60584e-05
20 *1075:B1 *1080:C1 3.25635e-05
21 *1075:B2 *1080:C1 8.57024e-05
22 *1080:B1 *1080:C1 4.82919e-05
23 *1081:B1 *280:19 0.000351637
24 *1083:B1 *280:19 0.000116158
25 *1130:CLK *986:A 1.61831e-05
26 *1130:D *986:A 0.000122331
27 *170:6 *1051:C 1.16578e-05
28 *277:16 *1051:C 3.83041e-05
29 *277:18 *1051:C 0.000124007
30 *277:18 *280:38 0.000218085
31 *277:20 *280:38 5.83121e-06
*RES
1 *1130:Q *280:6 5.845 
2 *280:6 *986:A 5.08 
3 *280:6 *280:19 10.01 
4 *280:19 *1080:C1 5.79 
5 *280:19 *280:38 7.04 
6 *280:38 *1056:D 1.6 
7 *280:38 *1051:C 4.135 
*END

*D_NET *281 0.00781715
*CONN
*I *1019:A I *D sky130_fd_sc_hd__nor2_1
*I *1020:A I *D sky130_fd_sc_hd__or3_1
*I *1021:A I *D sky130_fd_sc_hd__nor4_1
*I *1030:A1 I *D sky130_fd_sc_hd__a2111o_1
*I *1022:A I *D sky130_fd_sc_hd__or4_1
*I *1109:D_N I *D sky130_fd_sc_hd__or4b_1
*I *1043:A1 I *D sky130_fd_sc_hd__o31a_1
*I *1038:A1 I *D sky130_fd_sc_hd__o21ai_1
*I *1027:A1_N I *D sky130_fd_sc_hd__a2bb2o_1
*I *1029:A0 I *D sky130_fd_sc_hd__mux2_1
*I *1121:Q O *D sky130_fd_sc_hd__dfrtp_4
*CAP
1 *1019:A 1.93533e-05
2 *1020:A 0
3 *1021:A 0
4 *1030:A1 0.000460738
5 *1022:A 0.000246398
6 *1109:D_N 2.03961e-05
7 *1043:A1 0
8 *1038:A1 0
9 *1027:A1_N 2.0323e-05
10 *1029:A0 6.42048e-05
11 *1121:Q 0
12 *281:74 0.00054331
13 *281:65 0.000416862
14 *281:57 0.000719042
15 *281:50 0.000279828
16 *281:44 0.00047725
17 *281:36 0.000410613
18 *281:20 0.000358281
19 *281:4 0.000349635
20 *1019:A *1045:A2 2.49909e-05
21 *1022:A *1022:C 0.000130674
22 *1022:A *1109:A 0.000189079
23 *1022:A *284:18 0.000124007
24 *1030:A1 *1021:D 0.000203178
25 *1030:A1 *283:41 4.21973e-05
26 *1030:A1 *283:54 2.30292e-05
27 *281:20 *1045:A2 5.83121e-06
28 *281:20 *1121:RESET_B 1.63259e-06
29 *281:20 *1216:A 0
30 *281:20 *332:24 9.33865e-05
31 *281:36 *1045:A2 0.000205372
32 *281:44 *1033:A1 2.6766e-05
33 *281:50 *283:34 5.46216e-05
34 *281:50 *283:41 5.68717e-05
35 *281:57 *283:41 0.000313852
36 *281:65 *282:21 8.53113e-06
37 *281:65 *282:30 6.21553e-05
38 *281:65 *282:61 8.69088e-05
39 *281:65 *282:76 4.21314e-05
40 *281:74 *1043:B1 0.000119631
41 *1028:A2 *281:20 0.000153889
42 *1029:A1 *1029:A0 2.75145e-05
43 *1029:S *1027:A1_N 7.112e-05
44 *1029:S *1029:A0 8.41307e-05
45 *1029:S *281:20 1.50513e-05
46 *1033:B1 *281:44 5.23362e-05
47 *1034:B1 *281:44 0
48 *1039:A1 *281:44 6.73665e-05
49 *1040:B2 *281:20 2.03801e-05
50 *1044:A1 *281:65 4.66108e-05
51 *1044:A1 *281:74 4.21757e-05
52 *1045:B1 *1019:A 5.83121e-06
53 *1110:D *1022:A 2.0514e-05
54 *1125:D *1030:A1 0.000136877
55 *1198:A *281:44 0
56 *1199:A *281:44 0
57 *1200:A *1030:A1 6.10014e-05
58 *1265:A *1022:A 4.98715e-05
59 *1265:A *281:74 1.17409e-05
60 *148:12 *1030:A1 1.01661e-05
61 *149:32 *281:65 0
62 *150:59 *1019:A 1.91597e-05
63 *150:59 *281:20 5.43583e-05
64 *150:59 *281:36 0.000199541
65 *239:46 *281:20 4.93879e-05
66 *253:8 *1027:A1_N 3.30916e-05
67 *253:8 *1029:A0 0.000112689
68 *267:25 *1030:A1 0.000129609
69 *267:25 *281:44 0.000117116
70 *267:25 *281:50 2.45351e-05
*RES
1 *1121:Q *281:4 1.6 
2 *281:4 *281:20 13.13 
3 *281:20 *1029:A0 3.43 
4 *281:20 *1027:A1_N 2.27875 
5 *281:4 *281:36 3.21 
6 *281:36 *281:44 10.015 
7 *281:44 *281:50 2.895 
8 *281:50 *1038:A1 1.6 
9 *281:50 *281:57 2.865 
10 *281:57 *281:65 6.85 
11 *281:65 *1043:A1 1.6 
12 *281:65 *281:74 3.825 
13 *281:74 *1109:D_N 1.96 
14 *281:74 *1022:A 6.22 
15 *281:57 *1030:A1 14.255 
16 *281:57 *1021:A 1.6 
17 *281:44 *1020:A 1.6 
18 *281:36 *1019:A 2.05 
*END

*D_NET *282 0.00691644
*CONN
*I *1022:B I *D sky130_fd_sc_hd__or4_1
*I *1109:A I *D sky130_fd_sc_hd__or4b_1
*I *1043:A2 I *D sky130_fd_sc_hd__o31a_1
*I *1038:A2 I *D sky130_fd_sc_hd__o21ai_1
*I *1020:B I *D sky130_fd_sc_hd__or3_1
*I *1019:B I *D sky130_fd_sc_hd__nor2_1
*I *1021:B I *D sky130_fd_sc_hd__nor4_1
*I *1034:A1 I *D sky130_fd_sc_hd__a22o_1
*I *1122:Q O *D sky130_fd_sc_hd__dfrtp_2
*CAP
1 *1022:B 0.000400476
2 *1109:A 7.34567e-05
3 *1043:A2 2.54989e-05
4 *1038:A2 0
5 *1020:B 0
6 *1019:B 0.000181445
7 *1021:B 0
8 *1034:A1 0.000204902
9 *1122:Q 0.000435384
10 *282:76 0.000818913
11 *282:61 0.000402727
12 *282:36 0.000270019
13 *282:34 0.000343678
14 *282:30 0.000319601
15 *282:21 0.000141471
16 *282:10 0.000749508
17 *1019:B *1045:A2 7.62136e-05
18 *1022:B *1022:C 4.43871e-06
19 *1022:B *1216:A 8.61788e-06
20 *1109:A *1022:C 8.63479e-05
21 *1109:A *284:40 2.7535e-05
22 *282:10 *1122:RESET_B 0
23 *282:21 *1021:D 0
24 *282:30 *1021:D 0
25 *282:30 *283:54 2.59981e-05
26 *282:61 *283:54 5.02217e-05
27 *282:76 *1021:D 0
28 *282:76 *1216:A 0.000134358
29 *282:76 *283:54 4.43871e-06
30 *282:76 *326:28 0
31 *1022:A *1109:A 0.000189079
32 *1034:A2 *1034:A1 0.00039046
33 *1034:B1 *1019:B 0.000157091
34 *1039:A2 *1019:B 0.000139933
35 *1044:A1 *1043:A2 4.82919e-05
36 *1045:A1 *1019:B 2.78732e-05
37 *1045:B1 *1019:B 0.000127118
38 *1045:C1 *1019:B 0
39 *1050:A1 *1022:B 7.96104e-06
40 *1122:D *282:10 0
41 *1265:A *1022:B 0.000193806
42 *149:12 *1034:A1 2.0514e-05
43 *149:32 *1019:B 0
44 *149:32 *282:21 0
45 *199:20 *282:10 0.000131667
46 *267:25 *282:34 0.000376233
47 *267:25 *282:36 0.000121437
48 *281:65 *282:21 8.53113e-06
49 *281:65 *282:30 6.21553e-05
50 *281:65 *282:61 8.69088e-05
51 *281:65 *282:76 4.21314e-05
*RES
1 *1122:Q *282:10 11.16 
2 *282:10 *1034:A1 7.5 
3 *282:10 *282:21 1.635 
4 *282:21 *1021:B 3.6 
5 *282:21 *282:30 0.87 
6 *282:30 *282:34 5.555 
7 *282:34 *282:36 1.14 
8 *282:36 *1019:B 10.505 
9 *282:36 *1020:B 1.6 
10 *282:34 *1038:A2 1.6 
11 *282:30 *282:61 1.125 
12 *282:61 *1043:A2 4.05 
13 *282:61 *282:76 1.86317 
14 *282:76 *1109:A 6.1775 
15 *282:76 *1022:B 6.5653 
*END

*D_NET *283 0.00495235
*CONN
*I *1043:A3 I *D sky130_fd_sc_hd__o31a_1
*I *1109:B I *D sky130_fd_sc_hd__or4b_1
*I *1022:C I *D sky130_fd_sc_hd__or4_1
*I *1021:C I *D sky130_fd_sc_hd__nor4_1
*I *1038:B1 I *D sky130_fd_sc_hd__o21ai_1
*I *1020:C I *D sky130_fd_sc_hd__or3_1
*I *1041:A0 I *D sky130_fd_sc_hd__mux2_1
*I *1123:Q O *D sky130_fd_sc_hd__dfrtp_1
*CAP
1 *1043:A3 0
2 *1109:B 0
3 *1022:C 0.000102615
4 *1021:C 0
5 *1038:B1 0
6 *1020:C 0
7 *1041:A0 0
8 *1123:Q 0.000162598
9 *283:58 0.000333888
10 *283:54 0.000321788
11 *283:41 0.000183145
12 *283:34 0.000125058
13 *283:25 0.000241903
14 *283:8 0.000372073
15 *1022:C *1021:D 2.7881e-05
16 *1022:C *284:40 1.88904e-05
17 *283:8 *1123:RESET_B 1.08758e-05
18 *283:8 *332:36 0.000120655
19 *283:25 *326:34 3.31282e-05
20 *283:54 *1021:D 0
21 *1022:A *1022:C 0.000130674
22 *1022:B *1022:C 4.43871e-06
23 *1030:A1 *283:41 4.21973e-05
24 *1030:A1 *283:54 2.30292e-05
25 *1034:B1 *283:25 0.000147597
26 *1039:A2 *283:25 5.16348e-05
27 *1041:A1 *283:8 0.00043044
28 *1041:A1 *283:25 4.99619e-05
29 *1041:S *283:25 1.82667e-05
30 *1044:A1 *283:58 2.8694e-05
31 *1109:A *1022:C 8.63479e-05
32 *1123:D *283:8 0.000136838
33 *1265:A *1022:C 0.000307982
34 *1265:A *283:58 0.000273878
35 *145:10 *283:54 9.47454e-05
36 *267:25 *283:34 1.91597e-05
37 *267:25 *283:41 0.000497676
38 *267:25 *283:54 4.82863e-05
39 *281:50 *283:34 5.46216e-05
40 *281:50 *283:41 5.68717e-05
41 *281:57 *283:41 0.000313852
42 *282:30 *283:54 2.59981e-05
43 *282:61 *283:54 5.02217e-05
44 *282:76 *283:54 4.43871e-06
*RES
1 *1123:Q *283:8 6.55 
2 *283:8 *1041:A0 1.6 
3 *283:8 *283:25 8.02 
4 *283:25 *1020:C 1.6 
5 *283:25 *283:34 0.81 
6 *283:34 *1038:B1 1.6 
7 *283:34 *283:41 4.59 
8 *283:41 *1021:C 1.6 
9 *283:41 *283:54 6.085 
10 *283:54 *283:58 3.225 
11 *283:58 *1022:C 9.08 
12 *283:58 *1109:B 1.6 
13 *283:54 *1043:A3 1.6 
*END

*D_NET *284 0.00467925
*CONN
*I *1222:A I *D sky130_fd_sc_hd__dlygate4sd3_1
*I *1022:D I *D sky130_fd_sc_hd__or4_1
*I *1109:C I *D sky130_fd_sc_hd__or4b_1
*I *1043:B1 I *D sky130_fd_sc_hd__o31a_1
*I *1021:D I *D sky130_fd_sc_hd__nor4_1
*I *1124:Q O *D sky130_fd_sc_hd__dfrtp_1
*CAP
1 *1222:A 0.000108678
2 *1022:D 0
3 *1109:C 0
4 *1043:B1 4.01094e-05
5 *1021:D 0.000184631
6 *1124:Q 0.000138391
7 *284:40 0.000466428
8 *284:30 0.00042818
9 *284:18 0.000563752
10 *284:8 0.000624328
11 *284:30 *326:28 5.58206e-05
12 *1022:A *284:18 0.000124007
13 *1022:C *1021:D 2.7881e-05
14 *1022:C *284:40 1.88904e-05
15 *1030:A1 *1021:D 0.000203178
16 *1044:A1 *1043:B1 1.16578e-05
17 *1050:A1 *1021:D 0
18 *1050:A1 *1222:A 8.65905e-05
19 *1050:A1 *284:30 0.000136877
20 *1050:A1 *284:40 4.12825e-05
21 *1109:A *284:40 2.7535e-05
22 *1110:D *284:18 0.000158965
23 *1118:B1 *1222:A 0
24 *1118:B1 *284:18 0
25 *1125:CLK *284:18 0
26 *1125:D *1222:A 6.45236e-05
27 *1125:D *284:18 0.000546344
28 *1125:D *284:30 5.83373e-05
29 *1201:A *1222:A 0
30 *1265:A *1043:B1 0.000111285
31 *1265:A *284:18 1.61831e-05
32 *145:10 *1021:D 0
33 *148:12 *284:30 8.23457e-05
34 *220:10 *284:18 0
35 *267:8 *284:30 0.00011379
36 *267:25 *1021:D 0.000119631
37 *271:14 *284:18 0
38 *281:74 *1043:B1 0.000119631
39 *282:21 *1021:D 0
40 *282:30 *1021:D 0
41 *282:76 *1021:D 0
42 *283:54 *1021:D 0
*RES
1 *1124:Q *284:8 5.085 
2 *284:8 *284:18 10.52 
3 *284:18 *284:30 10.5 
4 *284:30 *284:40 4.29 
5 *284:40 *1021:D 7.83 
6 *284:40 *1043:B1 5.43 
7 *284:30 *1109:C 3.6 
8 *284:18 *1022:D 1.6 
9 *284:8 *1222:A 5.775 
*END

*D_NET *285 0.00740032
*CONN
*I *1104:A1 I *D sky130_fd_sc_hd__a21o_1
*I *1024:A_N I *D sky130_fd_sc_hd__and3b_1
*I *1110:B I *D sky130_fd_sc_hd__and4_1
*I *1223:X O *D sky130_fd_sc_hd__buf_1
*CAP
1 *1104:A1 1.90984e-05
2 *1024:A_N 3.75955e-05
3 *1110:B 0
4 *1223:X 0.00120894
5 *285:28 0.00124455
6 *285:18 0.00243499
7 *1024:A_N *1024:C 4.99619e-05
8 *1024:A_N *326:91 6.90876e-05
9 *1024:A_N *327:52 7.66083e-05
10 *285:18 *1049:A 0.000139853
11 *285:18 *1159:A 0.000210151
12 *285:18 *1254:A 0.000203178
13 *285:18 *1258:A 0.000164679
14 *285:18 *299:8 0.000126717
15 *285:18 *330:34 2.96107e-05
16 *285:18 *330:64 0
17 *285:18 *330:75 0
18 *285:18 *330:88 0
19 *285:28 *1003:D_N 2.11084e-05
20 *285:28 *326:91 4.82863e-05
21 *285:28 *327:52 3.77036e-05
22 *285:28 *330:19 2.38673e-05
23 *285:28 *330:34 0.000118813
24 bvalid *285:18 0
25 rdata[2] *285:18 0
26 *1003:A *285:28 5.84317e-05
27 *1008:A *285:18 0.000160635
28 *1008:B *1104:A1 0
29 *1008:B *285:18 3.68684e-05
30 *1104:A2 *285:18 4.82919e-05
31 *1104:A2 *285:28 1.08758e-05
32 *1110:D *285:28 4.66108e-05
33 *1155:D *285:28 0.000278117
34 *1156:CLK *285:28 0.000139815
35 *1156:D *285:28 3.72916e-05
36 *1210:A *285:28 4.47125e-05
37 *1223:A *285:18 0
38 *1237:A *285:18 0
39 *243:10 *285:28 0.000273878
40 *272:10 *285:18 0
*RES
1 *1223:X *285:18 28.745 
2 *285:18 *285:28 17.94 
3 *285:28 *1110:B 1.6 
4 *285:28 *1024:A_N 3.1 
5 *285:18 *1104:A1 1.96 
*END

*D_NET *286 0.000618751
*CONN
*I *1154:D I *D sky130_fd_sc_hd__dfrtp_1
*I *1224:X O *D sky130_fd_sc_hd__clkbuf_1
*CAP
1 *1154:D 0.000250119
2 *1224:X 0.000250119
3 *1154:D *1152:D 0.000118513
4 *1154:CLK *1154:D 0
*RES
1 *1224:X *1154:D 11.16 
*END

*D_NET *287 0.00180742
*CONN
*I *1141:D I *D sky130_fd_sc_hd__dfrtp_1
*I *1225:X O *D sky130_fd_sc_hd__clkbuf_1
*CAP
1 *1141:D 0.000553979
2 *1225:X 0.000553979
3 *1141:D *1155:RESET_B 0
4 *1141:D *1255:A 0.000699462
5 *1141:D *333:105 0
*RES
1 *1225:X *1141:D 14.985 
*END

*D_NET *288 0.000246782
*CONN
*I *1134:D I *D sky130_fd_sc_hd__dfrtp_1
*I *1226:X O *D sky130_fd_sc_hd__clkbuf_1
*CAP
1 *1134:D 0.000103866
2 *1226:X 0.000103866
3 *1134:CLK *1134:D 1.0263e-05
4 *1226:A *1134:D 2.87867e-05
*RES
1 *1226:X *1134:D 8.67375 
*END

*D_NET *289 0.000213319
*CONN
*I *1135:D I *D sky130_fd_sc_hd__dfrtp_1
*I *1227:X O *D sky130_fd_sc_hd__clkbuf_1
*CAP
1 *1135:D 9.79663e-05
2 *1227:X 9.79663e-05
3 *1135:CLK *1135:D 1.7386e-05
4 *1227:A *1135:D 0
*RES
1 *1227:X *1135:D 8.775 
*END

*D_NET *290 0.000646591
*CONN
*I *1136:D I *D sky130_fd_sc_hd__dfrtp_1
*I *1228:X O *D sky130_fd_sc_hd__clkbuf_1
*CAP
1 *1136:D 0.000279901
2 *1228:X 0.000279901
3 *1136:D *1256:A 0
4 *1092:C1 *1136:D 1.71013e-05
5 *1139:CLK *1136:D 5.13029e-05
6 *1228:A *1136:D 1.83847e-05
*RES
1 *1228:X *1136:D 11.505 
*END

*D_NET *291 0.000460164
*CONN
*I *1143:D I *D sky130_fd_sc_hd__dfrtp_1
*I *1229:X O *D sky130_fd_sc_hd__clkbuf_1
*CAP
1 *1143:D 0.00022089
2 *1229:X 0.00022089
3 *1143:D *1145:D 0
4 *1229:A *1143:D 1.83847e-05
*RES
1 *1229:X *1143:D 10.065 
*END

*D_NET *292 0.000946351
*CONN
*I *1144:D I *D sky130_fd_sc_hd__dfrtp_1
*I *1230:X O *D sky130_fd_sc_hd__clkbuf_1
*CAP
1 *1144:D 0.000435127
2 *1230:X 0.000435127
3 *1144:CLK *1144:D 7.60965e-05
*RES
1 *1230:X *1144:D 13.605 
*END

*D_NET *293 0.000189638
*CONN
*I *1147:D I *D sky130_fd_sc_hd__dfrtp_1
*I *1231:X O *D sky130_fd_sc_hd__clkbuf_1
*CAP
1 *1147:D 5.19207e-05
2 *1231:X 5.19207e-05
3 *1147:D *302:28 7.23602e-05
4 *1240:A *1147:D 1.34361e-05
*RES
1 *1231:X *1147:D 8.325 
*END

*D_NET *294 0.000692791
*CONN
*I *1148:D I *D sky130_fd_sc_hd__dfrtp_1
*I *1232:X O *D sky130_fd_sc_hd__clkbuf_1
*CAP
1 *1148:D 0.000127735
2 *1232:X 0.000127735
3 *1148:D *1149:D 0.000163992
4 *1232:A *1148:D 0.000273329
*RES
1 *1232:X *1148:D 10.815 
*END

*D_NET *295 0.000710778
*CONN
*I *1149:D I *D sky130_fd_sc_hd__dfrtp_1
*I *1233:X O *D sky130_fd_sc_hd__clkbuf_1
*CAP
1 *1149:D 0.000255505
2 *1233:X 0.000255505
3 *1148:D *1149:D 0.000163992
4 *1232:A *1149:D 3.57768e-05
*RES
1 *1233:X *1149:D 11.58 
*END

*D_NET *296 0.000865781
*CONN
*I *1137:D I *D sky130_fd_sc_hd__dfrtp_1
*I *1234:X O *D sky130_fd_sc_hd__clkbuf_1
*CAP
1 *1137:D 0.000396544
2 *1234:X 0.000396544
3 *1137:D *334:12 7.2694e-05
*RES
1 *1234:X *1137:D 9.29 
*END

*D_NET *297 0.000291709
*CONN
*I *1150:D I *D sky130_fd_sc_hd__dfrtp_1
*I *1235:X O *D sky130_fd_sc_hd__clkbuf_1
*CAP
1 *1150:D 0.000113616
2 *1235:X 0.000113616
3 *1235:A *1150:D 5.78448e-05
4 *269:38 *1150:D 2.99518e-06
5 *269:47 *1150:D 3.63701e-06
*RES
1 *1235:X *1150:D 9.03 
*END

*D_NET *298 0.00148209
*CONN
*I *1140:D I *D sky130_fd_sc_hd__dfrtp_1
*I *1236:X O *D sky130_fd_sc_hd__clkbuf_1
*CAP
1 *1140:D 0.000561527
2 *1236:X 0.000561527
3 *1140:D *1009:B 0
4 *1140:D *1160:A 0.000282716
5 *1140:D *1260:A 0
6 *1053:A1 *1140:D 7.63204e-05
*RES
1 *1236:X *1140:D 18.525 
*END

*D_NET *299 0.00163824
*CONN
*I *1100:A2 I *D sky130_fd_sc_hd__o21ai_1
*I *1049:A I *D sky130_fd_sc_hd__and2_1
*I *1237:X O *D sky130_fd_sc_hd__clkbuf_1
*CAP
1 *1100:A2 0.0001671
2 *1049:A 0.000206333
3 *1237:X 0.000142137
4 *299:8 0.000515571
5 *1100:A2 *1101:A1 0.000139478
6 bresp *1049:A 0.000112883
7 *1237:A *299:8 6.06899e-05
8 *1239:A *1049:A 1.03755e-05
9 *1239:A *299:8 1.71013e-05
10 *285:18 *1049:A 0.000139853
11 *285:18 *299:8 0.000126717
*RES
1 *1237:X *299:8 7.275 
2 *299:8 *1049:A 8.325 
3 *299:8 *1100:A2 6.81 
*END

*D_NET *300 0.0068749
*CONN
*I *1215:A I *D sky130_fd_sc_hd__clkbuf_4
*I *1216:A I *D sky130_fd_sc_hd__buf_2
*I *1214:A I *D sky130_fd_sc_hd__clkbuf_2
*I *1238:X O *D sky130_fd_sc_hd__buf_1
*CAP
1 *1215:A 0.000306944
2 *1216:A 0.00138922
3 *1214:A 0.000252455
4 *1238:X 4.43494e-05
5 *300:21 0.00252262
6 *300:6 0.00112327
7 *1214:A *1153:D 0
8 *1214:A *1212:A 0
9 *1214:A *334:58 0.000134588
10 *1216:A *326:28 0.000109836
11 *300:21 *1121:RESET_B 4.40342e-05
12 *1022:B *1216:A 8.61788e-06
13 *1029:A1 *1215:A 7.23602e-05
14 *1029:S *1215:A 3.5812e-05
15 *1031:A *1215:A 3.64998e-06
16 *1050:A1 *1216:A 0
17 *1197:A *1216:A 0.000489441
18 *251:6 *1215:A 7.94771e-05
19 *252:14 *1215:A 0.000100059
20 *252:14 *1216:A 2.38115e-05
21 *281:20 *1216:A 0
22 *282:76 *1216:A 0.000134358
*RES
1 *1238:X *300:6 2.05 
2 *300:6 *1214:A 10.55 
3 *300:6 *300:21 11.075 
4 *300:21 *1216:A 8.52633 
5 *300:21 *1215:A 9.285 
*END

*D_NET *301 0.00113641
*CONN
*I *1101:A1 I *D sky130_fd_sc_hd__a32o_1
*I *1239:X O *D sky130_fd_sc_hd__clkbuf_1
*CAP
1 *1101:A1 0.000435288
2 *1239:X 0.000435288
3 *1101:A1 *1100:B1 1.33293e-05
4 *1100:A2 *1101:A1 0.000139478
5 *1101:B1 *1101:A1 0.000107033
6 *1101:B2 *1101:A1 5.9964e-06
*RES
1 *1239:X *1101:A1 8.84 
*END

*D_NET *302 0.00732392
*CONN
*I *1106:A_N I *D sky130_fd_sc_hd__and3b_1
*I *1105:A_N I *D sky130_fd_sc_hd__nand2b_1
*I *1240:X O *D sky130_fd_sc_hd__buf_1
*CAP
1 *1106:A_N 1.64366e-05
2 *1105:A_N 0.000122149
3 *1240:X 0.0023445
4 *302:28 0.00248309
5 *1105:A_N *1054:A 4.43871e-06
6 *1105:A_N *325:37 0.000109441
7 *1106:A_N *317:47 3.09179e-05
8 *302:28 *1067:A1 2.05056e-05
9 *302:28 *1075:A2_N 1.51429e-05
10 *302:28 *1147:RESET_B 4.24575e-05
11 *302:28 *1263:A 0.000501836
12 *302:28 *317:47 4.38278e-05
13 *302:28 *324:33 0.00024551
14 *302:28 *324:37 1.47347e-05
15 *302:28 *325:63 0.000328024
16 *302:28 *325:94 2.49909e-05
17 *1067:B1 *302:28 0.00023468
18 *1075:B1 *302:28 0.000107528
19 *1075:B2 *302:28 1.62814e-05
20 *1080:B1 *302:28 2.76781e-05
21 *1080:C1 *302:28 8.28905e-05
22 *1106:C *1106:A_N 8.65961e-05
23 *1106:C *302:28 0.000273878
24 *1147:D *302:28 7.23602e-05
25 *1240:A *302:28 7.4027e-05
26 *167:25 *1105:A_N 0
27 *167:36 *1105:A_N 0
*RES
1 *1240:X *302:28 42.065 
2 *302:28 *1105:A_N 8 
3 *302:28 *1106:A_N 2.395 
*END

*D_NET *303 0.000905634
*CONN
*I *1142:D I *D sky130_fd_sc_hd__dfrtp_1
*I *1241:X O *D sky130_fd_sc_hd__clkbuf_1
*CAP
1 *1142:D 0.000429333
2 *1241:X 0.000429333
3 *1142:CLK *1142:D 4.69687e-05
*RES
1 *1241:X *1142:D 8.6 
*END

*D_NET *304 0.000545939
*CONN
*I *1251:A I *D sky130_fd_sc_hd__buf_2
*I *1010:X O *D sky130_fd_sc_hd__and2_1
*CAP
1 *1251:A 0.00025043
2 *1010:X 0.00025043
3 *1251:A *1139:D 0
4 *1251:A *1252:A 0
5 *1251:A *332:56 0
6 *1010:A *1251:A 1.83847e-05
7 *1097:A1 *1251:A 2.66935e-05
*RES
1 *1010:X *1251:A 11.325 
*END

*D_NET *305 0.00158114
*CONN
*I *1252:A I *D sky130_fd_sc_hd__buf_2
*I *1011:X O *D sky130_fd_sc_hd__and2_1
*CAP
1 *1252:A 0.000595419
2 *1011:X 0.000595419
3 *1252:A *1253:A 0
4 *1252:A *310:24 0.000345353
5 *1012:B *1252:A 4.49498e-05
6 *1097:A1 *1252:A 0
7 *1251:A *1252:A 0
*RES
1 *1011:X *1252:A 16.125 
*END

*D_NET *306 0.000538511
*CONN
*I *1253:A I *D sky130_fd_sc_hd__buf_2
*I *1012:X O *D sky130_fd_sc_hd__and2_1
*CAP
1 *1253:A 0.000267162
2 *1012:X 0.000267162
3 *1253:A *1146:D 0
4 *1245:A *1253:A 4.18603e-06
5 *1252:A *1253:A 0
*RES
1 *1012:X *1253:A 11.325 
*END

*D_NET *307 0.000170289
*CONN
*I *1138:D I *D sky130_fd_sc_hd__dfrtp_1
*I *1242:X O *D sky130_fd_sc_hd__clkbuf_1
*CAP
1 *1138:D 8.51447e-05
2 *1242:X 8.51447e-05
*RES
1 *1242:X *1138:D 8.58 
*END

*D_NET *308 0.000444653
*CONN
*I *1254:A I *D sky130_fd_sc_hd__buf_2
*I *1008:X O *D sky130_fd_sc_hd__or2_1
*CAP
1 *1254:A 0.000120737
2 *1008:X 0.000120737
3 *285:18 *1254:A 0.000203178
*RES
1 *1008:X *1254:A 5.72 
*END

*D_NET *309 0.00236687
*CONN
*I *1255:A I *D sky130_fd_sc_hd__buf_2
*I *1099:A1 I *D sky130_fd_sc_hd__a21o_1
*I *996:Y O *D sky130_fd_sc_hd__nor2_1
*CAP
1 *1255:A 0.000429447
2 *1099:A1 0
3 *996:Y 0.000248716
4 *309:6 0.000678163
5 PWRITE *1255:A 2.51475e-05
6 *1023:A1 *309:6 2.0514e-05
7 *1099:B1 *1255:A 0.000203178
8 *1141:D *1255:A 0.000699462
9 *1225:A *1255:A 1.22762e-05
10 *239:14 *309:6 4.99619e-05
*RES
1 *996:Y *309:6 5.155 
2 *309:6 *1099:A1 1.6 
3 *309:6 *1255:A 15.95 
*END

*D_NET *310 0.0185217
*CONN
*I *1205:A I *D sky130_fd_sc_hd__buf_6
*I *1055:D I *D sky130_fd_sc_hd__nor4_1
*I *1108:A2 I *D sky130_fd_sc_hd__a21o_1
*I *1097:A2 I *D sky130_fd_sc_hd__a221o_1
*I *1087:A2 I *D sky130_fd_sc_hd__a221o_1
*I *1026:B I *D sky130_fd_sc_hd__nor2_2
*I *1092:A2 I *D sky130_fd_sc_hd__a221o_1
*I *1256:A I *D sky130_fd_sc_hd__buf_2
*I *1004:Y O *D sky130_fd_sc_hd__inv_2
*CAP
1 *1205:A 0.000277404
2 *1055:D 0.000129842
3 *1108:A2 2.01995e-05
4 *1097:A2 5.85406e-05
5 *1087:A2 0.000510144
6 *1026:B 0
7 *1092:A2 0
8 *1256:A 0.000379831
9 *1004:Y 8.58066e-05
10 *310:110 0.000827246
11 *310:95 0.00128208
12 *310:58 0.000684479
13 *310:34 0.000762387
14 *310:24 0.000719568
15 *310:20 0.00142587
16 *310:8 0.00213234
17 *1055:D *1055:C 0.00019364
18 *1055:D *317:10 4.01019e-05
19 *1087:A2 *1026:A 0.0001249
20 *1087:A2 *326:34 0
21 *1205:A *320:6 8.79572e-05
22 *1205:A *320:18 0.000270426
23 *1256:A *332:44 5.21714e-05
24 *310:8 *1017:S 0.000122331
25 *310:20 *1017:S 0.000170498
26 *310:20 *1133:RESET_B 0.000112381
27 *310:34 *1122:RESET_B 7.36562e-05
28 *310:34 *1136:RESET_B 7.00685e-05
29 *310:58 *1122:RESET_B 0.000304056
30 *310:95 *1018:A1 0.000117832
31 *310:95 *1156:RESET_B 2.45838e-05
32 *310:110 *317:10 0.000116158
33 *310:110 *320:18 8.23457e-05
34 arready *1256:A 5.05521e-05
35 *1010:B *310:34 7.21296e-06
36 *1011:A *310:24 0.000230435
37 *1014:A1 *310:95 0
38 *1017:A0 *310:20 7.47284e-05
39 *1017:A1 *310:20 5.83121e-06
40 *1018:A0 *310:20 0.000201915
41 *1018:A0 *310:95 0.000248254
42 *1086:A *1087:A2 6.92319e-05
43 *1087:C1 *1087:A2 5.77358e-05
44 *1088:A0 *1087:A2 0.000501921
45 *1092:A1 *1256:A 9.47454e-05
46 *1092:B1 *1256:A 2.91399e-05
47 *1092:B1 *310:34 0.00089076
48 *1092:B1 *310:58 9.54469e-05
49 *1092:C1 *1256:A 1.60083e-05
50 *1092:C1 *310:34 0.000162745
51 *1093:S *1087:A2 0.000350486
52 *1097:B1 *1097:A2 0
53 *1097:B1 *310:24 2.16917e-05
54 *1098:A0 *1097:A2 8.8266e-05
55 *1098:A0 *310:20 5.37488e-05
56 *1107:A1 *1055:D 8.40213e-05
57 *1107:A1 *1205:A 8.53113e-06
58 *1107:B1 *1055:D 1.47256e-05
59 *1114:B1 *310:110 0.000116165
60 *1118:C1 *1205:A 4.82919e-05
61 *1119:CLK *310:95 0
62 *1133:D *310:20 0.000168213
63 *1136:D *1256:A 0
64 *1139:CLK *1256:A 0
65 *1207:A *1108:A2 8.40213e-05
66 *1252:A *310:24 0.000345353
67 *115:8 *1087:A2 0.00011964
68 *115:10 *1087:A2 2.24336e-05
69 *115:75 *1087:A2 4.19967e-05
70 *139:42 *310:95 0.00103904
71 *139:42 *310:110 0.000834582
72 *140:16 *310:95 0.000273695
73 *150:12 *1087:A2 0.000137277
74 *150:85 *310:58 0.00043801
75 *169:16 *1108:A2 8.40213e-05
76 *228:23 *1205:A 7.30547e-05
77 *241:10 *310:95 0
78 *241:34 *1055:D 3.9442e-05
79 *241:34 *310:95 0
80 *241:34 *310:110 0
81 *243:16 *310:95 0
82 *270:23 *310:95 0
83 *274:10 *1205:A 3.9442e-05
*RES
1 *1004:Y *310:8 4.74 
2 *310:8 *310:20 19.205 
3 *310:20 *310:24 6.59 
4 *310:24 *310:34 13.3475 
5 *310:34 *1256:A 12.5825 
6 *310:34 *1092:A2 1.6 
7 *310:24 *310:58 8.48 
8 *310:58 *1026:B 1.6 
9 *310:58 *1087:A2 18.8675 
10 *310:20 *1097:A2 3.5275 
11 *310:8 *310:95 19.74 
12 *310:95 *1108:A2 4.395 
13 *310:95 *310:110 12.59 
14 *310:110 *1055:D 8.795 
15 *310:110 *1205:A 10.13 
*END

*D_NET *311 0.00308919
*CONN
*I *1257:A I *D sky130_fd_sc_hd__buf_2
*I *1102:B1 I *D sky130_fd_sc_hd__a32o_1
*I *1055:A I *D sky130_fd_sc_hd__nor4_1
*I *999:Y O *D sky130_fd_sc_hd__inv_2
*CAP
1 *1257:A 0.00067403
2 *1102:B1 1.7347e-05
3 *1055:A 5.01345e-05
4 *999:Y 0
5 *311:13 0.000806316
6 *311:4 0.000165074
7 *1055:A *1206:A 8.49205e-05
8 *1257:A *1117:A1 0.000162022
9 *1257:A *347:16 4.18603e-06
10 *999:A *1055:A 2.16917e-05
11 *1102:A2 *1102:B1 1.85674e-05
12 *1102:A2 *1257:A 0.000206918
13 *1107:A1 *1055:A 4.43591e-05
14 *1107:B1 *1055:A 0.000236355
15 *1107:B1 *1257:A 0
16 *1107:B1 *311:13 0.00023231
17 *1117:A2 *1257:A 4.82919e-05
18 *1118:C1 *1102:B1 1.35171e-05
19 *1118:C1 *1257:A 2.26018e-05
20 *1118:C1 *311:13 6.52469e-05
21 *213:6 *1257:A 0.000200615
22 *213:6 *311:13 1.46828e-05
23 *264:10 *1257:A 0
*RES
1 *999:Y *311:4 1.6 
2 *311:4 *1055:A 3.775 
3 *311:4 *311:13 3.21 
4 *311:13 *1102:B1 2.1625 
5 *311:13 *1257:A 18.065 
*END

*D_NET *312 0.00154222
*CONN
*I *1049:B I *D sky130_fd_sc_hd__and2_1
*I *1258:A I *D sky130_fd_sc_hd__buf_2
*I *1159:A I *D sky130_fd_sc_hd__clkbuf_1
*I *1005:X O *D sky130_fd_sc_hd__and4bb_1
*CAP
1 *1049:B 0
2 *1258:A 0.00015848
3 *1159:A 9.4703e-05
4 *1005:X 0.000206157
5 *312:10 0.000253183
6 *312:8 0.000206157
7 *1159:A *330:64 0
8 *1258:A *330:75 0
9 *312:8 *1001:A 8.65905e-05
10 *312:8 *1001:B 4.82919e-05
11 *169:16 *1159:A 6.55406e-05
12 *242:6 *312:8 4.82919e-05
13 *285:18 *1159:A 0.000210151
14 *285:18 *1258:A 0.000164679
*RES
1 *1005:X *312:8 5.17 
2 *312:8 *312:10 2 
3 *312:10 *1159:A 6 
4 *312:10 *1258:A 6.63 
5 *312:8 *1049:B 1.6 
*END

*D_NET *313 0.000130807
*CONN
*I *1259:A I *D sky130_fd_sc_hd__buf_2
*I *1159:X O *D sky130_fd_sc_hd__clkbuf_1
*CAP
1 *1259:A 6.54036e-05
2 *1159:X 6.54036e-05
*RES
1 *1159:X *1259:A 4.265 
*END

*D_NET *314 0.000201609
*CONN
*I *1260:A I *D sky130_fd_sc_hd__buf_2
*I *1009:X O *D sky130_fd_sc_hd__and2_1
*CAP
1 *1260:A 0.000100804
2 *1009:X 0.000100804
3 *1260:A *1262:A 0
4 *1140:D *1260:A 0
5 *1236:A *1260:A 0
*RES
1 *1009:X *1260:A 8.835 
*END

*D_NET *315 0.00476792
*CONN
*I *1160:A I *D sky130_fd_sc_hd__clkbuf_1
*I *1206:A I *D sky130_fd_sc_hd__buf_2
*I *1000:X O *D sky130_fd_sc_hd__and4bb_1
*CAP
1 *1160:A 0.00124047
2 *1206:A 2.32929e-05
3 *1000:X 0.000336695
4 *315:10 0.00160046
5 *1160:A *1009:B 4.82863e-05
6 *1160:A *1055:C 0
7 *1160:A *1157:RESET_B 9.99492e-05
8 *1160:A *1262:A 1.7386e-05
9 *1160:A *325:18 3.47837e-05
10 *1160:A *336:56 3.26735e-05
11 *315:10 *1000:D 1.91597e-05
12 *315:10 *1055:C 0
13 *315:10 *327:19 9.37731e-05
14 *315:10 *327:84 4.82919e-05
15 *999:A *1206:A 4.66108e-05
16 *999:A *315:10 0.000134516
17 *1053:A1 *1160:A 0.000139245
18 *1055:A *1206:A 8.49205e-05
19 *1107:A1 *1206:A 1.91597e-05
20 *1107:C1 *1160:A 0
21 *1113:A2 *1160:A 0.000171301
22 *1113:A2 *315:10 0.000178438
23 *1140:D *1160:A 0.000282716
24 *1157:D *1160:A 0
25 *241:34 *315:10 0.00011579
*RES
1 *1000:X *315:10 10.545 
2 *315:10 *1206:A 4.395 
3 *315:10 *1160:A 27.135 
*END

*D_NET *316 0.000293388
*CONN
*I *1262:A I *D sky130_fd_sc_hd__buf_2
*I *1160:X O *D sky130_fd_sc_hd__clkbuf_1
*CAP
1 *1262:A 0.000138001
2 *1160:X 0.000138001
3 *1160:A *1262:A 1.7386e-05
4 *1260:A *1262:A 0
*RES
1 *1160:X *1262:A 9.285 
*END

*D_NET *317 0.00589976
*CONN
*I *1055:C I *D sky130_fd_sc_hd__nor4_1
*I *1106:B I *D sky130_fd_sc_hd__and3b_1
*I *1058:A2 I *D sky130_fd_sc_hd__o21ba_1
*I *1266:A I *D sky130_fd_sc_hd__clkbuf_2
*I *1118:A1 I *D sky130_fd_sc_hd__a211o_1
*I *1002:Y O *D sky130_fd_sc_hd__nor4b_2
*CAP
1 *1055:C 8.47588e-05
2 *1106:B 0
3 *1058:A2 0
4 *1266:A 0.000128485
5 *1118:A1 0.000190475
6 *1002:Y 9.85096e-05
7 *317:47 0.000459689
8 *317:39 0.000988375
9 *317:14 0.000948817
10 *317:10 0.00028444
11 *1118:A1 *320:18 0.000636621
12 *317:10 *327:6 3.00381e-05
13 *317:10 *327:19 6.97034e-05
14 *317:39 *325:18 8.65905e-05
15 *317:47 *1054:A 9.50342e-06
16 *317:47 *325:37 0.000127373
17 *1013:A1_N *1055:C 5.16348e-05
18 *1013:A1_N *317:14 4.43871e-06
19 *1013:A1_N *317:39 2.0648e-05
20 *1055:D *1055:C 0.00019364
21 *1055:D *317:10 4.01019e-05
22 *1105:B *1266:A 7.3093e-05
23 *1106:A_N *317:47 3.09179e-05
24 *1106:C *317:39 4.05674e-06
25 *1106:C *317:47 5.33172e-05
26 *1107:A2 *317:39 5.20968e-05
27 *1107:B1 *1055:C 4.82919e-05
28 *1107:C1 *1055:C 1.89685e-05
29 *1107:C1 *317:39 0.000124277
30 *1115:A *317:39 3.64622e-05
31 *1118:C1 *1118:A1 0.000347717
32 *1160:A *1055:C 0
33 *1249:A *1266:A 8.49205e-05
34 *173:14 *1266:A 7.68414e-06
35 *174:14 *1266:A 4.99619e-05
36 *174:14 *317:47 0
37 *176:10 *1266:A 8.49205e-05
38 *241:34 *317:10 3.90266e-05
39 *271:73 *317:14 0
40 *271:73 *317:39 6.95789e-05
41 *275:17 *317:10 0.000160641
42 *302:28 *317:47 4.38278e-05
43 *310:110 *317:10 0.000116158
44 *315:10 *1055:C 0
*RES
1 *1002:Y *317:10 6.8475 
2 *317:10 *317:14 1.6275 
3 *317:14 *1118:A1 10.395 
4 *317:14 *317:39 11.6 
5 *317:39 *317:47 8.845 
6 *317:47 *1266:A 4.48 
7 *317:47 *1058:A2 1.6 
8 *317:39 *1106:B 1.6 
9 *317:10 *1055:C 6.5775 
*END

*D_NET *318 0.000170289
*CONN
*I *1139:D I *D sky130_fd_sc_hd__dfrtp_1
*I *1243:X O *D sky130_fd_sc_hd__clkbuf_1
*CAP
1 *1139:D 8.51447e-05
2 *1243:X 8.51447e-05
3 *1251:A *1139:D 0
*RES
1 *1243:X *1139:D 8.58 
*END

*D_NET *319 0.00300336
*CONN
*I *1068:A2 I *D sky130_fd_sc_hd__a211o_1
*I *1076:A2 I *D sky130_fd_sc_hd__a211o_1
*I *1060:B1 I *D sky130_fd_sc_hd__a221o_1
*I *1249:X O *D sky130_fd_sc_hd__buf_1
*CAP
1 *1068:A2 1.43793e-05
2 *1076:A2 0.0001691
3 *1060:B1 6.27399e-05
4 *1249:X 0.000757836
5 *319:21 0.000359135
6 *319:6 0.000996233
7 *319:6 *1057:A1 9.52646e-05
8 *319:6 *1057:A2 3.00381e-05
9 *319:6 *324:8 0.000107277
10 *1057:B1_N *319:6 2.87345e-05
11 *1057:B1_N *319:21 4.99619e-05
12 *1060:C1 *1060:B1 3.68769e-05
13 *1061:A0 *1060:B1 0
14 *1076:A1 *1076:A2 1.82559e-05
15 *1076:C1 *1068:A2 4.00541e-06
16 *1076:C1 *1076:A2 7.91165e-05
17 *1076:C1 *319:21 0.000153482
18 *1077:A0 *1076:A2 3.50966e-05
19 *233:10 *1076:A2 5.83121e-06
*RES
1 *1249:X *319:6 10.675 
2 *319:6 *1060:B1 6.725 
3 *319:6 *319:21 3.225 
4 *319:21 *1076:A2 4.585 
5 *319:21 *1068:A2 1.96 
*END

*D_NET *320 0.0131774
*CONN
*I *1013:B1 I *D sky130_fd_sc_hd__a2bb2o_4
*I *1060:A2 I *D sky130_fd_sc_hd__a221o_1
*I *1064:A I *D sky130_fd_sc_hd__and3_1
*I *1072:A I *D sky130_fd_sc_hd__and3_1
*I *1031:B I *D sky130_fd_sc_hd__and2_1
*I *1027:B1 I *D sky130_fd_sc_hd__a2bb2o_1
*I *1045:A2 I *D sky130_fd_sc_hd__a221o_1
*I *1040:A2 I *D sky130_fd_sc_hd__a221o_1
*I *1081:A1 I *D sky130_fd_sc_hd__a311o_1
*I *1054:C I *D sky130_fd_sc_hd__nor3_1
*I *1205:X O *D sky130_fd_sc_hd__buf_6
*CAP
1 *1013:B1 0
2 *1060:A2 0
3 *1064:A 2.75175e-05
4 *1072:A 1.16927e-05
5 *1031:B 7.60346e-05
6 *1027:B1 0
7 *1045:A2 0.000674118
8 *1040:A2 0.000155226
9 *1081:A1 0.000327444
10 *1054:C 0
11 *1205:X 9.31041e-05
12 *320:72 0.000908902
13 *320:70 0.000167447
14 *320:68 0.000315381
15 *320:64 0.000411167
16 *320:43 0.00061446
17 *320:41 0.000334737
18 *320:31 0.000913343
19 *320:18 0.00108835
20 *320:6 0.000536331
21 *1045:A2 *326:28 0.000104531
22 *320:18 *1054:A 0.00011905
23 *320:31 *1054:B 0.000146564
24 *999:A *320:18 6.3889e-05
25 *1013:A2_N *320:18 4.80285e-05
26 *1013:B2 *320:6 4.82863e-05
27 *1013:B2 *320:18 2.0514e-05
28 *1019:A *1045:A2 2.49909e-05
29 *1019:B *1045:A2 7.62136e-05
30 *1027:A2_N *320:72 4.9968e-05
31 *1027:B2 *320:68 0.000137968
32 *1027:B2 *320:70 7.75369e-05
33 *1031:A *1031:B 2.75229e-05
34 *1033:A2 *1045:A2 4.82919e-05
35 *1033:B2 *320:64 0.000181376
36 *1033:B2 *320:68 0.00018297
37 *1033:B2 *320:70 7.73064e-05
38 *1039:B1 *1040:A2 4.66108e-05
39 *1040:B2 *320:70 0
40 *1040:C1 *1040:A2 0.000101894
41 *1045:A1 *1045:A2 2.19562e-06
42 *1045:B1 *1045:A2 8.96913e-05
43 *1045:B2 *1045:A2 8.525e-06
44 *1046:A1 *1045:A2 4.43871e-06
45 *1059:C *320:31 4.66108e-05
46 *1060:A1 *320:41 0.000116853
47 *1060:B2 *320:41 0
48 *1061:A0 *320:31 7.60965e-05
49 *1063:A *1072:A 4.82863e-05
50 *1063:B *1072:A 4.66108e-05
51 *1064:B *1081:A1 3.09164e-05
52 *1064:B *320:41 8.5242e-05
53 *1064:B *320:43 6.45236e-05
54 *1064:C *1081:A1 0
55 *1068:B1 *320:41 0
56 *1079:B *1081:A1 1.12578e-05
57 *1081:A2 *1081:A1 0.000424824
58 *1081:B1 *1081:A1 1.85674e-05
59 *1083:A1_N *320:41 0
60 *1083:B1 *1081:A1 0.000162311
61 *1086:B *1040:A2 2.92496e-05
62 *1118:A1 *320:18 0.000636621
63 *1118:C1 *320:6 5.55258e-05
64 *1118:C1 *320:18 6.39597e-05
65 *1130:CLK *1064:A 2.75229e-05
66 *1130:CLK *320:64 0.000304474
67 *1199:A *1040:A2 0
68 *1199:A *1081:A1 0
69 *1199:A *320:70 0
70 *1199:A *320:72 0
71 *1205:A *320:6 8.79572e-05
72 *1205:A *320:18 0.000270426
73 *139:16 *320:18 0.00116044
74 *139:16 *320:31 6.25365e-05
75 *139:42 *320:18 8.65905e-05
76 *149:32 *1045:A2 1.08723e-05
77 *172:8 *320:18 2.05056e-05
78 *172:8 *320:31 1.16578e-05
79 *173:14 *320:31 1.4174e-05
80 *186:12 *1081:A1 0.00012657
81 *239:46 *1040:A2 0.000179785
82 *239:46 *320:72 8.53722e-05
83 *250:21 *320:68 3.23391e-05
84 *250:58 *320:64 9.61052e-05
85 *250:58 *320:68 2.92496e-05
86 *264:16 *320:6 1.61831e-05
87 *281:20 *1045:A2 5.83121e-06
88 *281:36 *1045:A2 0.000205372
89 *310:110 *320:18 8.23457e-05
*RES
1 *1205:X *320:6 3.775 
2 *320:6 *320:18 16.23 
3 *320:18 *1054:C 1.6 
4 *320:18 *320:31 11.2612 
5 *320:31 *320:41 6.95375 
6 *320:41 *320:43 0.87 
7 *320:43 *1081:A1 10.875 
8 *320:43 *320:64 9.01 
9 *320:64 *320:68 4.38 
10 *320:68 *320:70 2.145 
11 *320:70 *320:72 1.635 
12 *320:72 *1040:A2 6.9675 
13 *320:72 *1045:A2 17.7887 
14 *320:70 *1027:B1 3.6 
15 *320:68 *1031:B 4.74 
16 *320:64 *1072:A 4.05 
17 *320:41 *1064:A 4.05 
18 *320:31 *1060:A2 1.6 
19 *320:6 *1013:B1 1.6 
*END

*D_NET *321 0.00158235
*CONN
*I *1015:S I *D sky130_fd_sc_hd__mux2_1
*I *1017:S I *D sky130_fd_sc_hd__mux2_1
*I *1264:X O *D sky130_fd_sc_hd__dlygate4sd1_1
*CAP
1 *1015:S 0.000257923
2 *1017:S 0.000283678
3 *1264:X 0
4 *321:4 0.000541601
5 *1017:S *1133:RESET_B 0
6 *1004:A *1015:S 4.21973e-05
7 *1004:A *1017:S 5.05437e-05
8 *1015:A0 *1015:S 1.26626e-05
9 *1015:A1 *1015:S 9.50342e-06
10 *1016:A0 *1015:S 0
11 *1264:A *1015:S 7.10578e-05
12 *243:16 *1015:S 2.03578e-05
13 *310:8 *1017:S 0.000122331
14 *310:20 *1017:S 0.000170498
*RES
1 *1264:X *321:4 1.6 
2 *321:4 *1017:S 11.12 
3 *321:4 *1015:S 10.085 
*END

*D_NET *322 0.00146425
*CONN
*I *1099:A2 I *D sky130_fd_sc_hd__a21o_1
*I *1250:X O *D sky130_fd_sc_hd__clkbuf_1
*CAP
1 *1099:A2 0.000592892
2 *1250:X 0.000592892
3 *1099:A2 *1023:A2 9.2741e-05
4 *1099:A2 *1155:RESET_B 0.000141592
5 *1099:B1 *1099:A2 0
6 *1104:A2 *1099:A2 0
7 *226:40 *1099:A2 4.41363e-05
*RES
1 *1250:X *1099:A2 15.615 
*END

*D_NET *323 0.00254572
*CONN
*I *1023:A2 I *D sky130_fd_sc_hd__o211a_4
*I *1250:A I *D sky130_fd_sc_hd__clkbuf_1
*I *1265:X O *D sky130_fd_sc_hd__clkbuf_1
*CAP
1 *1023:A2 0.000129442
2 *1250:A 0
3 *1265:X 0.000520481
4 *323:10 0.000649923
5 *1084:C1 *323:10 0.000187281
6 *1099:A2 *1023:A2 9.2741e-05
7 *146:10 *323:10 0.000274654
8 *226:40 *1023:A2 0.000138799
9 *226:40 *323:10 0.00025497
10 *243:10 *1023:A2 7.45881e-05
11 *243:12 *1023:A2 1.43521e-05
12 *254:10 *1023:A2 0.000208484
*RES
1 *1265:X *323:10 11.395 
2 *323:10 *1250:A 1.6 
3 *323:10 *1023:A2 10.175 
*END

*D_NET *324 0.00791008
*CONN
*I *1080:A2 I *D sky130_fd_sc_hd__o211a_1
*I *1075:A2_N I *D sky130_fd_sc_hd__a2bb2oi_1
*I *1057:A2 I *D sky130_fd_sc_hd__o21ba_1
*I *1263:A I *D sky130_fd_sc_hd__buf_2
*I *1067:A2 I *D sky130_fd_sc_hd__o22a_1
*I *1054:B I *D sky130_fd_sc_hd__nor3_1
*I *1266:X O *D sky130_fd_sc_hd__clkbuf_2
*CAP
1 *1080:A2 4.63656e-05
2 *1075:A2_N 1.16891e-05
3 *1057:A2 9.54168e-05
4 *1263:A 0.00103892
5 *1067:A2 0
6 *1054:B 0.000616367
7 *1266:X 0.000247671
8 *324:37 0.00121481
9 *324:33 0.00028883
10 *324:23 0.000297676
11 *324:8 0.000918683
12 *1054:B *1057:A1 0
13 *1080:A2 *1057:A1 0
14 *1080:A2 *1080:A1 9.50342e-06
15 *1263:A *1147:RESET_B 1.5913e-05
16 *1263:A *335:50 9.05377e-05
17 *324:23 *1057:A1 0
18 *324:37 *1067:A1 0.000123225
19 *324:37 *325:94 3.57349e-05
20 *1057:B1_N *1057:A2 0.000144233
21 *1061:A0 *1054:B 0
22 *1061:A0 *1057:A2 0
23 *1067:B1 *1263:A 4.70919e-05
24 *1067:B1 *324:37 2.16833e-05
25 *1068:C1 *1263:A 8.65961e-05
26 *1076:C1 *1057:A2 3.68596e-05
27 *1076:C1 *1263:A 0.000123225
28 *1076:C1 *324:33 4.99619e-05
29 *1076:C1 *324:37 0.000118229
30 *1249:A *324:8 3.00381e-05
31 *139:16 *1054:B 7.08913e-05
32 *155:18 *1263:A 0.000573
33 *173:14 *1054:B 0.000119756
34 *173:14 *324:8 8.65961e-05
35 *189:10 *1080:A2 4.43871e-06
36 *260:10 *1263:A 4.66108e-05
37 *280:19 *1054:B 0.000152413
38 *280:19 *1080:A2 3.57924e-05
39 *280:19 *324:23 5.02217e-05
40 *302:28 *1075:A2_N 1.51429e-05
41 *302:28 *1263:A 0.000501836
42 *302:28 *324:33 0.00024551
43 *302:28 *324:37 1.47347e-05
44 *319:6 *1057:A2 3.00381e-05
45 *319:6 *324:8 0.000107277
46 *320:31 *1054:B 0.000146564
*RES
1 *1266:X *324:8 7.845 
2 *324:8 *1054:B 12.75 
3 *324:8 *324:23 1.125 
4 *324:23 *324:33 5.69 
5 *324:33 *324:37 2.535 
6 *324:37 *1067:A2 1.6 
7 *324:37 *1263:A 27.365 
8 *324:37 *1057:A2 8.045 
9 *324:33 *1075:A2_N 1.96 
10 *324:23 *1080:A2 4.47 
*END

*D_NET *325 0.0125193
*CONN
*I *1055:B I *D sky130_fd_sc_hd__nor4_1
*I *1009:B I *D sky130_fd_sc_hd__and2_1
*I *1080:A1 I *D sky130_fd_sc_hd__o211a_1
*I *1261:A I *D sky130_fd_sc_hd__buf_2
*I *1075:A1_N I *D sky130_fd_sc_hd__a2bb2oi_1
*I *1067:A1 I *D sky130_fd_sc_hd__o22a_1
*I *1057:A1 I *D sky130_fd_sc_hd__o21ba_1
*I *1058:A1 I *D sky130_fd_sc_hd__o21ba_1
*I *1054:A I *D sky130_fd_sc_hd__nor3_1
*I *1052:C1 I *D sky130_fd_sc_hd__o211a_1
*I *1206:X O *D sky130_fd_sc_hd__buf_2
*CAP
1 *1055:B 0
2 *1009:B 0.000492182
3 *1080:A1 1.83265e-05
4 *1261:A 0.000932188
5 *1075:A1_N 0
6 *1067:A1 2.42927e-05
7 *1057:A1 0.000180781
8 *1058:A1 2.2266e-05
9 *1054:A 0.00019586
10 *1052:C1 5.52964e-05
11 *1206:X 8.22078e-05
12 *325:94 3.92031e-05
13 *325:79 0.000492753
14 *325:67 0.00130538
15 *325:63 0.000639276
16 *325:37 0.000343355
17 *325:35 0.000865409
18 *325:22 0.000766605
19 *325:18 0.00143156
20 *325:6 0.000505637
21 *325:35 *336:34 0
22 PWDATA[10] *1261:A 4.43871e-06
23 *1009:A *1009:B 0.000364138
24 *1052:A1 *325:35 8.08153e-06
25 *1052:A2 *1052:C1 4.00541e-06
26 *1052:A2 *325:22 0.00016569
27 *1052:B1 *325:35 0.000257005
28 *1054:B *1057:A1 0
29 *1057:B1_N *1057:A1 4.9253e-06
30 *1061:A0 *1057:A1 0.000204456
31 *1061:A0 *1261:A 0
32 *1061:A0 *325:67 0
33 *1061:A0 *325:79 0.000107634
34 *1061:S *1261:A 0
35 *1067:B1 *1067:A1 8.65961e-05
36 *1075:B2 *325:67 7.23602e-05
37 *1080:A2 *1057:A1 0
38 *1080:A2 *1080:A1 9.50342e-06
39 *1080:C1 *325:63 4.66108e-05
40 *1082:A2 *1054:A 0
41 *1105:A_N *1054:A 4.43871e-06
42 *1105:A_N *325:37 0.000109441
43 *1105:B *1058:A1 4.82919e-05
44 *1106:C *325:63 0.000199833
45 *1107:B1 *325:6 0.000124895
46 *1107:C1 *325:18 6.42013e-05
47 *1118:A2 *1054:A 0
48 *1126:CLK *1009:B 0.000152127
49 *1126:CLK *325:18 5.23362e-05
50 *1127:D *1261:A 6.47516e-05
51 *1140:CLK *325:22 2.49909e-05
52 *1140:D *1009:B 0
53 *1157:D *325:18 4.94404e-05
54 *1160:A *1009:B 4.82863e-05
55 *1160:A *325:18 3.47837e-05
56 *167:25 *1054:A 0
57 *174:8 *325:35 0
58 *174:14 *325:37 0
59 *177:19 *1261:A 0
60 *177:19 *325:67 0
61 *189:10 *1080:A1 1.14559e-05
62 *189:10 *325:79 0
63 *271:73 *325:18 0.000228501
64 *271:82 *325:18 0.000164679
65 *277:16 *325:35 0
66 *277:20 *325:79 0.000140915
67 *277:26 *325:79 0.000211043
68 *280:19 *1080:A1 3.09164e-05
69 *280:38 *1080:A1 2.07184e-05
70 *280:38 *325:67 3.50033e-05
71 *302:28 *1067:A1 2.05056e-05
72 *302:28 *325:63 0.000328024
73 *302:28 *325:94 2.49909e-05
74 *317:39 *325:18 8.65905e-05
75 *317:47 *1054:A 9.50342e-06
76 *317:47 *325:37 0.000127373
77 *319:6 *1057:A1 9.52646e-05
78 *320:18 *1054:A 0.00011905
79 *324:23 *1057:A1 0
80 *324:37 *1067:A1 0.000123225
81 *324:37 *325:94 3.57349e-05
*RES
1 *1206:X *325:6 2.74 
2 *325:6 *325:18 14.94 
3 *325:18 *325:22 9.695 
4 *325:22 *1052:C1 2.41 
5 *325:22 *325:35 5.93 
6 *325:35 *325:37 2.91 
7 *325:37 *1054:A 6.72 
8 *325:37 *1058:A1 4.05 
9 *325:35 *325:63 11.35 
10 *325:63 *325:67 1.575 
11 *325:67 *325:79 9.055 
12 *325:79 *1057:A1 7.485 
13 *325:79 *325:94 2.45 
14 *325:94 *1067:A1 2.74 
15 *325:94 *1075:A1_N 1.6 
16 *325:67 *1261:A 18.945 
17 *325:63 *1080:A1 4.215 
18 *325:18 *1009:B 13.845 
19 *325:6 *1055:B 1.6 
*END

*D_NET *326 0.0123962
*CONN
*I *1111:A2 I *D sky130_fd_sc_hd__a31o_1
*I *1024:B I *D sky130_fd_sc_hd__and3b_1
*I *1110:C I *D sky130_fd_sc_hd__and4_1
*I *1030:A2 I *D sky130_fd_sc_hd__a2111o_1
*I *1084:B1 I *D sky130_fd_sc_hd__o2111a_1
*I *1044:B1 I *D sky130_fd_sc_hd__o21a_1
*I *1033:A1 I *D sky130_fd_sc_hd__a221o_1
*I *1026:A I *D sky130_fd_sc_hd__nor2_2
*I *1096:A I *D sky130_fd_sc_hd__and3_1
*I *1091:A I *D sky130_fd_sc_hd__and3_1
*I *1207:X O *D sky130_fd_sc_hd__buf_2
*CAP
1 *1111:A2 2.66007e-05
2 *1024:B 1.77753e-05
3 *1110:C 0
4 *1030:A2 0.00010492
5 *1084:B1 0.000354905
6 *1044:B1 0
7 *1033:A1 0.000473105
8 *1026:A 2.24758e-05
9 *1096:A 0
10 *1091:A 8.31716e-05
11 *1207:X 0.000154967
12 *326:95 0.000684834
13 *326:91 0.000515202
14 *326:38 0.000358351
15 *326:34 0.000914335
16 *326:30 0.00120418
17 *326:28 0.000842796
18 *326:18 0.00104574
19 *326:16 0.000246603
20 *326:10 0.000383252
21 *326:10 *327:37 0.00013521
22 *326:16 *1024:C 0.000190633
23 *326:16 *327:37 0.00013521
24 *326:16 *327:52 0.000200615
25 *326:18 *1024:C 1.08758e-05
26 *326:34 *1122:RESET_B 0
27 *326:38 *1122:RESET_B 0
28 *326:91 *1024:C 0.000117852
29 *1024:A_N *326:91 6.90876e-05
30 *1025:A *1030:A2 4.82919e-05
31 *1025:A *1084:B1 2.86623e-05
32 *1025:A *326:95 1.07797e-05
33 *1030:B1 *1030:A2 1.91597e-05
34 *1030:C1 *1030:A2 6.29692e-05
35 *1033:A2 *1033:A1 0.000141548
36 *1033:B1 *1033:A1 0.000130938
37 *1034:B1 *1033:A1 8.53506e-05
38 *1039:A1 *1033:A1 4.82863e-05
39 *1039:A2 *1033:A1 0.000103554
40 *1039:A2 *326:34 0.000245192
41 *1045:A1 *326:28 2.65814e-06
42 *1045:A2 *326:28 0.000104531
43 *1045:C1 *326:30 3.00381e-05
44 *1084:D1 *1084:B1 3.00381e-05
45 *1085:D *1084:B1 0.00012657
46 *1087:A2 *1026:A 0.0001249
47 *1087:A2 *326:34 0
48 *1089:A *1091:A 4.99619e-05
49 *1089:B *326:38 0
50 *1091:B *1091:A 1.33293e-05
51 *1111:A1 *1111:A2 8.23457e-05
52 *1111:A3 *1111:A2 4.66108e-05
53 *1111:B1 *1111:A2 1.08758e-05
54 *1122:D *326:34 0.000108478
55 *1125:CLK *1084:B1 0.000227543
56 *1125:CLK *326:95 0.000487991
57 *1125:D *1084:B1 0
58 *1125:D *326:95 0
59 *1200:A *1030:A2 0.000219214
60 *1216:A *326:28 0.000109836
61 *115:10 *326:34 0
62 *115:10 *326:38 0
63 *115:31 *1091:A 0.000277223
64 *139:44 *1084:B1 8.52595e-05
65 *139:48 *1084:B1 5.83373e-05
66 *147:10 *326:95 5.00699e-05
67 *148:12 *326:28 1.17409e-05
68 *148:16 *1030:A2 0.000124895
69 *149:32 *326:28 0.000202857
70 *149:32 *326:34 0
71 *150:12 *1026:A 7.35813e-05
72 *220:10 *326:16 8.40213e-05
73 *239:44 *1111:A2 8.34281e-06
74 *268:10 *326:34 0
75 *271:14 *326:10 0.000128353
76 *271:14 *326:16 0.00013521
77 *281:44 *1033:A1 2.6766e-05
78 *282:76 *326:28 0
79 *283:25 *326:34 3.31282e-05
80 *284:30 *326:28 5.58206e-05
81 *285:28 *326:91 4.82863e-05
*RES
1 *1207:X *326:10 6.375 
2 *326:10 *326:16 7.19 
3 *326:16 *326:18 0.45 
4 *326:18 *326:28 15.235 
5 *326:28 *326:30 1.83 
6 *326:30 *326:34 12.56 
7 *326:34 *326:38 6.44 
8 *326:38 *1091:A 4.12 
9 *326:38 *1096:A 1.6 
10 *326:34 *1026:A 4.74 
11 *326:30 *1033:A1 13.775 
12 *326:28 *1044:B1 1.6 
13 *326:18 *326:91 4.335 
14 *326:91 *326:95 7.715 
15 *326:95 *1084:B1 9.81 
16 *326:95 *1030:A2 6.93 
17 *326:91 *1110:C 1.6 
18 *326:16 *1024:B 1.96 
19 *326:10 *1111:A2 4.395 
*END

*D_NET *327 0.0099859
*CONN
*I *997:A_N I *D sky130_fd_sc_hd__and2b_1
*I *1005:C I *D sky130_fd_sc_hd__and4bb_1
*I *1007:A I *D sky130_fd_sc_hd__nor2_1
*I *1000:B_N I *D sky130_fd_sc_hd__and4bb_1
*I *1113:B1 I *D sky130_fd_sc_hd__a2111o_1
*I *1114:A1 I *D sky130_fd_sc_hd__o31ai_1
*I *1110:A I *D sky130_fd_sc_hd__and4_1
*I *1024:C I *D sky130_fd_sc_hd__and3b_1
*I *982:A I *D sky130_fd_sc_hd__inv_2
*I *1002:D_N I *D sky130_fd_sc_hd__nor4b_2
*I *1208:X O *D sky130_fd_sc_hd__clkbuf_2
*CAP
1 *997:A_N 8.68368e-05
2 *1005:C 1.89706e-05
3 *1007:A 0.000297427
4 *1000:B_N 0
5 *1113:B1 2.06163e-05
6 *1114:A1 0
7 *1110:A 0
8 *1024:C 5.75942e-05
9 *982:A 0.000117968
10 *1002:D_N 1.90984e-05
11 *1208:X 2.32151e-05
12 *327:101 0.000509698
13 *327:97 0.000680534
14 *327:84 0.000491837
15 *327:52 9.8657e-05
16 *327:37 0.000429111
17 *327:33 0.000861134
18 *327:23 0.000686967
19 *327:19 0.000269944
20 *327:6 0.000145521
21 *997:A_N *330:88 4.82919e-05
22 *1005:C *331:71 1.56428e-05
23 *1007:A *1005:A_N 5.64143e-05
24 *1007:A *330:34 0.000136884
25 *1007:A *330:45 0.000108329
26 *1007:A *330:116 4.21314e-05
27 *327:84 *1000:D 0.000194694
28 *327:97 *1000:D 0.000444251
29 *327:97 *1100:B1 0.000273878
30 *327:97 *331:93 0.000168841
31 *327:101 *330:75 0
32 *1002:C *1002:D_N 0
33 *1007:B *1007:A 3.95269e-05
34 *1024:A_N *1024:C 4.99619e-05
35 *1024:A_N *327:52 7.66083e-05
36 *1084:C1 *982:A 0.000123225
37 *1101:A2 *327:97 6.52181e-05
38 *1101:A3 *327:97 4.82919e-05
39 *1101:B2 *997:A_N 8.78892e-05
40 *1101:B2 *327:101 4.43871e-06
41 *1104:A2 *1007:A 4.43871e-06
42 *1104:B1 *1007:A 0
43 *1110:D *982:A 7.06865e-05
44 *1111:A1 *982:A 3.00381e-05
45 *1112:A *327:33 3.98952e-05
46 *1113:A2 *327:19 7.21296e-06
47 *1113:A2 *327:23 5.64057e-05
48 *1113:D1 *1113:B1 4.66108e-05
49 *1113:D1 *327:33 4.66108e-05
50 *1114:A2 *327:37 9.91801e-05
51 *1114:A3 *327:33 5.53249e-06
52 *1114:A3 *327:37 0
53 *1116:B *997:A_N 7.63204e-05
54 *1125:CLK *982:A 4.76503e-05
55 *1156:CLK *327:52 8.49205e-05
56 *1208:A *1002:D_N 4.00541e-06
57 *146:10 *982:A 4.82863e-05
58 *146:16 *982:A 0.000181376
59 *146:16 *327:37 0.000179015
60 *220:10 *327:52 2.05056e-05
61 *226:23 *982:A 2.05056e-05
62 *241:34 *327:19 0.000106655
63 *241:34 *327:23 0.00022921
64 *242:6 *1005:C 4.82919e-05
65 *242:23 *997:A_N 1.07797e-05
66 *242:23 *1005:C 1.15399e-05
67 *242:23 *1007:A 1.93834e-05
68 *242:23 *327:101 0.000194531
69 *271:6 *327:33 1.33293e-05
70 *271:12 *327:33 8.51939e-05
71 *271:14 *982:A 1.52184e-05
72 *271:14 *327:33 0
73 *271:14 *327:37 0.000143528
74 *272:25 *1007:A 0
75 *272:25 *327:101 9.64422e-05
76 *273:21 *327:23 7.30547e-05
77 *285:28 *327:52 3.77036e-05
78 *315:10 *327:19 9.37731e-05
79 *315:10 *327:84 4.82919e-05
80 *317:10 *327:6 3.00381e-05
81 *317:10 *327:19 6.97034e-05
82 *326:10 *327:37 0.00013521
83 *326:16 *1024:C 0.000190633
84 *326:16 *327:37 0.00013521
85 *326:16 *327:52 0.000200615
86 *326:18 *1024:C 1.08758e-05
87 *326:91 *1024:C 0.000117852
*RES
1 *1208:X *327:6 2.05 
2 *327:6 *1002:D_N 1.96 
3 *327:6 *327:19 4.52 
4 *327:19 *327:23 4.655 
5 *327:23 *327:33 10.415 
6 *327:33 *327:37 7.02 
7 *327:37 *982:A 7.23 
8 *327:37 *327:52 4.175 
9 *327:52 *1024:C 4.045 
10 *327:52 *1110:A 1.6 
11 *327:33 *1114:A1 3.6 
12 *327:23 *1113:B1 2.05 
13 *327:19 *327:84 3.83 
14 *327:84 *1000:B_N 1.6 
15 *327:84 *327:97 10.76 
16 *327:97 *327:101 4.7625 
17 *327:101 *1007:A 9.6975 
18 *327:101 *1005:C 4.2825 
19 *327:97 *997:A_N 5.94 
*END

*D_NET *328 0.00894466
*CONN
*I *993:A_N I *D sky130_fd_sc_hd__and2b_1
*I *997:B I *D sky130_fd_sc_hd__and2b_1
*I *1000:C I *D sky130_fd_sc_hd__and4bb_1
*I *983:A I *D sky130_fd_sc_hd__inv_2
*I *1005:B_N I *D sky130_fd_sc_hd__and4bb_1
*I *995:A_N I *D sky130_fd_sc_hd__nand3b_4
*I *994:A_N I *D sky130_fd_sc_hd__and3b_1
*I *1006:B I *D sky130_fd_sc_hd__or3b_1
*I *1003:C I *D sky130_fd_sc_hd__or4b_4
*I *998:C_N I *D sky130_fd_sc_hd__or4bb_4
*I *1209:X O *D sky130_fd_sc_hd__clkbuf_2
*CAP
1 *993:A_N 9.02138e-05
2 *997:B 1.63287e-05
3 *1000:C 0.000140732
4 *983:A 0
5 *1005:B_N 0.000123149
6 *995:A_N 1.36534e-05
7 *994:A_N 0.000279843
8 *1006:B 0.000153386
9 *1003:C 7.22878e-05
10 *998:C_N 7.93613e-05
11 *1209:X 0
12 *328:102 0.00020645
13 *328:44 0.000539143
14 *328:31 0.000254813
15 *328:20 0.000201793
16 *328:16 0.000160057
17 *328:14 0.000297031
18 *328:12 0.000124269
19 *328:10 0.000271904
20 *328:4 0.000180109
21 *993:A_N *330:88 0.000341286
22 *994:A_N *994:B 0.00011822
23 *994:A_N *994:C 0.000164874
24 *994:A_N *1006:C_N 4.82919e-05
25 *994:A_N *331:40 0.000149765
26 *1000:C *1000:A_N 0.000271303
27 *1000:C *1000:D 0.000455121
28 *1003:C *1003:D_N 2.66935e-05
29 *1003:C *331:14 8.08153e-06
30 *1003:C *331:16 2.66852e-05
31 *1005:B_N *331:71 8.49205e-05
32 *1006:B *1003:D_N 4.43871e-06
33 *1006:B *331:14 1.52184e-05
34 *1006:B *331:16 3.9442e-05
35 *328:16 *331:12 0
36 *328:16 *331:67 0
37 *328:44 *331:40 8.49205e-05
38 *328:102 *1000:A_N 8.57406e-05
39 *328:102 *330:88 0.000275548
40 *993:B *993:A_N 0.000182825
41 *993:B *997:B 1.90686e-05
42 *993:B *328:10 4.66108e-05
43 *993:B *328:102 0.000487579
44 *998:A *998:C_N 0.000111901
45 *1007:B *1006:B 7.57202e-05
46 *1047:C *1005:B_N 0.00025143
47 *1103:A2 *1005:B_N 0.000201508
48 *1103:A2 *328:14 0
49 *1103:C1 *328:10 0.000204456
50 *1103:C1 *328:12 0.000183043
51 *1103:C1 *328:14 9.50342e-06
52 *1104:B1 *1006:B 5.02217e-05
53 *1112:D_N *998:C_N 1.47347e-05
54 *1112:D_N *1006:B 8.49205e-05
55 *1112:D_N *328:31 5.78185e-05
56 *1112:D_N *328:44 4.07182e-05
57 *1207:A *995:A_N 4.66108e-05
58 *169:16 *995:A_N 4.66108e-05
59 *238:8 *994:A_N 4.82919e-05
60 *239:8 *328:16 5.16418e-05
61 *239:8 *328:20 0.00010596
62 *239:14 *1003:C 6.14602e-05
63 *239:14 *328:20 2.92496e-05
64 *239:32 *998:C_N 0.000232105
65 *239:32 *328:31 4.66108e-05
66 *275:21 *328:10 0.000195238
67 *275:21 *328:12 0.000171179
68 *275:21 *328:14 0.000128353
69 *275:21 *328:16 0.000219012
70 *275:21 *328:20 0.00013521
*RES
1 *1209:X *328:4 1.6 
2 *328:4 *328:10 4.85 
3 *328:10 *328:12 2.145 
4 *328:12 *328:14 1.635 
5 *328:14 *328:16 2.655 
6 *328:16 *328:20 3.635 
7 *328:20 *998:C_N 4.135 
8 *328:20 *328:31 1.485 
9 *328:31 *1003:C 7.49 
10 *328:31 *328:44 1.83 
11 *328:44 *1006:B 8.21 
12 *328:44 *994:A_N 7.24 
13 *328:16 *995:A_N 4.05 
14 *328:14 *1005:B_N 7.5 
15 *328:12 *983:A 3.6 
16 *328:10 *1000:C 7.845 
17 *328:4 *328:102 4.59 
18 *328:102 *997:B 1.96 
19 *328:102 *993:A_N 4.81 
*END

*D_NET *329 0.000593066
*CONN
*I *1145:D I *D sky130_fd_sc_hd__dfrtp_1
*I *1244:X O *D sky130_fd_sc_hd__clkbuf_1
*CAP
1 *1145:D 0.000216888
2 *1244:X 0.000216888
3 *1143:CLK *1145:D 0.000140905
4 *1143:D *1145:D 0
5 *1244:A *1145:D 1.83847e-05
*RES
1 *1244:X *1145:D 10.815 
*END

*D_NET *330 0.00869065
*CONN
*I *1005:A_N I *D sky130_fd_sc_hd__and4bb_1
*I *995:C I *D sky130_fd_sc_hd__nand3b_4
*I *992:A I *D sky130_fd_sc_hd__and2_1
*I *1000:A_N I *D sky130_fd_sc_hd__and4bb_1
*I *1100:A1 I *D sky130_fd_sc_hd__o21ai_1
*I *1001:A I *D sky130_fd_sc_hd__nor2_1
*I *994:C I *D sky130_fd_sc_hd__and3b_1
*I *1006:C_N I *D sky130_fd_sc_hd__or3b_1
*I *1003:B I *D sky130_fd_sc_hd__or4b_4
*I *998:D_N I *D sky130_fd_sc_hd__or4bb_4
*I *1210:X O *D sky130_fd_sc_hd__buf_2
*CAP
1 *1005:A_N 9.18179e-05
2 *995:C 1.16861e-05
3 *992:A 0
4 *1000:A_N 0.000381716
5 *1100:A1 0
6 *1001:A 3.64111e-05
7 *994:C 0.000164643
8 *1006:C_N 9.71884e-06
9 *1003:B 0
10 *998:D_N 0.000149163
11 *1210:X 0
12 *330:116 0.000152748
13 *330:88 0.000761435
14 *330:75 0.000637006
15 *330:64 0.000461884
16 *330:51 0.000556162
17 *330:45 0.000307397
18 *330:34 0.000441529
19 *330:19 0.000564652
20 *330:4 0.000316824
21 *1000:A_N *992:B 7.44453e-05
22 *1000:A_N *1000:D 6.1357e-05
23 *1006:C_N *994:B 4.82919e-05
24 *330:34 *1003:D_N 4.82919e-05
25 *993:A_N *330:88 0.000341286
26 *994:A_N *994:C 0.000164874
27 *994:A_N *1006:C_N 4.82919e-05
28 *997:A_N *330:88 4.82919e-05
29 *1000:C *1000:A_N 0.000271303
30 *1003:A *330:19 0.000122337
31 *1007:A *1005:A_N 5.64143e-05
32 *1007:A *330:34 0.000136884
33 *1007:A *330:45 0.000108329
34 *1007:A *330:116 4.21314e-05
35 *1007:B *330:34 9.37731e-05
36 *1008:A *330:34 2.15594e-05
37 *1008:A *330:45 4.66724e-05
38 *1047:C *1005:A_N 4.66108e-05
39 *1101:B2 *330:75 0
40 *1101:B2 *330:88 0
41 *1103:B1 *1000:A_N 4.82919e-05
42 *1103:C1 *1000:A_N 0.000100544
43 *1104:A2 *330:34 1.83847e-05
44 *1104:B1 *1005:A_N 0.000158297
45 *1159:A *330:64 0
46 *1207:A *995:C 4.82919e-05
47 *1207:A *330:45 6.28498e-05
48 *1207:A *330:51 4.66108e-05
49 *1207:A *330:116 0.000178221
50 *1210:A *998:D_N 7.00889e-06
51 *1211:A *330:51 4.82863e-05
52 *1258:A *330:75 0
53 *169:16 *995:C 4.66108e-05
54 *169:16 *330:51 8.65439e-05
55 *169:16 *330:64 6.55406e-05
56 *169:16 *330:116 0.00015896
57 *242:23 *1005:A_N 4.43871e-06
58 *243:10 *998:D_N 2.96334e-05
59 *243:10 *330:19 4.43682e-05
60 *254:10 *998:D_N 8.44437e-05
61 *272:10 *994:C 0
62 *272:25 *330:64 0
63 *272:25 *330:75 0
64 *272:25 *330:116 7.21296e-06
65 *273:21 *998:D_N 0
66 *285:18 *330:34 2.96107e-05
67 *285:18 *330:64 0
68 *285:18 *330:75 0
69 *285:18 *330:88 0
70 *285:28 *330:19 2.38673e-05
71 *285:28 *330:34 0.000118813
72 *312:8 *1001:A 8.65905e-05
73 *327:101 *330:75 0
74 *328:102 *1000:A_N 8.57406e-05
75 *328:102 *330:88 0.000275548
*RES
1 *1210:X *330:4 1.6 
2 *330:4 *998:D_N 8.285 
3 *330:4 *330:19 2.865 
4 *330:19 *1003:B 1.6 
5 *330:19 *330:34 8.69 
6 *330:34 *1006:C_N 4.05 
7 *330:34 *330:45 1.38 
8 *330:45 *330:51 6.865 
9 *330:51 *994:C 5.955 
10 *330:51 *330:64 2.91 
11 *330:64 *1001:A 4.395 
12 *330:64 *330:75 4.185 
13 *330:75 *1100:A1 3.6 
14 *330:75 *330:88 9.86 
15 *330:88 *1000:A_N 13.145 
16 *330:88 *992:A 1.6 
17 *330:45 *330:116 4.1 
18 *330:116 *995:C 2.05 
19 *330:116 *1005:A_N 7.94 
*END

*D_NET *331 0.00924623
*CONN
*I *1100:B1 I *D sky130_fd_sc_hd__o21ai_1
*I *992:B I *D sky130_fd_sc_hd__and2_1
*I *1000:D I *D sky130_fd_sc_hd__and4bb_1
*I *1005:D I *D sky130_fd_sc_hd__and4bb_1
*I *1001:B I *D sky130_fd_sc_hd__nor2_1
*I *995:B I *D sky130_fd_sc_hd__nand3b_4
*I *1006:A I *D sky130_fd_sc_hd__or3b_1
*I *994:B I *D sky130_fd_sc_hd__and3b_1
*I *998:B I *D sky130_fd_sc_hd__or4bb_4
*I *1003:D_N I *D sky130_fd_sc_hd__or4b_4
*I *1211:X O *D sky130_fd_sc_hd__clkbuf_4
*CAP
1 *1100:B1 0.00019742
2 *992:B 0.00011298
3 *1000:D 0.000158772
4 *1005:D 0
5 *1001:B 8.77359e-05
6 *995:B 0
7 *1006:A 0
8 *994:B 0.000151121
9 *998:B 0.000466581
10 *1003:D_N 8.90552e-05
11 *1211:X 0.000274721
12 *331:93 0.000324098
13 *331:89 0.000437329
14 *331:71 0.000321979
15 *331:67 0.000529194
16 *331:40 0.000205541
17 *331:16 0.000583223
18 *331:14 0.00020004
19 *331:12 0.000228022
20 *331:6 0.000492096
21 *994:A_N *994:B 0.00011822
22 *994:A_N *331:40 0.000149765
23 *1000:A_N *992:B 7.44453e-05
24 *1000:A_N *1000:D 6.1357e-05
25 *1000:C *1000:D 0.000455121
26 *1003:C *1003:D_N 2.66935e-05
27 *1003:C *331:14 8.08153e-06
28 *1003:C *331:16 2.66852e-05
29 *1005:B_N *331:71 8.49205e-05
30 *1005:C *331:71 1.56428e-05
31 *1006:B *1003:D_N 4.43871e-06
32 *1006:B *331:14 1.52184e-05
33 *1006:B *331:16 3.9442e-05
34 *1006:C_N *994:B 4.82919e-05
35 *1007:B *994:B 0.00015806
36 *1007:B *331:40 4.35432e-05
37 *1047:C *331:71 4.12502e-05
38 *1101:A1 *1100:B1 1.33293e-05
39 *1101:A2 *992:B 0
40 *1101:B1 *1100:B1 1.61831e-05
41 *1101:B2 *1100:B1 8.8266e-05
42 *1103:A2 *331:89 0
43 *1103:B1 *1000:D 2.7441e-05
44 *1103:B1 *1100:B1 0.000152328
45 *1103:B1 *331:89 0
46 *1103:B1 *331:93 0.000163199
47 *1103:C1 *992:B 0
48 *1103:C1 *331:89 0
49 *1104:B1 *331:12 0
50 *1104:B1 *331:14 0
51 *1104:B1 *331:67 9.86611e-05
52 *1104:B1 *331:89 5.02217e-05
53 *1112:D_N *998:B 0.000682399
54 *1112:D_N *331:40 9.02259e-05
55 *169:16 *331:6 0.000216177
56 *169:16 *331:12 5.05521e-05
57 *239:8 *331:12 0
58 *239:8 *331:14 0
59 *239:14 *1003:D_N 0
60 *242:6 *1001:B 4.47125e-05
61 *242:6 *331:71 1.80064e-05
62 *242:23 *331:89 0
63 *285:28 *1003:D_N 2.11084e-05
64 *312:8 *1001:B 4.82919e-05
65 *315:10 *1000:D 1.91597e-05
66 *327:84 *1000:D 0.000194694
67 *327:97 *1000:D 0.000444251
68 *327:97 *1100:B1 0.000273878
69 *327:97 *331:93 0.000168841
70 *328:16 *331:12 0
71 *328:16 *331:67 0
72 *328:44 *331:40 8.49205e-05
73 *330:34 *1003:D_N 4.82919e-05
*RES
1 *1211:X *331:6 5.155 
2 *331:6 *331:12 3.665 
3 *331:12 *331:14 1.89 
4 *331:14 *331:16 0.87 
5 *331:16 *1003:D_N 5.175 
6 *331:16 *998:B 9.915 
7 *331:14 *331:40 4.175 
8 *331:40 *994:B 5.095 
9 *331:40 *1006:A 1.6 
10 *331:12 *995:B 3.6 
11 *331:6 *331:67 4.145 
12 *331:67 *331:71 4.865 
13 *331:71 *1001:B 3.355 
14 *331:71 *1005:D 1.6 
15 *331:67 *331:89 5.165 
16 *331:89 *331:93 2.1 
17 *331:93 *1000:D 7.915 
18 *331:93 *992:B 7.49 
19 *331:89 *1100:B1 6.205 
*END

*D_NET *332 0.0145906
*CONN
*I *1134:RESET_B I *D sky130_fd_sc_hd__dfrtp_1
*I *1131:RESET_B I *D sky130_fd_sc_hd__dfrtp_2
*I *1135:RESET_B I *D sky130_fd_sc_hd__dfrtp_1
*I *1132:RESET_B I *D sky130_fd_sc_hd__dfrtp_1
*I *1139:RESET_B I *D sky130_fd_sc_hd__dfrtp_1
*I *1122:RESET_B I *D sky130_fd_sc_hd__dfrtp_2
*I *1136:RESET_B I *D sky130_fd_sc_hd__dfrtp_1
*I *1138:RESET_B I *D sky130_fd_sc_hd__dfrtp_1
*I *1123:RESET_B I *D sky130_fd_sc_hd__dfrtp_1
*I *1121:RESET_B I *D sky130_fd_sc_hd__dfrtp_4
*I *1212:X O *D sky130_fd_sc_hd__clkbuf_4
*CAP
1 *1134:RESET_B 0.000540259
2 *1131:RESET_B 5.8348e-05
3 *1135:RESET_B 0.000820483
4 *1132:RESET_B 0.000820483
5 *1139:RESET_B 0.000154757
6 *1122:RESET_B 0.000663157
7 *1136:RESET_B 6.04201e-05
8 *1138:RESET_B 0.000185226
9 *1123:RESET_B 6.38706e-05
10 *1121:RESET_B 0.000829636
11 *1212:X 0.000575727
12 *332:56 0.000812138
13 *332:52 0.000644458
14 *332:44 0.000747259
15 *332:40 0.000413252
16 *332:38 0.000528829
17 *332:36 0.000902399
18 *332:24 0.000461796
19 *1134:RESET_B *334:36 0.000197269
20 *1010:B *1122:RESET_B 0
21 *1040:A1 *332:24 5.16418e-05
22 *1040:B2 *332:24 0.000114492
23 *1086:B *332:24 0.000359355
24 *1086:B *332:36 0.000123751
25 *1086:B *332:38 7.09921e-05
26 *1087:B2 *1134:RESET_B 0.000694709
27 *1089:B *1122:RESET_B 0
28 *1093:A0 *332:40 0.000106648
29 *1093:A0 *332:44 0.000140905
30 *1093:S *332:38 1.73877e-05
31 *1097:A1 *1122:RESET_B 0
32 *1121:CLK *1121:RESET_B 5.56629e-05
33 *1121:D *1121:RESET_B 6.47516e-05
34 *1122:D *1122:RESET_B 9.50342e-06
35 *1123:D *1123:RESET_B 0.000156088
36 *1123:D *332:36 0.000110673
37 *1131:CLK *1131:RESET_B 4.80285e-05
38 *1131:D *1131:RESET_B 4.5105e-05
39 *1139:CLK *332:44 7.44453e-05
40 *1139:CLK *332:52 0.000658594
41 *1251:A *332:56 0
42 *1256:A *332:44 5.21714e-05
43 *116:8 *1135:RESET_B 0
44 *150:12 *1131:RESET_B 0.000228851
45 *150:12 *332:40 0
46 *150:29 *332:24 0.000107184
47 *150:38 *332:24 2.05583e-05
48 *150:59 *332:24 4.41506e-05
49 *199:20 *1122:RESET_B 0.000157375
50 *239:46 *332:24 6.63413e-05
51 *252:14 *1121:RESET_B 0
52 *268:10 *332:36 0
53 *268:10 *332:38 0
54 *268:16 *332:38 7.4538e-05
55 *268:18 *332:38 2.86623e-05
56 *268:18 *332:40 0.000275359
57 *268:18 *332:44 3.95347e-05
58 *268:20 *332:44 6.73424e-05
59 *268:42 *1135:RESET_B 8.50038e-05
60 *268:44 *1135:RESET_B 9.4531e-05
61 *268:59 *1135:RESET_B 0.000148111
62 *281:20 *1121:RESET_B 1.63259e-06
63 *281:20 *332:24 9.33865e-05
64 *282:10 *1122:RESET_B 0
65 *283:8 *1123:RESET_B 1.08758e-05
66 *283:8 *332:36 0.000120655
67 *300:21 *1121:RESET_B 4.40342e-05
68 *310:34 *1122:RESET_B 7.36562e-05
69 *310:34 *1136:RESET_B 7.00685e-05
70 *310:58 *1122:RESET_B 0.000304056
71 *326:34 *1122:RESET_B 0
72 *326:38 *1122:RESET_B 0
*RES
1 *1212:X *1121:RESET_B 13.2425 
2 *1121:RESET_B *332:24 11.4025 
3 *332:24 *1123:RESET_B 1.4325 
4 *332:24 *332:36 5.795 
5 *332:36 *332:38 4.185 
6 *332:38 *332:40 5.715 
7 *332:40 *332:44 5.93 
8 *332:44 *1138:RESET_B 2.4675 
9 *332:44 *332:52 7.35 
10 *332:52 *332:56 3.38 
11 *332:56 *1136:RESET_B 3.0875 
12 *332:56 *1122:RESET_B 14.9525 
13 *332:52 *1139:RESET_B 2.1225 
14 *332:40 *1132:RESET_B 2 
15 *1132:RESET_B *1135:RESET_B 12.12 
16 *332:38 *1131:RESET_B 4.1225 
17 *332:36 *1134:RESET_B 13.0925 
*END

*D_NET *333 0.0102467
*CONN
*I *1155:RESET_B I *D sky130_fd_sc_hd__dfrtp_1
*I *1141:RESET_B I *D sky130_fd_sc_hd__dfrtp_1
*I *1144:RESET_B I *D sky130_fd_sc_hd__dfrtp_1
*I *1133:RESET_B I *D sky130_fd_sc_hd__dfrtp_1
*I *1146:RESET_B I *D sky130_fd_sc_hd__dfrtp_1
*I *1145:RESET_B I *D sky130_fd_sc_hd__dfrtp_1
*I *1143:RESET_B I *D sky130_fd_sc_hd__dfrtp_1
*I *1119:RESET_B I *D sky130_fd_sc_hd__dfrtp_1
*I *1120:RESET_B I *D sky130_fd_sc_hd__dfrtp_1
*I *1125:RESET_B I *D sky130_fd_sc_hd__dfrtp_1
*I *1213:X O *D sky130_fd_sc_hd__clkbuf_4
*CAP
1 *1155:RESET_B 0.000229768
2 *1141:RESET_B 0
3 *1144:RESET_B 0
4 *1133:RESET_B 0.000463122
5 *1146:RESET_B 2.3296e-05
6 *1145:RESET_B 3.61994e-06
7 *1143:RESET_B 1.62722e-05
8 *1119:RESET_B 3.01594e-05
9 *1120:RESET_B 2.3296e-05
10 *1125:RESET_B 0.000214563
11 *1213:X 0
12 *333:105 0.000734773
13 *333:80 0.00101295
14 *333:66 0.000694234
15 *333:52 0.000521365
16 *333:46 0.000762831
17 *333:44 0.00120994
18 *333:34 0.000678933
19 *333:20 0.000586955
20 *333:4 0.00041257
21 *1125:RESET_B *1213:A 9.53428e-06
22 *1125:RESET_B *334:36 0.000577827
23 *333:20 *1156:RESET_B 8.88108e-06
24 *333:20 *334:36 5.062e-06
25 *333:34 *1016:A1 0.000124895
26 *985:A *333:105 0
27 *1015:A1 *1143:RESET_B 4.24575e-05
28 *1015:A1 *333:52 8.65961e-05
29 *1015:A1 *333:66 3.47837e-05
30 *1016:A0 *333:34 0.000122337
31 *1016:S *333:34 0.000210411
32 *1017:A1 *333:46 0
33 *1017:S *1133:RESET_B 0
34 *1018:A0 *333:34 4.66108e-05
35 *1099:A2 *1155:RESET_B 0.000141592
36 *1104:A2 *1155:RESET_B 0
37 *1119:CLK *333:20 2.03578e-05
38 *1119:D *333:34 0.0001249
39 *1125:D *1125:RESET_B 0.000118651
40 *1133:D *1133:RESET_B 0.000118651
41 *1141:D *1155:RESET_B 0
42 *1141:D *333:105 0
43 *1143:CLK *1133:RESET_B 0
44 *1144:CLK *1145:RESET_B 2.65337e-05
45 *1144:CLK *333:66 9.2741e-05
46 *1144:CLK *333:80 0.000190287
47 *1155:CLK *1155:RESET_B 0
48 *1155:D *1155:RESET_B 0
49 *140:16 *333:34 4.43682e-05
50 *239:14 *1155:RESET_B 0
51 *243:16 *333:34 0
52 *265:8 *333:34 4.94326e-05
53 *265:8 *333:105 0
54 *266:8 *333:20 4.94326e-05
55 *270:23 *333:20 5.12017e-06
56 *270:36 *1120:RESET_B 2.40101e-05
57 *270:36 *333:34 7.10578e-05
58 *270:47 *1133:RESET_B 0
59 *270:47 *333:20 0
60 *270:51 *1133:RESET_B 0
61 *270:60 *1146:RESET_B 2.40101e-05
62 *270:60 *333:80 7.35813e-05
63 *270:67 *333:80 7.15015e-05
64 *310:20 *1133:RESET_B 0.000112381
*RES
1 *1213:X *333:4 1.6 
2 *333:4 *1125:RESET_B 6.3525 
3 *333:4 *333:20 7.03 
4 *333:20 *1120:RESET_B 0.3975 
5 *333:20 *333:34 12.385 
6 *333:34 *1119:RESET_B 0.3975 
7 *333:34 *333:44 5.9 
8 *333:44 *333:46 6.99 
9 *333:46 *333:52 7.28 
10 *333:52 *1143:RESET_B 0.3975 
11 *333:52 *333:66 6.865 
12 *333:66 *1145:RESET_B 0.3975 
13 *333:66 *333:80 7.83 
14 *333:80 *1146:RESET_B 0.3975 
15 *333:80 *1133:RESET_B 11.7925 
16 *333:46 *1144:RESET_B 2 
17 *333:44 *333:105 8.265 
18 *333:105 *1141:RESET_B 2 
19 *333:105 *1155:RESET_B 6.185 
*END

*D_NET *334 0.0123276
*CONN
*I *1212:A I *D sky130_fd_sc_hd__clkbuf_4
*I *1153:RESET_B I *D sky130_fd_sc_hd__dfrtp_1
*I *1156:RESET_B I *D sky130_fd_sc_hd__dfrtp_1
*I *1213:A I *D sky130_fd_sc_hd__clkbuf_4
*I *1137:RESET_B I *D sky130_fd_sc_hd__dfrtp_1
*I *1214:X O *D sky130_fd_sc_hd__clkbuf_2
*CAP
1 *1212:A 0.000524912
2 *1153:RESET_B 0
3 *1156:RESET_B 0.000588762
4 *1213:A 1.85694e-05
5 *1137:RESET_B 3.27824e-05
6 *1214:X 0
7 *334:58 0.000677669
8 *334:36 0.00319779
9 *334:12 0.00341103
10 *334:6 0.000940543
11 *1212:A *1154:RESET_B 2.65337e-05
12 *1050:A1 *334:36 7.23533e-05
13 *1084:C1 *1156:RESET_B 0
14 *1084:D1 *1156:RESET_B 0
15 *1086:B *334:36 2.46089e-05
16 *1087:A1 *334:36 1.43526e-05
17 *1087:B2 *334:36 8.55275e-05
18 *1087:C1 *334:36 4.17972e-05
19 *1111:A1 *1156:RESET_B 0
20 *1125:D *334:36 3.21052e-05
21 *1125:RESET_B *1213:A 9.53428e-06
22 *1125:RESET_B *334:36 0.000577827
23 *1134:RESET_B *334:36 0.000197269
24 *1137:D *334:12 7.2694e-05
25 *1197:A *1212:A 0.000110632
26 *1214:A *1212:A 0
27 *1214:A *334:58 0.000134588
28 *1217:A *1156:RESET_B 4.66826e-05
29 *139:42 *1156:RESET_B 0.000366964
30 *140:16 *1156:RESET_B 3.67779e-05
31 *150:29 *334:36 7.01359e-05
32 *199:10 *334:36 8.23457e-05
33 *253:8 *1212:A 0.000393391
34 *268:85 *334:12 8.97564e-05
35 *268:104 *334:12 7.53115e-05
36 *270:23 *1156:RESET_B 0.000335858
37 *310:95 *1156:RESET_B 2.45838e-05
38 *333:20 *1156:RESET_B 8.88108e-06
39 *333:20 *334:36 5.062e-06
*RES
1 *1214:X *334:6 3.6 
2 *334:6 *334:12 13.175 
3 *334:12 *1137:RESET_B 0.5625 
4 *334:12 *334:36 39.035 
5 *334:36 *1213:A 1.96 
6 *334:36 *1156:RESET_B 15.46 
7 *334:6 *334:58 3.36 
8 *334:58 *1153:RESET_B 2 
9 *334:58 *1212:A 13.365 
*END

*D_NET *335 0.00780113
*CONN
*I *1128:RESET_B I *D sky130_fd_sc_hd__dfrtp_2
*I *1142:RESET_B I *D sky130_fd_sc_hd__dfrtp_1
*I *1129:RESET_B I *D sky130_fd_sc_hd__dfrtp_1
*I *1149:RESET_B I *D sky130_fd_sc_hd__dfrtp_1
*I *1148:RESET_B I *D sky130_fd_sc_hd__dfrtp_1
*I *1147:RESET_B I *D sky130_fd_sc_hd__dfrtp_1
*I *1150:RESET_B I *D sky130_fd_sc_hd__dfrtp_1
*I *1151:RESET_B I *D sky130_fd_sc_hd__dfrtp_1
*I *1154:RESET_B I *D sky130_fd_sc_hd__dfrtp_1
*I *1152:RESET_B I *D sky130_fd_sc_hd__dfrtp_1
*I *1215:X O *D sky130_fd_sc_hd__clkbuf_4
*CAP
1 *1128:RESET_B 0.000358785
2 *1142:RESET_B 0.000431878
3 *1129:RESET_B 7.87379e-05
4 *1149:RESET_B 2.48235e-05
5 *1148:RESET_B 3.24164e-05
6 *1147:RESET_B 1.21718e-05
7 *1150:RESET_B 3.24164e-05
8 *1151:RESET_B 0.000106955
9 *1154:RESET_B 0.00011572
10 *1152:RESET_B 5.72667e-05
11 *1215:X 0.000162043
12 *335:84 0.000510616
13 *335:82 0.000873982
14 *335:72 0.000612678
15 *335:60 0.000291802
16 *335:50 0.000550555
17 *335:40 0.000670563
18 *335:26 0.0005655
19 *335:14 0.000287774
20 *335:6 0.000219309
21 *1142:RESET_B *347:12 0.000125972
22 *335:26 *1151:D 9.50342e-06
23 *335:40 *1151:D 0.000265852
24 *1035:A1 *335:50 2.40105e-05
25 *1042:B *335:50 0
26 *1127:CLK *1142:RESET_B 0
27 *1128:D *1129:RESET_B 0
28 *1151:CLK *335:26 0
29 *1151:CLK *335:40 3.76827e-05
30 *1212:A *1154:RESET_B 2.65337e-05
31 *1263:A *1147:RESET_B 1.5913e-05
32 *1263:A *335:50 9.05377e-05
33 *251:6 *335:6 9.73618e-05
34 *262:10 *335:50 0.000140852
35 *262:10 *335:60 0.000203493
36 *262:10 *335:72 5.21046e-05
37 *269:91 *1149:RESET_B 2.40101e-05
38 *269:91 *335:82 0.000278321
39 *269:104 *1128:RESET_B 6.32842e-05
40 *269:104 *335:82 0.000307247
41 *302:28 *1147:RESET_B 4.24575e-05
*RES
1 *1215:X *335:6 4.465 
2 *335:6 *1152:RESET_B 0.7425 
3 *335:6 *335:14 2 
4 *335:14 *1154:RESET_B 3.7775 
5 *335:14 *335:26 2.91 
6 *335:26 *1151:RESET_B 3.4325 
7 *335:26 *335:40 6.015 
8 *335:40 *1150:RESET_B 2.3975 
9 *335:40 *335:50 6.99 
10 *335:50 *1147:RESET_B 2.3975 
11 *335:50 *335:60 4.185 
12 *335:60 *1148:RESET_B 2.3975 
13 *335:60 *335:72 3.38 
14 *335:72 *1149:RESET_B 0.3975 
15 *335:72 *335:82 9.435 
16 *335:82 *335:84 2 
17 *335:84 *1129:RESET_B 3.125 
18 *335:84 *1142:RESET_B 9.1025 
19 *335:82 *1128:RESET_B 4.6575 
*END

*D_NET *336 0.0084343
*CONN
*I *1124:RESET_B I *D sky130_fd_sc_hd__dfrtp_1
*I *1127:RESET_B I *D sky130_fd_sc_hd__dfrtp_2
*I *1140:RESET_B I *D sky130_fd_sc_hd__dfrtp_1
*I *1157:RESET_B I *D sky130_fd_sc_hd__dfrtp_1
*I *1126:RESET_B I *D sky130_fd_sc_hd__dfrtp_1
*I *1158:RESET_B I *D sky130_fd_sc_hd__dfrtp_1
*I *1130:RESET_B I *D sky130_fd_sc_hd__dfrtp_1
*I *1216:X O *D sky130_fd_sc_hd__buf_2
*CAP
1 *1124:RESET_B 2.63316e-05
2 *1127:RESET_B 0.000127116
3 *1140:RESET_B 0
4 *1157:RESET_B 0.000112595
5 *1126:RESET_B 2.71875e-05
6 *1158:RESET_B 0.000361248
7 *1130:RESET_B 7.42417e-05
8 *1216:X 0.000149217
9 *336:56 0.000974831
10 *336:42 0.001288
11 *336:34 0.00110694
12 *336:20 0.00101309
13 *336:10 0.00042893
14 *336:8 0.000459652
15 *336:56 *987:A 2.75229e-05
16 *1009:A *336:56 2.19562e-06
17 *1050:A1 *1124:RESET_B 2.10433e-05
18 *1050:A1 *336:8 0.000147967
19 *1050:A1 *336:10 1.38403e-05
20 *1061:A1 *336:42 8.49205e-05
21 *1061:S *1127:RESET_B 0
22 *1061:S *336:34 0
23 *1081:C1 *336:10 9.57888e-05
24 *1081:C1 *336:20 4.11112e-05
25 *1081:C1 *336:34 1.01661e-05
26 *1082:A2 *336:34 0.00021465
27 *1082:B1 *336:34 4.94326e-05
28 *1124:CLK *336:10 0.000344608
29 *1124:D *336:8 0
30 *1126:CLK *1126:RESET_B 6.8731e-05
31 *1126:CLK *336:42 7.16103e-05
32 *1126:CLK *336:56 0.000161561
33 *1126:D *336:42 4.82919e-05
34 *1158:CLK *336:10 0
35 *1158:CLK *336:20 0
36 *1158:CLK *336:34 0
37 *1160:A *1157:RESET_B 9.99492e-05
38 *1160:A *336:56 3.26735e-05
39 *1220:A *336:56 1.83847e-05
40 *1249:A *336:34 5.46798e-05
41 *173:14 *336:34 0
42 *174:8 *336:34 3.18137e-05
43 *174:14 *336:34 8.90058e-05
44 *176:10 *336:34 0.000114492
45 *176:14 *336:34 4.51489e-05
46 *177:19 *336:34 0
47 *264:10 *1157:RESET_B 0
48 *277:10 *1127:RESET_B 9.24127e-05
49 *277:10 *336:34 1.07797e-05
50 *277:16 *336:34 0.000173965
51 *280:6 *1130:RESET_B 0.000118178
52 *325:35 *336:34 0
*RES
1 *1216:X *336:8 6.8925 
2 *336:8 *336:10 6.8625 
3 *336:10 *1130:RESET_B 3.4325 
4 *336:10 *336:20 1.38 
5 *336:20 *1158:RESET_B 6.8825 
6 *336:20 *336:34 12.9 
7 *336:34 *336:42 8.09 
8 *336:42 *1126:RESET_B 1.4475 
9 *336:42 *336:56 12.89 
10 *336:56 *1157:RESET_B 4.655 
11 *336:56 *1140:RESET_B 2 
12 *336:34 *1127:RESET_B 4.655 
13 *336:8 *1124:RESET_B 2.6825 
*END

*D_NET *337 0.000388436
*CONN
*I *1146:D I *D sky130_fd_sc_hd__dfrtp_1
*I *1245:X O *D sky130_fd_sc_hd__clkbuf_1
*CAP
1 *1146:D 0.000194218
2 *1245:X 0.000194218
3 *1253:A *1146:D 0
*RES
1 *1245:X *1146:D 10.365 
*END

*D_NET *338 0.00155663
*CONN
*I *1151:D I *D sky130_fd_sc_hd__dfrtp_1
*I *1246:X O *D sky130_fd_sc_hd__clkbuf_1
*CAP
1 *1151:D 0.000522922
2 *1246:X 0.000522922
3 *1151:CLK *1151:D 0.000112291
4 *269:12 *1151:D 6.20954e-05
5 *269:16 *1151:D 6.10417e-05
6 *335:26 *1151:D 9.50342e-06
7 *335:40 *1151:D 0.000265852
*RES
1 *1246:X *1151:D 15.645 
*END

*D_NET *339 0.000604493
*CONN
*I *1152:D I *D sky130_fd_sc_hd__dfrtp_1
*I *1247:X O *D sky130_fd_sc_hd__clkbuf_1
*CAP
1 *1152:D 0.000180485
2 *1247:X 0.000180485
3 *1154:CLK *1152:D 4.18603e-06
4 *1154:D *1152:D 0.000118513
5 *1247:A *1152:D 9.58678e-06
6 *269:18 *1152:D 0.000111238
*RES
1 *1247:X *1152:D 11.07 
*END

*D_NET *340 0.000259559
*CONN
*I *1153:D I *D sky130_fd_sc_hd__dfrtp_1
*I *1248:X O *D sky130_fd_sc_hd__clkbuf_1
*CAP
1 *1153:D 0.00012978
2 *1248:X 0.00012978
3 *1214:A *1153:D 0
*RES
1 *1248:X *1153:D 9.03 
*END

*D_NET *341 0.000544577
*CONN
*I *1018:A1 I *D sky130_fd_sc_hd__mux2_1
*I *1217:X O *D sky130_fd_sc_hd__dlygate4sd3_1
*CAP
1 *1018:A1 0.000213373
2 *1217:X 0.000213373
3 *243:16 *1018:A1 0
4 *310:95 *1018:A1 0.000117832
*RES
1 *1217:X *1018:A1 10.065 
*END

*D_NET *342 0.000423811
*CONN
*I *1016:A1 I *D sky130_fd_sc_hd__mux2_1
*I *1218:X O *D sky130_fd_sc_hd__dlygate4sd3_1
*CAP
1 *1016:A1 0.000147633
2 *1218:X 0.000147633
3 *1218:A *1016:A1 3.64998e-06
4 *333:34 *1016:A1 0.000124895
*RES
1 *1218:X *1016:A1 5.03 
*END

*D_NET *343 5.97061e-05
*CONN
*I *1238:A I *D sky130_fd_sc_hd__buf_1
*I *1219:X O *D sky130_fd_sc_hd__dlygate4sd3_1
*CAP
1 *1238:A 2.9853e-05
2 *1219:X 2.9853e-05
*RES
1 *1219:X *1238:A 3.65 
*END

*D_NET *344 7.39567e-05
*CONN
*I *987:A I *D sky130_fd_sc_hd__inv_2
*I *1220:X O *D sky130_fd_sc_hd__dlygate4sd3_1
*CAP
1 *987:A 2.32169e-05
2 *1220:X 2.32169e-05
3 *336:56 *987:A 2.75229e-05
*RES
1 *1220:X *987:A 3.65 
*END

*D_NET *345 0.000463713
*CONN
*I *1098:A1 I *D sky130_fd_sc_hd__mux2_1
*I *1221:X O *D sky130_fd_sc_hd__dlygate4sd3_1
*CAP
1 *1098:A1 0.000111115
2 *1221:X 0.000111115
3 *1221:A *1098:A1 0.000241483
*RES
1 *1221:X *1098:A1 5.375 
*END

*D_NET *346 0.0013197
*CONN
*I *1046:A0 I *D sky130_fd_sc_hd__mux2_1
*I *1222:X O *D sky130_fd_sc_hd__dlygate4sd3_1
*CAP
1 *1046:A0 0.000646094
2 *1222:X 0.000646094
3 *1045:B2 *1046:A0 0
4 *1046:A1 *1046:A0 2.75145e-05
5 *1124:D *1046:A0 0
*RES
1 *1222:X *1046:A0 15.405 
*END

*D_NET *347 0.00863766
*CONN
*I *988:A I *D sky130_fd_sc_hd__inv_2
*I *1117:A1 I *D sky130_fd_sc_hd__a31o_1
*I *1142:Q O *D sky130_fd_sc_hd__dfrtp_1
*CAP
1 *988:A 0
2 *1117:A1 0.000222287
3 *1142:Q 0.00271312
4 *347:16 0.000693435
5 *347:12 0.00318427
6 *1052:A1 *347:12 0.000278111
7 *1053:A1 *347:12 0.000476515
8 *1102:A1 *1117:A1 0
9 *1126:D *347:12 8.49205e-05
10 *1127:CLK *347:12 0.000603253
11 *1142:RESET_B *347:12 0.000125972
12 *1257:A *1117:A1 0.000162022
13 *1257:A *347:16 4.18603e-06
14 *236:21 *1117:A1 2.97004e-06
15 *264:10 *347:16 0
16 *277:10 *347:12 8.65961e-05
*RES
1 *1142:Q *347:12 42.81 
2 *347:12 *347:16 9.755 
3 *347:16 *1117:A1 9.68 
4 *347:16 *988:A 1.6 
*END
